,X,Y,Z,          U-U1,          U-U2,          U-U3,S11,S22,S12
2,50.0,50.0,0.0,      -1.01048,   64.5166E-03,            0.,0.0418089,0.00687014,0.00486847
5,49.0,50.0,1.97102e-06,      -1.01052,   64.5045E-03,   4.40258E-03,0.0453491,0.00497514,0.00509935
6,48.0,50.0,1.07468e-05,      -1.01045,   64.4816E-03,   20.5823E-03,0.0486832,0.0025867,0.00385288
11,47.0,50.0,2.87642e-05,      -1.01008,   64.4606E-03,   50.2146E-03,0.0484185,0.00187247,0.00204924
12,46.0,50.0,5.6269899999999995e-05,      -1.00925,   64.4436E-03,   92.7236E-03,0.0479489,0.00146365,0.00124786
17,45.0,50.0,9.353479999999999e-05,      -1.00781,   64.4315E-03,   147.955E-03,0.0470866,0.00120568,0.000610076
20,44.0,50.0,0.000140508,      -1.00562,   64.4235E-03,   215.472E-03,0.0460521,0.00105354,0.00028496
21,43.0,50.0,0.00019710299999999999,      -1.00255,   64.4186E-03,   294.931E-03,0.0448118,0.000929451,5.27482e-05
26,42.0,50.0,0.000263122,  -998.489E-03,   64.4162E-03,   385.910E-03,0.0434057,0.00084584,-7.0228e-05
27,41.0,50.0,0.00033832400000000004,  -993.351E-03,   64.4152E-03,   487.996E-03,0.0418307,0.000770121,-0.000156037
32,40.0,50.0,0.00042241,  -987.056E-03,   64.4156E-03,   600.739E-03,0.0401,0.000709473,-0.000211328
35,39.0,50.0,0.000515037,  -979.547E-03,   64.4169E-03,   723.670E-03,0.0382171,0.000653042,-0.00026125
36,38.0,50.0,0.000615825,  -970.783E-03,   64.4193E-03,   856.292E-03,0.0361894,0.000602004,-0.000314578
41,37.0,50.0,0.000724354,  -960.741E-03,   64.4225E-03,   998.080E-03,0.0340221,0.000554489,-0.000379609
42,36.0,50.0,0.000840175,  -949.419E-03,   64.4270E-03,       1.14848,0.0317216,0.000508961,-0.00046245
47,35.0,50.0,0.000962805,  -936.832E-03,   64.4325E-03,       1.30693,0.0292943,0.000466338,-0.000564258
50,34.0,50.0,0.00109174,  -923.015E-03,   64.4393E-03,       1.47280,0.0267477,0.00042428,-0.000687022
51,33.0,50.0,0.00122643,  -908.021E-03,   64.4472E-03,       1.64547,0.0240906,0.000383899,-0.000827496
56,32.0,50.0,0.00136634,  -891.923E-03,   64.4561E-03,       1.82428,0.0213334,0.000342901,-0.000983093
57,31.0,50.0,0.00151088,  -874.811E-03,   64.4655E-03,       2.00853,0.018489,0.000301899,-0.00114701
62,30.0,50.0,0.00165945,  -856.792E-03,   64.4749E-03,       2.19752,0.0155728,0.000259091,-0.00131277
65,29.0,50.0,0.00181144,  -837.990E-03,   64.4839E-03,       2.39050,0.0126032,0.000214804,-0.00147134
66,28.0,50.0,0.00196624,  -818.541E-03,   64.4916E-03,       2.58670,0.00960101,0.000168035,-0.00161445
71,27.0,50.0,0.0021232,  -798.597E-03,   64.4977E-03,       2.78534,0.00658958,0.000119247,-0.00173339
72,26.0,50.0,0.00228168,  -778.317E-03,   64.5015E-03,       2.98561,0.00359337,6.83191e-05,-0.00182122
77,25.0,50.0,0.00244103,  -757.867E-03,   64.5028E-03,       3.18671,0.000636922,1.60214e-05,-0.00187248
80,24.0,50.0,0.00260061,  -737.416E-03,   64.5014E-03,       3.38781,-0.00225667,-3.7152e-05,-0.0018844
81,23.0,50.0,0.00275976,  -717.136E-03,   64.4975E-03,       3.58808,-0.00506723,-9.03382e-05,-0.0018567
86,22.0,50.0,0.00291783,  -697.191E-03,   64.4914E-03,       3.78672,-0.00777876,-0.000142942,-0.00179186
87,21.0,50.0,0.00307419,  -677.743E-03,   64.4836E-03,       3.98292,-0.0103802,-0.000194396,-0.00169462
92,20.0,50.0,0.00322819,  -658.940E-03,   64.4748E-03,       4.17590,-0.0128656,-0.000244446,-0.00157155
95,19.0,50.0,0.00337921,  -640.922E-03,   64.4656E-03,       4.36488,-0.0152338,-0.000293037,-0.00143025
96,18.0,50.0,0.00352663,  -623.811E-03,   64.4567E-03,       4.54912,-0.0174873,-0.000340365,-0.00127871
101,17.0,50.0,0.00366986,  -607.715E-03,   64.4484E-03,       4.72791,-0.0196313,-0.000386774,-0.00112451
102,16.0,50.0,0.00380832,  -592.724E-03,   64.4414E-03,       4.90056,-0.0216719,-0.000432691,-0.000974336
107,15.0,50.0,0.00394145,  -578.911E-03,   64.4357E-03,       5.06640,-0.0236148,-0.00047853,-0.000833487
110,14.0,50.0,0.0040687,  -566.330E-03,   64.4315E-03,       5.22480,-0.0254645,-0.000524607,-0.000705706
111,13.0,50.0,0.00418956,  -555.014E-03,   64.4288E-03,       5.37515,-0.0272232,-0.000571083,-0.000593141
116,12.0,50.0,0.00430355,  -544.979E-03,   64.4274E-03,       5.51688,-0.0288908,-0.000617918,-0.000496464
117,11.0,50.0,0.0044102,  -536.222E-03,   64.4271E-03,       5.64944,-0.0304643,-0.000664864,-0.000415119
122,10.0,50.0,0.00450908,  -528.718E-03,   64.4278E-03,       5.77232,-0.0319387,-0.000711471,-0.000347628
125,9.0,50.0,0.00459978,  -522.427E-03,   64.4290E-03,       5.88503,-0.0333073,-0.000757116,-0.000291929
126,8.0,50.0,0.00468196,  -517.288E-03,   64.4307E-03,       5.98714,-0.034562,-0.000801049,-0.000245686
131,7.0,50.0,0.00475526,  -513.223E-03,   64.4326E-03,       6.07823,-0.0356944,-0.000842442,-0.000206564
132,6.0,50.0,0.0048194,  -510.138E-03,   64.4345E-03,       6.15794,-0.0366958,-0.00088044,-0.000172431
137,5.0,50.0,0.00487412,  -507.924E-03,   64.4363E-03,       6.22595,-0.0375581,-0.000914211,-0.000141495
140,4.0,50.0,0.00491919,  -506.457E-03,   64.4378E-03,       6.28198,-0.0382741,-0.000942988,-0.000112372
141,3.0,50.0,0.00495444,  -505.603E-03,   64.4391E-03,       6.32580,-0.0388376,-0.000966103,-8.40975e-05
146,2.0,50.0,0.00497972,  -505.218E-03,   64.4400E-03,       6.35723,-0.0392437,-0.000983014,-5.60887e-05
147,1.0,50.0,0.00499492,  -505.150E-03,   64.4406E-03,       6.37614,-0.0394887,-0.000993323,-2.80739e-05
152,-7.065209999999999e-29,50.0,0.005,  -505.241E-03,   64.4408E-03,       6.38246,-0.0395706,-0.000996786,0.0
155,-1.0,50.0,0.00499492,  -505.332E-03,   64.4406E-03,       6.37614,-0.0394887,-0.000993323,2.80739e-05
156,-2.0,50.0,0.00497972,  -505.263E-03,   64.4400E-03,       6.35723,-0.0392437,-0.000983014,5.60887e-05
161,-3.0,50.0,0.00495444,  -504.878E-03,   64.4391E-03,       6.32580,-0.0388376,-0.000966103,8.40975e-05
162,-4.0,50.0,0.00491919,  -504.025E-03,   64.4378E-03,       6.28198,-0.0382741,-0.000942988,0.000112372
167,-5.0,50.0,0.00487412,  -502.558E-03,   64.4363E-03,       6.22595,-0.0375581,-0.000914211,0.000141495
170,-6.0,50.0,0.0048194,  -500.344E-03,   64.4345E-03,       6.15794,-0.0366958,-0.00088044,0.000172431
171,-7.0,50.0,0.00475526,  -497.259E-03,   64.4326E-03,       6.07823,-0.0356944,-0.000842442,0.000206564
176,-8.0,50.0,0.00468196,  -493.194E-03,   64.4307E-03,       5.98714,-0.034562,-0.000801049,0.000245686
177,-9.0,50.0,0.00459978,  -488.054E-03,   64.4290E-03,       5.88503,-0.0333073,-0.000757116,0.000291929
182,-10.0,50.0,0.00450908,  -481.763E-03,   64.4278E-03,       5.77232,-0.0319387,-0.000711471,0.000347628
185,-11.0,50.0,0.0044102,  -474.260E-03,   64.4271E-03,       5.64944,-0.0304643,-0.000664864,0.000415119
186,-12.0,50.0,0.00430355,  -465.503E-03,   64.4274E-03,       5.51688,-0.0288908,-0.000617918,0.000496464
191,-13.0,50.0,0.00418956,  -455.468E-03,   64.4288E-03,       5.37515,-0.0272232,-0.000571083,0.000593141
192,-14.0,50.0,0.0040687,  -444.152E-03,   64.4315E-03,       5.22480,-0.0254645,-0.000524607,0.000705706
197,-15.0,50.0,0.00394145,  -431.571E-03,   64.4357E-03,       5.06640,-0.0236148,-0.00047853,0.000833487
200,-16.0,50.0,0.00380832,  -417.758E-03,   64.4414E-03,       4.90056,-0.0216719,-0.000432691,0.000974336
201,-17.0,50.0,0.00366986,  -402.767E-03,   64.4484E-03,       4.72791,-0.0196313,-0.000386774,0.00112451
206,-18.0,50.0,0.00352663,  -386.671E-03,   64.4567E-03,       4.54912,-0.0174873,-0.000340365,0.00127871
207,-19.0,50.0,0.00337921,  -369.560E-03,   64.4656E-03,       4.36488,-0.0152338,-0.000293037,0.00143025
212,-20.0,50.0,0.00322819,  -351.541E-03,   64.4748E-03,       4.17590,-0.0128656,-0.000244446,0.00157155
215,-21.0,50.0,0.00307419,  -332.739E-03,   64.4836E-03,       3.98292,-0.0103802,-0.000194396,0.00169462
216,-22.0,50.0,0.00291783,  -313.291E-03,   64.4914E-03,       3.78672,-0.00777876,-0.000142942,0.00179186
221,-23.0,50.0,0.00275976,  -293.346E-03,   64.4975E-03,       3.58808,-0.00506723,-9.03382e-05,0.0018567
222,-24.0,50.0,0.00260061,  -273.066E-03,   64.5014E-03,       3.38781,-0.00225667,-3.7152e-05,0.0018844
227,-25.0,50.0,0.00244103,  -252.615E-03,   64.5028E-03,       3.18671,0.000636922,1.60214e-05,0.00187248
230,-26.0,50.0,0.00228168,  -232.165E-03,   64.5015E-03,       2.98561,0.00359337,6.83191e-05,0.00182122
231,-27.0,50.0,0.0021232,  -211.885E-03,   64.4977E-03,       2.78534,0.00658958,0.000119247,0.00173339
236,-28.0,50.0,0.00196624,  -191.940E-03,   64.4916E-03,       2.58670,0.00960101,0.000168035,0.00161445
237,-29.0,50.0,0.00181144,  -172.492E-03,   64.4839E-03,       2.39050,0.0126032,0.000214804,0.00147134
242,-30.0,50.0,0.00165945,  -153.690E-03,   64.4749E-03,       2.19752,0.0155728,0.000259091,0.00131277
245,-31.0,50.0,0.00151088,  -135.671E-03,   64.4655E-03,       2.00853,0.018489,0.000301899,0.00114701
246,-32.0,50.0,0.00136634,  -118.559E-03,   64.4561E-03,       1.82428,0.0213334,0.000342901,0.000983093
251,-33.0,50.0,0.00122643,  -102.461E-03,   64.4472E-03,       1.64547,0.0240906,0.000383899,0.000827496
252,-34.0,50.0,0.00109174,  -87.4671E-03,   64.4393E-03,       1.47280,0.0267477,0.00042428,0.000687022
257,-35.0,50.0,0.000962805,  -73.6499E-03,   64.4325E-03,       1.30693,0.0292943,0.000466338,0.000564258
260,-36.0,50.0,0.000840175,  -61.0629E-03,   64.4270E-03,       1.14848,0.0317216,0.000508961,0.00046245
261,-37.0,50.0,0.000724354,  -49.7407E-03,   64.4225E-03,   998.080E-03,0.0340221,0.000554489,0.000379609
266,-38.0,50.0,0.000615825,  -39.6991E-03,   64.4193E-03,   856.292E-03,0.0361894,0.000602004,0.000314578
267,-39.0,50.0,0.000515037,  -30.9347E-03,   64.4169E-03,   723.670E-03,0.0382171,0.000653042,0.00026125
272,-40.0,50.0,0.00042241,  -23.4256E-03,   64.4156E-03,   600.739E-03,0.0401,0.000709473,0.000211328
275,-41.0,50.0,0.00033832400000000004,  -17.1310E-03,   64.4152E-03,   487.996E-03,0.0418307,0.000770121,0.000156037
276,-42.0,50.0,0.000263122,  -11.9925E-03,   64.4162E-03,   385.910E-03,0.0434057,0.00084584,7.0228e-05
281,-43.0,50.0,0.00019710299999999999,  -7.93417E-03,   64.4186E-03,   294.931E-03,0.0448118,0.000929451,-5.27482e-05
282,-44.0,50.0,0.000140508,  -4.86259E-03,   64.4235E-03,   215.472E-03,0.0460521,0.00105354,-0.00028496
287,-45.0,50.0,9.353479999999999e-05,  -2.67008E-03,   64.4315E-03,   147.955E-03,0.0470866,0.00120568,-0.000610076
290,-46.0,50.0,5.6269899999999995e-05,  -1.22958E-03,   64.4436E-03,   92.7236E-03,0.0479489,0.00146365,-0.00124786
291,-47.0,50.0,2.87642e-05,  -405.420E-06,   64.4606E-03,   50.2146E-03,0.0484185,0.00187247,-0.00204924
296,-48.0,50.0,1.07468e-05,  -36.3602E-06,   64.4816E-03,   20.5823E-03,0.0486832,0.0025867,-0.00385288
297,-49.0,50.0,1.97102e-06,   35.3063E-06,   64.5045E-03,   4.40258E-03,0.0453491,0.00497514,-0.00509935
302,-50.0,50.0,0.0,  -33.6312E-45,   64.5166E-03,            0.,0.0418089,0.00687014,-0.00486847
305,50.0,49.0,0.0,      -1.01048,   64.5222E-03,            0.,0.0458324,0.0106817,0.00277816
306,49.0,49.0,3.6803500000000003e-06,      -1.01048,   64.5154E-03,   6.30479E-03,0.0463609,0.00845752,0.00336772
311,48.0,49.0,1.4850999999999999e-05,      -1.01033,   64.5009E-03,   24.5743E-03,0.0471242,0.00528576,0.00306586
312,47.0,49.0,3.4555e-05,      -1.00987,   64.4873E-03,   55.1807E-03,0.0470324,0.00392334,0.00176729
317,46.0,49.0,6.348e-05,      -1.00895,   64.4756E-03,   98.4106E-03,0.0463636,0.00322287,0.00104247
320,45.0,49.0,0.000101755,      -1.00743,   64.4671E-03,   153.980E-03,0.0455243,0.00277436,0.00054952
321,44.0,49.0,0.00014945100000000002,      -1.00515,   64.4609E-03,   221.697E-03,0.0444722,0.00248515,0.000267599
326,43.0,49.0,0.00020647,      -1.00200,   64.4569E-03,   301.212E-03,0.0432688,0.00226336,0.000103144
327,42.0,49.0,0.000272659,  -997.878E-03,   64.4543E-03,   392.182E-03,0.0419015,0.0020868,1.63829e-05
332,41.0,49.0,0.000347788,  -992.679E-03,   64.4529E-03,   494.203E-03,0.0403856,0.00193056,-2.79993e-05
335,40.0,49.0,0.00043158,  -986.332E-03,   64.4521E-03,   606.848E-03,0.0387206,0.00178709,-5.23738e-05
336,39.0,49.0,0.00052371,  -978.779E-03,   64.4520E-03,   729.652E-03,0.0369136,0.00165052,-7.21641e-05
341,38.0,49.0,0.0006238109999999999,  -969.979E-03,   64.4525E-03,   862.121E-03,0.0349682,0.00151823,-9.88663e-05
342,37.0,49.0,0.00073148,  -959.912E-03,   64.4537E-03,       1.00373,0.0328901,0.00139002,-0.000139669
347,36.0,49.0,0.000846278,  -948.576E-03,   64.4557E-03,       1.15392,0.0306843,0.00126504,-0.00019996
350,35.0,49.0,0.000967738,  -935.988E-03,   64.4588E-03,       1.31211,0.0283569,0.00114416,-0.000282312
351,34.0,49.0,0.00109536,  -922.184E-03,   64.4627E-03,       1.47769,0.025914,0.00102681,-0.000387649
356,33.0,49.0,0.00122863,  -907.220E-03,   64.4676E-03,       1.65002,0.0233629,0.000913346,-0.00051454
357,32.0,49.0,0.00136699,  -891.169E-03,   64.4733E-03,       1.82843,0.0207123,0.000802818,-0.000659687
362,31.0,49.0,0.00150988,  -874.121E-03,   64.4795E-03,       2.01224,0.0179723,0.000694759,-0.000817726
365,30.0,49.0,0.00165671,  -856.184E-03,   64.4859E-03,       2.20071,0.0151554,0.000587909,-0.000981675
366,29.0,49.0,0.0018069,  -837.480E-03,   64.4920E-03,       2.39313,0.0122762,0.000481392,-0.00114329
371,28.0,49.0,0.00195981,  -818.145E-03,   64.4974E-03,       2.58872,0.00935206,0.000374092,-0.00129372
372,27.0,49.0,0.00211483,  -798.327E-03,   64.5016E-03,       2.78671,0.00640232,0.000265337,-0.00142428
377,26.0,49.0,0.00227133,  -778.180E-03,   64.5042E-03,       2.98631,0.00344788,0.000154582,-0.00152721
380,25.0,49.0,0.00242868,  -757.869E-03,   64.5051E-03,       3.18671,0.000510162,4.16962e-05,-0.00159646
381,24.0,49.0,0.00258622,  -737.557E-03,   64.5041E-03,       3.38712,-0.00239007,-7.32746e-05,-0.00162821
386,23.0,49.0,0.00274332,  -717.410E-03,   64.5014E-03,       3.58672,-0.005234,-0.000190072,-0.00162126
387,22.0,49.0,0.00289934,  -697.591E-03,   64.4971E-03,       3.78471,-0.00800577,-0.000308418,-0.00157706
392,21.0,49.0,0.00305366,  -678.256E-03,   64.4918E-03,       3.98030,-0.0106933,-0.000428068,-0.00149949
395,20.0,49.0,0.00320563,  -659.552E-03,   64.4858E-03,       4.17271,-0.0132885,-0.000548899,-0.00139437
396,19.0,49.0,0.00335466,  -641.616E-03,   64.4796E-03,       4.36119,-0.0157871,-0.000670921,-0.00126883
401,18.0,49.0,0.00350013,  -624.568E-03,   64.4738E-03,       4.54498,-0.0181876,-0.000794242,-0.00113062
402,17.0,49.0,0.00364145,  -608.518E-03,   64.4687E-03,       4.72338,-0.0204907,-0.000919006,-0.000987334
407,16.0,49.0,0.00377806,  -593.556E-03,   64.4646E-03,       4.89569,-0.0226982,-0.0010453,-0.000845873
410,15.0,49.0,0.0039094,  -579.755E-03,   64.4617E-03,       5.06125,-0.0248113,-0.00117306,-0.000711939
411,14.0,49.0,0.00403494,  -567.171E-03,   64.4600E-03,       5.21941,-0.0268305,-0.00130199,-0.000589773
416,13.0,49.0,0.00415417,  -555.839E-03,   64.4596E-03,       5.36957,-0.0287545,-0.00143153,-0.000482054
417,12.0,49.0,0.00426662,  -545.778E-03,   64.4602E-03,       5.51113,-0.0305803,-0.0015608,-0.000389968
422,11.0,49.0,0.00437182,  -536.983E-03,   64.4616E-03,       5.64356,-0.0323027,-0.00168862,-0.000313405
425,10.0,49.0,0.00446936,  -529.434E-03,   64.4637E-03,       5.76632,-0.0339151,-0.00181357,-0.00025124
426,9.0,49.0,0.00455883,  -523.090E-03,   64.4663E-03,       5.87894,-0.0354096,-0.00193401,-0.000201651
431,8.0,49.0,0.00463989,  -517.892E-03,   64.4691E-03,       5.98097,-0.0367775,-0.00204818,-0.000162439
432,7.0,49.0,0.00471219,  -513.762E-03,   64.4719E-03,       6.07199,-0.0380099,-0.00215425,-0.00013131
437,6.0,49.0,0.00477546,  -510.609E-03,   64.4746E-03,       6.15165,-0.0390981,-0.00225044,-0.000106094
440,5.0,49.0,0.00482943,  -508.322E-03,   64.4770E-03,       6.21961,-0.0400337,-0.00233503,-8.49119e-05
441,4.0,49.0,0.00487389,  -506.779E-03,   64.4791E-03,       6.27560,-0.0408097,-0.0024065,-6.62551e-05
446,3.0,49.0,0.00490865,  -505.847E-03,   64.4807E-03,       6.31939,-0.0414198,-0.00246352,-4.90176e-05
447,2.0,49.0,0.00493358,  -505.382E-03,   64.4819E-03,       6.35080,-0.0418591,-0.00250504,-3.24699e-05
452,1.0,49.0,0.00494858,  -505.232E-03,   64.4827E-03,       6.36970,-0.0421241,-0.00253026,-1.61955e-05
455,3.33576e-29,49.0,0.00495359,  -505.241E-03,   64.4829E-03,       6.37601,-0.0422127,-0.00253873,0.0
456,-1.0,49.0,0.00494858,  -505.250E-03,   64.4827E-03,       6.36970,-0.0421241,-0.00253026,1.61955e-05
461,-2.0,49.0,0.00493358,  -505.100E-03,   64.4819E-03,       6.35080,-0.0418591,-0.00250504,3.24699e-05
462,-3.0,49.0,0.00490865,  -504.634E-03,   64.4807E-03,       6.31939,-0.0414198,-0.00246352,4.90176e-05
467,-4.0,49.0,0.00487389,  -503.702E-03,   64.4791E-03,       6.27560,-0.0408097,-0.0024065,6.62551e-05
470,-5.0,49.0,0.00482943,  -502.160E-03,   64.4770E-03,       6.21961,-0.0400337,-0.00233503,8.49119e-05
471,-6.0,49.0,0.00477546,  -499.873E-03,   64.4746E-03,       6.15165,-0.0390981,-0.00225044,0.000106094
476,-7.0,49.0,0.00471219,  -496.719E-03,   64.4719E-03,       6.07199,-0.0380099,-0.00215425,0.00013131
477,-8.0,49.0,0.00463989,  -492.590E-03,   64.4691E-03,       5.98097,-0.0367775,-0.00204818,0.000162439
482,-9.0,49.0,0.00455883,  -487.392E-03,   64.4663E-03,       5.87894,-0.0354096,-0.00193401,0.000201651
485,-10.0,49.0,0.00446936,  -481.048E-03,   64.4637E-03,       5.76632,-0.0339151,-0.00181357,0.00025124
486,-11.0,49.0,0.00437182,  -473.499E-03,   64.4616E-03,       5.64356,-0.0323027,-0.00168862,0.000313405
491,-12.0,49.0,0.00426662,  -464.704E-03,   64.4602E-03,       5.51113,-0.0305803,-0.0015608,0.000389968
492,-13.0,49.0,0.00415417,  -454.642E-03,   64.4596E-03,       5.36957,-0.0287545,-0.00143153,0.000482054
497,-14.0,49.0,0.00403494,  -443.311E-03,   64.4600E-03,       5.21941,-0.0268305,-0.00130199,0.000589773
500,-15.0,49.0,0.0039094,  -430.727E-03,   64.4617E-03,       5.06125,-0.0248113,-0.00117306,0.000711939
501,-16.0,49.0,0.00377806,  -416.926E-03,   64.4646E-03,       4.89569,-0.0226982,-0.0010453,0.000845873
506,-17.0,49.0,0.00364145,  -401.964E-03,   64.4687E-03,       4.72338,-0.0204907,-0.000919006,0.000987334
507,-18.0,49.0,0.00350013,  -385.913E-03,   64.4738E-03,       4.54498,-0.0181876,-0.000794242,0.00113062
512,-19.0,49.0,0.00335466,  -368.866E-03,   64.4796E-03,       4.36119,-0.0157871,-0.000670921,0.00126883
515,-20.0,49.0,0.00320563,  -350.929E-03,   64.4858E-03,       4.17271,-0.0132885,-0.000548899,0.00139437
516,-21.0,49.0,0.00305366,  -332.225E-03,   64.4918E-03,       3.98030,-0.0106933,-0.000428068,0.00149949
521,-22.0,49.0,0.00289934,  -312.890E-03,   64.4971E-03,       3.78471,-0.00800577,-0.000308418,0.00157706
522,-23.0,49.0,0.00274332,  -293.072E-03,   64.5014E-03,       3.58672,-0.005234,-0.000190072,0.00162126
527,-24.0,49.0,0.00258622,  -272.925E-03,   64.5041E-03,       3.38712,-0.00239007,-7.32746e-05,0.00162821
530,-25.0,49.0,0.00242868,  -252.613E-03,   64.5051E-03,       3.18671,0.000510162,4.16962e-05,0.00159646
531,-26.0,49.0,0.00227133,  -232.301E-03,   64.5042E-03,       2.98631,0.00344788,0.000154582,0.00152721
536,-27.0,49.0,0.00211483,  -212.155E-03,   64.5016E-03,       2.78671,0.00640232,0.000265337,0.00142428
537,-28.0,49.0,0.00195981,  -192.337E-03,   64.4974E-03,       2.58872,0.00935206,0.000374092,0.00129372
542,-29.0,49.0,0.0018069,  -173.002E-03,   64.4920E-03,       2.39313,0.0122762,0.000481392,0.00114329
545,-30.0,49.0,0.00165671,  -154.298E-03,   64.4859E-03,       2.20071,0.0151554,0.000587909,0.000981675
546,-31.0,49.0,0.00150988,  -136.361E-03,   64.4795E-03,       2.01224,0.0179723,0.000694759,0.000817726
551,-32.0,49.0,0.00136699,  -119.313E-03,   64.4733E-03,       1.82843,0.0207123,0.000802818,0.000659687
552,-33.0,49.0,0.00122863,  -103.262E-03,   64.4676E-03,       1.65002,0.0233629,0.000913346,0.00051454
557,-34.0,49.0,0.00109536,  -88.2976E-03,   64.4627E-03,       1.47769,0.025914,0.00102681,0.000387649
560,-35.0,49.0,0.000967738,  -74.4940E-03,   64.4588E-03,       1.31211,0.0283569,0.00114416,0.000282312
561,-36.0,49.0,0.000846278,  -61.9059E-03,   64.4557E-03,       1.15392,0.0306843,0.00126504,0.00019996
566,-37.0,49.0,0.00073148,  -50.5698E-03,   64.4537E-03,       1.00373,0.0328901,0.00139002,0.000139669
567,-38.0,49.0,0.0006238109999999999,  -40.5029E-03,   64.4525E-03,   862.121E-03,0.0349682,0.00151823,9.88663e-05
572,-39.0,49.0,0.00052371,  -31.7033E-03,   64.4520E-03,   729.652E-03,0.0369136,0.00165052,7.21641e-05
575,-40.0,49.0,0.00043158,  -24.1498E-03,   64.4521E-03,   606.848E-03,0.0387206,0.00178709,5.23738e-05
576,-41.0,49.0,0.000347788,  -17.8028E-03,   64.4529E-03,   494.203E-03,0.0403856,0.00193056,2.79993e-05
581,-42.0,49.0,0.000272659,  -12.6040E-03,   64.4543E-03,   392.182E-03,0.0419015,0.0020868,-1.63829e-05
582,-43.0,49.0,0.00020647,  -8.47747E-03,   64.4569E-03,   301.212E-03,0.0432688,0.00226336,-0.000103144
587,-44.0,49.0,0.00014945100000000002,  -5.33102E-03,   64.4609E-03,   221.697E-03,0.0444722,0.00248515,-0.000267599
590,-45.0,49.0,0.000101755,  -3.05479E-03,   64.4671E-03,   153.980E-03,0.0455243,0.00277436,-0.00054952
591,-46.0,49.0,6.348e-05,  -1.52753E-03,   64.4756E-03,   98.4106E-03,0.0463636,0.00322287,-0.00104247
596,-47.0,49.0,3.4555e-05,  -608.807E-06,   64.4873E-03,   55.1807E-03,0.0470324,0.00392334,-0.00176729
597,-48.0,49.0,1.4850999999999999e-05,  -155.115E-06,   64.5009E-03,   24.5743E-03,0.0471242,0.00528576,-0.00306586
602,-49.0,49.0,3.6803500000000003e-06,  -2.18502E-06,   64.5154E-03,   6.30479E-03,0.0463609,0.00845752,-0.00336772
605,-50.0,49.0,0.0,   24.8983E-42,   64.5222E-03,            0.,0.0458324,0.0106817,-0.00277816
606,50.0,48.0,0.0,      -1.01048,   64.5187E-03,           -0.,0.0500553,0.0149356,0.00034392
611,49.0,48.0,4.27727e-06,      -1.01046,   64.5142E-03,   6.58302E-03,0.0480053,0.0131644,0.000868673
612,48.0,48.0,1.70144e-05,      -1.01027,   64.5032E-03,   25.9342E-03,0.0457971,0.0100367,0.00140562
617,47.0,48.0,3.82342e-05,      -1.00976,   64.4915E-03,   57.4265E-03,0.045277,0.00798639,0.00110549
620,46.0,48.0,6.83654e-05,      -1.00880,   64.4821E-03,   101.169E-03,0.0444844,0.0068702,0.00064532
621,45.0,48.0,0.00010760899999999999,      -1.00722,   64.4747E-03,   157.108E-03,0.0435653,0.00616048,0.000377262
626,44.0,48.0,0.000155988,      -1.00489,   64.4697E-03,   225.018E-03,0.0425104,0.00566406,0.000206015
627,43.0,48.0,0.00021344799999999998,      -1.00170,   64.4662E-03,   304.655E-03,0.0413159,0.00527783,0.000133417
632,42.0,48.0,0.000279839,  -997.535E-03,   64.4641E-03,   395.681E-03,0.0399883,0.00493921,0.000112793
635,41.0,48.0,0.00035495300000000003,  -992.298E-03,   64.4627E-03,   497.728E-03,0.0385227,0.00462177,0.000125508
636,40.0,48.0,0.00043852699999999997,  -985.916E-03,   64.4621E-03,   610.374E-03,0.0369234,0.00430856,0.000151083
641,39.0,48.0,0.000530248,  -978.332E-03,   64.4620E-03,   733.163E-03,0.0351915,0.00399429,0.000176935
642,38.0,48.0,0.000629765,  -969.504E-03,   64.4624E-03,   865.603E-03,0.0333319,0.00367768,0.00019359
647,37.0,48.0,0.000736685,  -959.415E-03,   64.4634E-03,       1.00716,0.0313489,0.00336007,0.000193871
650,36.0,48.0,0.0008505839999999999,  -948.062E-03,   64.4652E-03,       1.15729,0.0292481,0.00304475,0.000173258
651,35.0,48.0,0.0009710039999999999,  -935.466E-03,   64.4676E-03,       1.31538,0.0270348,0.0027344,0.000128403
656,34.0,48.0,0.00109746,  -921.663E-03,   64.4709E-03,       1.48083,0.0247148,0.00243229,5.82272e-05
657,33.0,48.0,0.00122944,  -906.710E-03,   64.4749E-03,       1.65298,0.0222937,0.00214011,-3.69112e-05
662,32.0,48.0,0.00136641,  -890.682E-03,   64.4796E-03,       1.83117,0.0197778,0.00185924,-0.000154421
665,31.0,48.0,0.00150782,  -873.670E-03,   64.4847E-03,       2.01471,0.0171738,0.00158943,-0.000289984
666,30.0,48.0,0.00165308,  -855.783E-03,   64.4900E-03,       2.20287,0.0144896,0.00132986,-0.000437351
671,29.0,48.0,0.00180162,  -837.141E-03,   64.4950E-03,       2.39492,0.0117344,0.00107849,-0.00058894
672,28.0,48.0,0.00195283,  -817.880E-03,   64.4994E-03,       2.59010,0.00891915,0.000832959,-0.000736215
677,27.0,48.0,0.00210609,  -798.145E-03,   64.5029E-03,       2.78765,0.0060567,0.000590349,-0.000870494
680,26.0,48.0,0.00226079,  -778.089E-03,   64.5050E-03,       2.98679,0.00316137,0.000347815,-0.000983653
681,25.0,48.0,0.00241629,  -757.871E-03,   64.5057E-03,       3.18672,0.000248693,0.000102561,-0.00106892
686,24.0,48.0,0.00257197,  -737.652E-03,   64.5049E-03,       3.38664,-0.00266533,-0.000147832,-0.00112148
687,23.0,48.0,0.0027272,  -717.596E-03,   64.5027E-03,       3.58578,-0.00556498,-0.000405408,-0.00113893
692,22.0,48.0,0.00288135,  -697.860E-03,   64.4992E-03,       3.78333,-0.00843557,-0.000671709,-0.00112139
695,21.0,48.0,0.0030338,  -678.599E-03,   64.4948E-03,       3.97852,-0.011264,-0.000947795,-0.00107148
696,20.0,48.0,0.00318392,  -659.957E-03,   64.4899E-03,       4.17057,-0.014039,-0.0012342,-0.000993853
701,19.0,48.0,0.00333112,  -642.070E-03,   64.4849E-03,       4.35872,-0.0167513,-0.00153095,-0.000894744
702,18.0,48.0,0.0034748,  -625.058E-03,   64.4801E-03,       4.54225,-0.019393,-0.00183753,-0.000781246
707,17.0,48.0,0.00361438,  -609.031E-03,   64.4760E-03,       4.72044,-0.0219574,-0.00215288,-0.000660648
710,16.0,48.0,0.00374929,  -594.079E-03,   64.4727E-03,       4.89258,-0.0244383,-0.00247541,-0.000539806
711,15.0,48.0,0.00387899,  -580.277E-03,   64.4704E-03,       5.05802,-0.0268294,-0.00280301,-0.000424634
716,14.0,48.0,0.00400296,  -567.683E-03,   64.4692E-03,       5.21609,-0.0291242,-0.00313309,-0.000319758
717,13.0,48.0,0.0041207,  -556.333E-03,   64.4690E-03,       5.36619,-0.0313152,-0.00346264,-0.000228342
722,12.0,48.0,0.00423173,  -546.246E-03,   64.4697E-03,       5.50773,-0.0333945,-0.00378832,-0.000152085
725,11.0,48.0,0.00433561,  -537.422E-03,   64.4712E-03,       5.64014,-0.0353532,-0.00410652,-9.13548e-05
726,10.0,48.0,0.00443191,  -529.840E-03,   64.4732E-03,       5.76291,-0.0371823,-0.00441351,-4.54269e-05
731,9.0,48.0,0.00452026,  -523.459E-03,   64.4757E-03,       5.87554,-0.0388722,-0.00470546,-1.27776e-05
732,8.0,48.0,0.00460028,  -518.223E-03,   64.4782E-03,       5.97758,-0.0404137,-0.00497863,8.60582e-06
737,7.0,48.0,0.00467167,  -514.054E-03,   64.4808E-03,       6.06862,-0.0417975,-0.00522938,2.09371e-05
740,6.0,48.0,0.00473413,  -510.860E-03,   64.4833E-03,       6.14829,-0.0430154,-0.0054543,2.63897e-05
741,5.0,48.0,0.00478742,  -508.532E-03,   64.4855E-03,       6.21626,-0.0440595,-0.00565027,2.69186e-05
746,4.0,48.0,0.00483131,  -506.948E-03,   64.4874E-03,       6.27226,-0.0449233,-0.00581455,2.41497e-05
747,3.0,48.0,0.00486563,  -505.975E-03,   64.4890E-03,       6.31606,-0.0456011,-0.00594482,1.93341e-05
752,2.0,48.0,0.00489025,  -505.467E-03,   64.4901E-03,       6.34748,-0.0460884,-0.00603922,1.33577e-05
755,1.0,48.0,0.00490506,  -505.275E-03,   64.4908E-03,       6.36638,-0.0463821,-0.0060964,6.79584e-06
756,-2.1508099999999997e-29,48.0,0.00491,  -505.241E-03,   64.4910E-03,       6.37269,-0.0464802,-0.00611556,0.0
761,-1.0,48.0,0.00490506,  -505.207E-03,   64.4908E-03,       6.36638,-0.0463821,-0.0060964,-6.79584e-06
762,-2.0,48.0,0.00489025,  -505.015E-03,   64.4901E-03,       6.34748,-0.0460884,-0.00603922,-1.33577e-05
767,-3.0,48.0,0.00486563,  -504.507E-03,   64.4890E-03,       6.31606,-0.0456011,-0.00594482,-1.93341e-05
770,-4.0,48.0,0.00483131,  -503.533E-03,   64.4874E-03,       6.27226,-0.0449233,-0.00581455,-2.41497e-05
771,-5.0,48.0,0.00478742,  -501.949E-03,   64.4855E-03,       6.21626,-0.0440595,-0.00565027,-2.69186e-05
776,-6.0,48.0,0.00473413,  -499.621E-03,   64.4833E-03,       6.14829,-0.0430154,-0.0054543,-2.63897e-05
777,-7.0,48.0,0.00467167,  -496.427E-03,   64.4808E-03,       6.06862,-0.0417975,-0.00522938,-2.09371e-05
782,-8.0,48.0,0.00460028,  -492.259E-03,   64.4782E-03,       5.97758,-0.0404137,-0.00497863,-8.60582e-06
785,-9.0,48.0,0.00452026,  -487.022E-03,   64.4757E-03,       5.87554,-0.0388722,-0.00470546,1.27776e-05
786,-10.0,48.0,0.00443191,  -480.642E-03,   64.4732E-03,       5.76291,-0.0371823,-0.00441351,4.54269e-05
791,-11.0,48.0,0.00433561,  -473.060E-03,   64.4712E-03,       5.64014,-0.0353532,-0.00410652,9.13548e-05
792,-12.0,48.0,0.00423173,  -464.236E-03,   64.4697E-03,       5.50773,-0.0333945,-0.00378832,0.000152085
797,-13.0,48.0,0.0041207,  -454.149E-03,   64.4690E-03,       5.36619,-0.0313152,-0.00346264,0.000228342
800,-14.0,48.0,0.00400296,  -442.799E-03,   64.4692E-03,       5.21609,-0.0291242,-0.00313309,0.000319758
801,-15.0,48.0,0.00387899,  -430.204E-03,   64.4704E-03,       5.05802,-0.0268294,-0.00280301,0.000424634
806,-16.0,48.0,0.00374929,  -416.403E-03,   64.4727E-03,       4.89258,-0.0244383,-0.00247541,0.000539806
807,-17.0,48.0,0.00361438,  -401.451E-03,   64.4760E-03,       4.72044,-0.0219574,-0.00215288,0.000660648
812,-18.0,48.0,0.0034748,  -385.423E-03,   64.4801E-03,       4.54225,-0.019393,-0.00183753,0.000781246
815,-19.0,48.0,0.00333112,  -368.412E-03,   64.4849E-03,       4.35872,-0.0167513,-0.00153095,0.000894744
816,-20.0,48.0,0.00318392,  -350.525E-03,   64.4899E-03,       4.17057,-0.014039,-0.0012342,0.000993853
821,-21.0,48.0,0.0030338,  -331.883E-03,   64.4948E-03,       3.97852,-0.011264,-0.000947795,0.00107148
822,-22.0,48.0,0.00288135,  -312.621E-03,   64.4992E-03,       3.78333,-0.00843557,-0.000671709,0.00112139
827,-23.0,48.0,0.0027272,  -292.886E-03,   64.5027E-03,       3.58578,-0.00556498,-0.000405408,0.00113893
830,-24.0,48.0,0.00257197,  -272.829E-03,   64.5049E-03,       3.38664,-0.00266533,-0.000147832,0.00112148
831,-25.0,48.0,0.00241629,  -252.611E-03,   64.5057E-03,       3.18672,0.000248693,0.000102561,0.00106892
836,-26.0,48.0,0.00226079,  -232.393E-03,   64.5050E-03,       2.98679,0.00316137,0.000347815,0.000983653
837,-27.0,48.0,0.00210609,  -212.337E-03,   64.5029E-03,       2.78765,0.0060567,0.000590349,0.000870494
842,-28.0,48.0,0.00195283,  -192.601E-03,   64.4994E-03,       2.59010,0.00891915,0.000832959,0.000736215
845,-29.0,48.0,0.00180162,  -173.340E-03,   64.4950E-03,       2.39492,0.0117344,0.00107849,0.00058894
846,-30.0,48.0,0.00165308,  -154.699E-03,   64.4900E-03,       2.20287,0.0144896,0.00132986,0.000437351
851,-31.0,48.0,0.00150782,  -136.812E-03,   64.4847E-03,       2.01471,0.0171738,0.00158943,0.000289984
852,-32.0,48.0,0.00136641,  -119.800E-03,   64.4796E-03,       1.83117,0.0197778,0.00185924,0.000154421
857,-33.0,48.0,0.00122944,  -103.772E-03,   64.4749E-03,       1.65298,0.0222937,0.00214011,3.69112e-05
860,-34.0,48.0,0.00109746,  -88.8193E-03,   64.4709E-03,       1.48083,0.0247148,0.00243229,-5.82272e-05
861,-35.0,48.0,0.0009710039999999999,  -75.0161E-03,   64.4676E-03,       1.31538,0.0270348,0.0027344,-0.000128403
866,-36.0,48.0,0.0008505839999999999,  -62.4193E-03,   64.4652E-03,       1.15729,0.0292481,0.00304475,-0.000173258
867,-37.0,48.0,0.000736685,  -51.0667E-03,   64.4634E-03,       1.00716,0.0313489,0.00336007,-0.000193871
872,-38.0,48.0,0.000629765,  -40.9773E-03,   64.4624E-03,   865.603E-03,0.0333319,0.00367768,-0.00019359
875,-39.0,48.0,0.000530248,  -32.1501E-03,   64.4620E-03,   733.163E-03,0.0351915,0.00399429,-0.000176935
876,-40.0,48.0,0.00043852699999999997,  -24.5653E-03,   64.4621E-03,   610.374E-03,0.0369234,0.00430856,-0.000151083
881,-41.0,48.0,0.00035495300000000003,  -18.1835E-03,   64.4627E-03,   497.728E-03,0.0385227,0.00462177,-0.000125508
882,-42.0,48.0,0.000279839,  -12.9468E-03,   64.4641E-03,   395.681E-03,0.0399883,0.00493921,-0.000112793
887,-43.0,48.0,0.00021344799999999998,  -8.77949E-03,   64.4662E-03,   304.655E-03,0.0413159,0.00527783,-0.000133417
890,-44.0,48.0,0.000155988,  -5.58824E-03,   64.4697E-03,   225.018E-03,0.0425104,0.00566406,-0.000206015
891,-45.0,48.0,0.00010760899999999999,  -3.26538E-03,   64.4747E-03,   157.108E-03,0.0435653,0.00616048,-0.000377262
896,-46.0,48.0,6.83654e-05,  -1.68669E-03,   64.4821E-03,   101.169E-03,0.0444844,0.0068702,-0.00064532
897,-47.0,48.0,3.82342e-05,  -718.800E-06,   64.4915E-03,   57.4265E-03,0.045277,0.00798639,-0.00110549
902,-48.0,48.0,1.70144e-05,  -214.985E-06,   64.5032E-03,   25.9342E-03,0.0457971,0.0100367,-0.00140562
905,-49.0,48.0,4.27727e-06,  -24.5317E-06,   64.5142E-03,   6.58302E-03,0.0480053,0.0131644,-0.000868673
906,-50.0,48.0,0.0,  -19.5313E-42,   64.5187E-03,           -0.,0.0500553,0.0149356,-0.00034392
911,50.0,47.0,0.0,      -1.01048,   64.5091E-03,            0.,0.0499251,0.0154704,-0.00010179
912,49.0,47.0,4.573219999999999e-06,      -1.01045,   64.5064E-03,   6.60115E-03,0.0486175,0.0147079,-6.0162e-05
917,48.0,47.0,1.81081e-05,      -1.01025,   64.4989E-03,   26.0756E-03,0.0464586,0.0130203,0.000197468
920,47.0,47.0,4.0423299999999996e-05,      -1.00972,   64.4889E-03,   57.9910E-03,0.0452329,0.0113735,0.000410001
921,46.0,47.0,7.15451e-05,      -1.00873,   64.4799E-03,   102.070E-03,0.0443774,0.0102051,0.000318936
926,45.0,47.0,0.000111598,      -1.00713,   64.4730E-03,   158.239E-03,0.0433886,0.00943413,0.000190059
927,44.0,47.0,0.000160592,      -1.00478,   64.4678E-03,   226.322E-03,0.0423035,0.00885608,0.00011785
932,43.0,47.0,0.000218455,      -1.00157,   64.4645E-03,   306.068E-03,0.0410822,0.00837685,8.57209e-05
935,42.0,47.0,0.00028505,  -997.385E-03,   64.4623E-03,   397.178E-03,0.0397267,0.00793195,9.59311e-05
936,41.0,47.0,0.000360174,  -992.128E-03,   64.4612E-03,   499.286E-03,0.038234,0.00748736,0.000127873
941,40.0,47.0,0.000443575,  -985.726E-03,   64.4607E-03,   611.987E-03,0.0366055,0.00702797,0.000171958
942,39.0,47.0,0.000534952,  -978.121E-03,   64.4609E-03,   734.825E-03,0.0348452,0.00654844,0.00021657
947,38.0,47.0,0.000633962,  -969.275E-03,   64.4617E-03,   867.307E-03,0.0329583,0.00605067,0.000253991
948,37.0,47.0,0.0007402260000000001,  -959.167E-03,   64.4630E-03,       1.00890,0.0309513,0.00554007,0.00027805
953,36.0,47.0,0.000853328,  -947.798E-03,   64.4650E-03,       1.15905,0.0288313,0.00502358,0.000283949
954,35.0,47.0,0.000972821,  -935.189E-03,   64.4677E-03,       1.31714,0.0266055,0.00450896,0.000268779
959,34.0,47.0,0.00109823,  -921.378E-03,   64.4711E-03,       1.48257,0.024281,0.0040029,0.00023068
962,33.0,47.0,0.00122906,  -906.424E-03,   64.4752E-03,       1.65467,0.0218643,0.00351135,0.000169784
963,32.0,47.0,0.00136477,  -890.403E-03,   64.4798E-03,       1.83278,0.0193619,0.00303806,8.76193e-05
968,31.0,47.0,0.00150483,  -873.407E-03,   64.4847E-03,       2.01618,0.0167797,0.00258518,-1.22924e-05
969,30.0,47.0,0.00164868,  -855.545E-03,   64.4897E-03,       2.20418,0.0141239,0.00215242,-0.00012497
974,29.0,47.0,0.00179572,  -836.938E-03,   64.4944E-03,       2.39602,0.0114009,0.0017378,-0.000243943
977,28.0,47.0,0.00194537,  -817.720E-03,   64.4985E-03,       2.59097,0.00861782,0.00133742,-0.000361939
978,27.0,47.0,0.00209703,  -798.034E-03,   64.5016E-03,       2.78825,0.00578295,0.000946272,-0.000471338
983,26.0,47.0,0.00225008,  -778.033E-03,   64.5036E-03,       2.98709,0.00290576,0.000558435,-0.000564962
984,25.0,47.0,0.00240391,  -757.873E-03,   64.5042E-03,       3.18672,-3.12249e-06,0.000167825,-0.000636688
989,24.0,47.0,0.0025579,  -737.712E-03,   64.5035E-03,       3.38635,-0.00293201,-0.000231435,-0.000682071
992,23.0,47.0,0.00271142,  -717.711E-03,   64.5014E-03,       3.58519,-0.00586856,-0.00064446,-0.000698727
993,22.0,47.0,0.00286385,  -698.025E-03,   64.4983E-03,       3.78247,-0.00880006,-0.0010753,-0.000686519
998,21.0,47.0,0.00301459,  -678.807E-03,   64.4942E-03,       3.97742,-0.0117138,-0.00152661,-0.000647481
999,20.0,47.0,0.00316302,  -660.199E-03,   64.4896E-03,       4.16926,-0.0145973,-0.00199956,-0.000585523
1004,19.0,47.0,0.00330855,  -642.336E-03,   64.4849E-03,       4.35726,-0.0174383,-0.00249374,-0.000505954
1007,18.0,47.0,0.00345058,  -625.340E-03,   64.4803E-03,       4.54066,-0.020225,-0.00300722,-0.000414901
1008,17.0,47.0,0.00358856,  -609.319E-03,   64.4763E-03,       4.71876,-0.0229455,-0.00353674,-0.000318697
1013,16.0,47.0,0.00372191,  -594.365E-03,   64.4729E-03,       4.89086,-0.0255883,-0.0040779,-0.000223319
1014,15.0,47.0,0.00385011,  -580.554E-03,   64.4705E-03,       5.05629,-0.0281418,-0.00462541,-0.000133925
1019,14.0,47.0,0.00397264,  -567.946E-03,   64.4689E-03,       5.21438,-0.0305944,-0.00517341,-5.45382e-05
1022,13.0,47.0,0.00408901,  -556.578E-03,   64.4683E-03,       5.36451,-0.0329347,-0.00571572,1.2119e-05
1023,12.0,47.0,0.00419874,  -546.470E-03,   64.4685E-03,       5.50610,-0.0351515,-0.00624608,6.46317e-05
1028,11.0,47.0,0.0043014,  -537.624E-03,   64.4695E-03,       5.63858,-0.0372339,-0.00675836,0.000102776
1029,10.0,47.0,0.00439658,  -530.019E-03,   64.4710E-03,       5.76141,-0.0391716,-0.00724672,0.000127308
1034,9.0,47.0,0.00448388,  -523.617E-03,   64.4728E-03,       5.87410,-0.040955,-0.00770568,0.000139699
1037,8.0,47.0,0.00456296,  -518.359E-03,   64.4749E-03,       5.97621,-0.0425751,-0.00813023,0.000141851
1038,7.0,47.0,0.00463351,  -514.170E-03,   64.4770E-03,       6.06731,-0.0440239,-0.0085158,0.000135839
1043,6.0,47.0,0.00469523,  -510.957E-03,   64.4791E-03,       6.14703,-0.0452942,-0.00885835,0.000123687
1044,5.0,47.0,0.00474789,  -508.611E-03,   64.4809E-03,       6.21505,-0.0463798,-0.00915433,0.000107205
1049,4.0,47.0,0.00479126,  -507.010E-03,   64.4826E-03,       6.27108,-0.0472754,-0.00940069,8.78845e-05
1052,3.0,47.0,0.00482517,  -506.020E-03,   64.4838E-03,       6.31491,-0.0479765,-0.00959495,6.68598e-05
1053,2.0,47.0,0.0048495,  -505.497E-03,   64.4848E-03,       6.34634,-0.0484798,-0.00973513,4.49152e-05
1058,1.0,47.0,0.00486413,  -505.289E-03,   64.4854E-03,       6.36526,-0.0487827,-0.0098198,2.25377e-05
1059,4.9719499999999997e-29,47.0,0.00486901,  -505.241E-03,   64.4855E-03,       6.37157,-0.0488838,-0.00984812,0.0
1064,-1.0,47.0,0.00486413,  -505.192E-03,   64.4854E-03,       6.36526,-0.0487827,-0.0098198,-2.25377e-05
1067,-2.0,47.0,0.0048495,  -504.985E-03,   64.4848E-03,       6.34634,-0.0484798,-0.00973513,-4.49152e-05
1068,-3.0,47.0,0.00482517,  -504.462E-03,   64.4838E-03,       6.31491,-0.0479765,-0.00959495,-6.68598e-05
1073,-4.0,47.0,0.00479126,  -503.471E-03,   64.4826E-03,       6.27108,-0.0472754,-0.00940069,-8.78845e-05
1074,-5.0,47.0,0.00474789,  -501.871E-03,   64.4809E-03,       6.21505,-0.0463798,-0.00915433,-0.000107205
1079,-6.0,47.0,0.00469523,  -499.525E-03,   64.4791E-03,       6.14703,-0.0452942,-0.00885835,-0.000123687
1082,-7.0,47.0,0.00463351,  -496.311E-03,   64.4770E-03,       6.06731,-0.0440239,-0.0085158,-0.000135839
1083,-8.0,47.0,0.00456296,  -492.122E-03,   64.4749E-03,       5.97621,-0.0425751,-0.00813023,-0.000141851
1088,-9.0,47.0,0.00448388,  -486.865E-03,   64.4728E-03,       5.87410,-0.040955,-0.00770568,-0.000139699
1089,-10.0,47.0,0.00439658,  -480.463E-03,   64.4710E-03,       5.76141,-0.0391716,-0.00724672,-0.000127308
1094,-11.0,47.0,0.0043014,  -472.858E-03,   64.4695E-03,       5.63858,-0.0372339,-0.00675836,-0.000102776
1097,-12.0,47.0,0.00419874,  -464.012E-03,   64.4685E-03,       5.50610,-0.0351515,-0.00624608,-6.46317e-05
1098,-13.0,47.0,0.00408901,  -453.904E-03,   64.4683E-03,       5.36451,-0.0329347,-0.00571572,-1.2119e-05
1103,-14.0,47.0,0.00397264,  -442.536E-03,   64.4689E-03,       5.21438,-0.0305944,-0.00517341,5.45382e-05
1104,-15.0,47.0,0.00385011,  -429.927E-03,   64.4705E-03,       5.05629,-0.0281418,-0.00462541,0.000133925
1109,-16.0,47.0,0.00372191,  -416.117E-03,   64.4729E-03,       4.89086,-0.0255883,-0.0040779,0.000223319
1112,-17.0,47.0,0.00358856,  -401.163E-03,   64.4763E-03,       4.71876,-0.0229455,-0.00353674,0.000318697
1113,-18.0,47.0,0.00345058,  -385.142E-03,   64.4803E-03,       4.54066,-0.020225,-0.00300722,0.000414901
1118,-19.0,47.0,0.00330855,  -368.146E-03,   64.4849E-03,       4.35726,-0.0174383,-0.00249374,0.000505954
1119,-20.0,47.0,0.00316302,  -350.283E-03,   64.4896E-03,       4.16926,-0.0145973,-0.00199956,0.000585523
1124,-21.0,47.0,0.00301459,  -331.675E-03,   64.4942E-03,       3.97742,-0.0117138,-0.00152661,0.000647481
1127,-22.0,47.0,0.00286385,  -312.457E-03,   64.4983E-03,       3.78247,-0.00880006,-0.0010753,0.000686519
1128,-23.0,47.0,0.00271142,  -292.771E-03,   64.5014E-03,       3.58519,-0.00586856,-0.00064446,0.000698727
1133,-24.0,47.0,0.0025579,  -272.770E-03,   64.5035E-03,       3.38635,-0.00293201,-0.000231435,0.000682071
1134,-25.0,47.0,0.00240391,  -252.609E-03,   64.5042E-03,       3.18672,-3.12249e-06,0.000167825,0.000636688
1139,-26.0,47.0,0.00225008,  -232.448E-03,   64.5036E-03,       2.98709,0.00290576,0.000558435,0.000564962
1142,-27.0,47.0,0.00209703,  -212.447E-03,   64.5016E-03,       2.78825,0.00578295,0.000946272,0.000471338
1143,-28.0,47.0,0.00194537,  -192.762E-03,   64.4985E-03,       2.59097,0.00861782,0.00133742,0.000361939
1148,-29.0,47.0,0.00179572,  -173.544E-03,   64.4944E-03,       2.39602,0.0114009,0.0017378,0.000243943
1149,-30.0,47.0,0.00164868,  -154.937E-03,   64.4897E-03,       2.20418,0.0141239,0.00215242,0.00012497
1154,-31.0,47.0,0.00150483,  -137.074E-03,   64.4847E-03,       2.01618,0.0167797,0.00258518,1.22924e-05
1157,-32.0,47.0,0.00136477,  -120.079E-03,   64.4798E-03,       1.83278,0.0193619,0.00303806,-8.76193e-05
1158,-33.0,47.0,0.00122906,  -104.057E-03,   64.4752E-03,       1.65467,0.0218643,0.00351135,-0.000169784
1163,-34.0,47.0,0.00109823,  -89.1035E-03,   64.4711E-03,       1.48257,0.024281,0.0040029,-0.00023068
1164,-35.0,47.0,0.000972821,  -75.2929E-03,   64.4677E-03,       1.31714,0.0266055,0.00450896,-0.000268779
1169,-36.0,47.0,0.000853328,  -62.6835E-03,   64.4650E-03,       1.15905,0.0288313,0.00502358,-0.000283949
1172,-37.0,47.0,0.0007402260000000001,  -51.3150E-03,   64.4630E-03,       1.00890,0.0309513,0.00554007,-0.00027805
1173,-38.0,47.0,0.000633962,  -41.2071E-03,   64.4617E-03,   867.307E-03,0.0329583,0.00605067,-0.000253991
1178,-39.0,47.0,0.000534952,  -32.3605E-03,   64.4609E-03,   734.825E-03,0.0348452,0.00654844,-0.00021657
1179,-40.0,47.0,0.000443575,  -24.7556E-03,   64.4607E-03,   611.987E-03,0.0366055,0.00702797,-0.000171958
1184,-41.0,47.0,0.000360174,  -18.3538E-03,   64.4612E-03,   499.286E-03,0.038234,0.00748736,-0.000127873
1187,-42.0,47.0,0.00028505,  -13.0971E-03,   64.4623E-03,   397.178E-03,0.0397267,0.00793195,-9.59311e-05
1188,-43.0,47.0,0.000218455,  -8.90919E-03,   64.4645E-03,   306.068E-03,0.0410822,0.00837685,-8.57209e-05
1193,-44.0,47.0,0.000160592,  -5.69729E-03,   64.4678E-03,   226.322E-03,0.0423035,0.00885608,-0.00011785
1194,-45.0,47.0,0.000111598,  -3.35208E-03,   64.4730E-03,   158.239E-03,0.0433886,0.00943413,-0.000190059
1199,-46.0,47.0,7.15451e-05,  -1.75136E-03,   64.4799E-03,   102.070E-03,0.0443774,0.0102051,-0.000318936
1202,-47.0,47.0,4.0423299999999996e-05,  -760.737E-06,   64.4889E-03,   57.9910E-03,0.0452329,0.0113735,-0.000410001
1203,-48.0,47.0,1.81081e-05,  -236.701E-06,   64.4989E-03,   26.0756E-03,0.0464586,0.0130203,-0.000197468
1208,-49.0,47.0,4.573219999999999e-06,  -33.7190E-06,   64.5064E-03,   6.60115E-03,0.0486175,0.0147079,6.0162e-05
1209,-50.0,47.0,0.0,  -38.7403E-42,   64.5091E-03,            0.,0.0499251,0.0154704,0.00010179
1214,50.0,46.0,0.0,      -1.01048,   64.4978E-03,           -0.,0.0492331,0.0154912,-0.000209194
1217,49.0,46.0,4.72608e-06,      -1.01045,   64.4963E-03,   6.51278E-03,0.0485064,0.015145,-0.000259107
1218,48.0,46.0,1.87063e-05,      -1.01024,   64.4913E-03,   25.8854E-03,0.0471441,0.0143642,-0.000216892
1223,47.0,46.0,4.16681e-05,      -1.00972,   64.4841E-03,   57.7918E-03,0.0459591,0.0134432,-2.47258e-05
1224,46.0,46.0,7.35111e-05,      -1.00872,   64.4761E-03,   101.996E-03,0.0449596,0.0125532,8.44639e-05
1229,45.0,46.0,0.000114191,      -1.00711,   64.4694E-03,   158.278E-03,0.043976,0.0118452,7.55162e-05
1232,44.0,46.0,0.000163679,      -1.00476,   64.4642E-03,   226.458E-03,0.0428611,0.0112777,4.94679e-05
1233,43.0,46.0,0.00022187900000000002,      -1.00155,   64.4605E-03,   306.287E-03,0.04162,0.0107708,3.90274e-05
1238,42.0,46.0,0.000288646,  -997.351E-03,   64.4581E-03,   397.466E-03,0.0402296,0.0102783,4.65503e-05
1239,41.0,46.0,0.00036377800000000004,  -992.086E-03,   64.4568E-03,   499.641E-03,0.0386938,0.00976729,7.30055e-05
1244,40.0,46.0,0.00044702800000000003,  -985.675E-03,   64.4564E-03,   612.405E-03,0.0370131,0.00922293,0.000109506
1247,39.0,46.0,0.000538101,  -978.060E-03,   64.4567E-03,   735.310E-03,0.0351936,0.00864101,0.000150232
1248,38.0,46.0,0.000636663,  -969.201E-03,   64.4577E-03,   867.860E-03,0.0332425,0.00802461,0.000188302
1253,37.0,46.0,0.0007423410000000001,  -959.080E-03,   64.4593E-03,       1.00952,0.0311685,0.00738134,0.000218497
1254,36.0,46.0,0.00085473,  -947.699E-03,   64.4616E-03,       1.15973,0.0289813,0.00672113,0.000236692
1259,35.0,46.0,0.0009733910000000001,  -935.077E-03,   64.4646E-03,       1.31788,0.0266903,0.00605448,0.000239715
1262,34.0,46.0,0.00109786,  -921.257E-03,   64.4682E-03,       1.48334,0.0243049,0.00539164,0.000225943
1263,33.0,46.0,0.00122764,  -906.296E-03,   64.4725E-03,       1.65546,0.0218339,0.00474113,0.00019476
1268,32.0,46.0,0.00136222,  -890.272E-03,   64.4771E-03,       1.83356,0.019285,0.00410963,0.000147231
1269,31.0,46.0,0.00150106,  -873.280E-03,   64.4820E-03,       2.01693,0.0166654,0.00350092,8.56061e-05
1274,30.0,46.0,0.00164361,  -855.426E-03,   64.4869E-03,       2.20486,0.0139811,0.00291622,1.36377e-05
1277,29.0,46.0,0.0017893,  -836.834E-03,   64.4914E-03,       2.39661,0.0112379,0.00235374,-6.39693e-05
1278,28.0,46.0,0.00193754,  -817.636E-03,   64.4954E-03,       2.59143,0.00844117,0.00180935,-0.000141688
1283,27.0,46.0,0.00208773,  -797.977E-03,   64.4984E-03,       2.78857,0.0055968,0.0012768,-0.000213825
1284,26.0,46.0,0.00223928,  -778.005E-03,   64.5003E-03,       2.98726,0.0027112,0.000748604,-0.00027494
1289,25.0,46.0,0.00239158,  -757.875E-03,   64.5009E-03,       3.18672,-0.000208256,0.000216682,-0.000320466
1292,24.0,46.0,0.00254401,  -737.745E-03,   64.5002E-03,       3.38618,-0.00315306,-0.000326767,-0.000347104
1293,23.0,46.0,0.00269597,  -717.773E-03,   64.4982E-03,       3.58487,-0.00611351,-0.000888582,-0.000353181
1298,22.0,46.0,0.00284683,  -698.113E-03,   64.4952E-03,       3.78201,-0.00907878,-0.00147397,-0.000338748
1299,21.0,46.0,0.00299601,  -678.915E-03,   64.4913E-03,       3.97683,-0.012037,-0.00208611,-0.000305529
1304,20.0,46.0,0.00314288,  -660.322E-03,   64.4869E-03,       4.16859,-0.0149753,-0.00272585,-0.000256665
1307,19.0,46.0,0.00328688,  -642.468E-03,   64.4822E-03,       4.35652,-0.0178801,-0.00339171,-0.000196331
1308,18.0,46.0,0.00342741,  -625.474E-03,   64.4777E-03,       4.53989,-0.0207371,-0.00408001,-0.000129269
1313,17.0,46.0,0.00356391,  -609.450E-03,   64.4735E-03,       4.71799,-0.0235319,-0.00478518,-6.03062e-05
1314,16.0,46.0,0.00369584,  -594.488E-03,   64.4700E-03,       4.89011,-0.0262494,-0.00550024,6.08299e-06
1319,15.0,46.0,0.00382266,  -580.666E-03,   64.4672E-03,       5.05558,-0.028875,-0.00621724,6.61268e-05
1322,14.0,46.0,0.00394387,  -568.044E-03,   64.4653E-03,       5.21374,-0.0313943,-0.00692779,0.000116989
1323,13.0,46.0,0.00405897,  -556.661E-03,   64.4642E-03,       5.36395,-0.0337936,-0.00762347,0.000156873
1328,12.0,46.0,0.00416751,  -546.539E-03,   64.4640E-03,       5.50562,-0.0360602,-0.00829626,0.000185015
1329,11.0,46.0,0.00426906,  -537.678E-03,   64.4644E-03,       5.63818,-0.0381826,-0.00893875,0.000201563
1334,10.0,46.0,0.00436319,  -530.060E-03,   64.4654E-03,       5.76110,-0.0401503,-0.00954432,0.000207404
1337,9.0,46.0,0.00444954,  -523.647E-03,   64.4667E-03,       5.87387,-0.0419545,-0.0101072,0.000203939
1338,8.0,46.0,0.00452776,  -518.380E-03,   64.4683E-03,       5.97605,-0.0435874,-0.0106224,0.000192856
1343,7.0,46.0,0.00459753,  -514.184E-03,   64.4701E-03,       6.06721,-0.0450423,-0.0110859,0.000175923
1344,6.0,46.0,0.00465857,  -510.965E-03,   64.4717E-03,       6.14699,-0.0463137,-0.011494,0.000154811
1349,5.0,46.0,0.00471065,  -508.615E-03,   64.4733E-03,       6.21506,-0.047397,-0.0118439,0.000130965
1352,4.0,46.0,0.00475354,  -507.012E-03,   64.4747E-03,       6.27113,-0.0482884,-0.0121333,0.000105534
1353,3.0,46.0,0.00478708,  -506.020E-03,   64.4758E-03,       6.31499,-0.0489848,-0.0123603,7.93386e-05
1358,2.0,46.0,0.00481114,  -505.497E-03,   64.4766E-03,       6.34644,-0.0494839,-0.0125235,5.28861e-05
1359,1.0,46.0,0.00482561,  -505.289E-03,   64.4771E-03,       6.36537,-0.049784,-0.0126218,2.64214e-05
1364,-9.050530000000001e-29,46.0,0.00483044,  -505.241E-03,   64.4772E-03,       6.37168,-0.0498842,-0.0126546,2.27374e-13
1367,-1.0,46.0,0.00482561,  -505.193E-03,   64.4771E-03,       6.36537,-0.049784,-0.0126218,-2.64214e-05
1368,-2.0,46.0,0.00481114,  -504.985E-03,   64.4766E-03,       6.34644,-0.0494839,-0.0125235,-5.28861e-05
1373,-3.0,46.0,0.00478708,  -504.461E-03,   64.4758E-03,       6.31499,-0.0489848,-0.0123603,-7.93386e-05
1374,-4.0,46.0,0.00475354,  -503.470E-03,   64.4747E-03,       6.27113,-0.0482884,-0.0121333,-0.000105534
1379,-5.0,46.0,0.00471065,  -501.867E-03,   64.4733E-03,       6.21506,-0.047397,-0.0118439,-0.000130965
1382,-6.0,46.0,0.00465857,  -499.517E-03,   64.4717E-03,       6.14699,-0.0463137,-0.011494,-0.000154811
1383,-7.0,46.0,0.00459753,  -496.298E-03,   64.4701E-03,       6.06721,-0.0450423,-0.0110859,-0.000175923
1388,-8.0,46.0,0.00452776,  -492.102E-03,   64.4683E-03,       5.97605,-0.0435874,-0.0106224,-0.000192856
1389,-9.0,46.0,0.00444954,  -486.835E-03,   64.4667E-03,       5.87387,-0.0419545,-0.0101072,-0.000203939
1394,-10.0,46.0,0.00436319,  -480.422E-03,   64.4654E-03,       5.76110,-0.0401503,-0.00954432,-0.000207404
1397,-11.0,46.0,0.00426906,  -472.804E-03,   64.4644E-03,       5.63818,-0.0381826,-0.00893875,-0.000201563
1398,-12.0,46.0,0.00416751,  -463.943E-03,   64.4640E-03,       5.50562,-0.0360602,-0.00829626,-0.000185015
1403,-13.0,46.0,0.00405897,  -453.821E-03,   64.4642E-03,       5.36395,-0.0337936,-0.00762347,-0.000156873
1404,-14.0,46.0,0.00394387,  -442.438E-03,   64.4653E-03,       5.21374,-0.0313943,-0.00692779,-0.000116989
1409,-15.0,46.0,0.00382266,  -429.816E-03,   64.4672E-03,       5.05558,-0.028875,-0.00621724,-6.61268e-05
1412,-16.0,46.0,0.00369584,  -415.994E-03,   64.4700E-03,       4.89011,-0.0262494,-0.00550024,-6.08299e-06
1413,-17.0,46.0,0.00356391,  -401.032E-03,   64.4735E-03,       4.71799,-0.0235319,-0.00478518,6.03062e-05
1418,-18.0,46.0,0.00342741,  -385.008E-03,   64.4777E-03,       4.53989,-0.0207371,-0.00408001,0.000129269
1419,-19.0,46.0,0.00328688,  -368.014E-03,   64.4822E-03,       4.35652,-0.0178801,-0.00339171,0.000196331
1424,-20.0,46.0,0.00314288,  -350.160E-03,   64.4869E-03,       4.16859,-0.0149753,-0.00272585,0.000256665
1427,-21.0,46.0,0.00299601,  -331.567E-03,   64.4913E-03,       3.97683,-0.012037,-0.00208611,0.000305529
1428,-22.0,46.0,0.00284683,  -312.369E-03,   64.4952E-03,       3.78201,-0.00907878,-0.00147397,0.000338748
1433,-23.0,46.0,0.00269597,  -292.709E-03,   64.4982E-03,       3.58487,-0.00611351,-0.000888582,0.000353181
1434,-24.0,46.0,0.00254401,  -272.737E-03,   64.5002E-03,       3.38618,-0.00315306,-0.000326767,0.000347104
1439,-25.0,46.0,0.00239158,  -252.607E-03,   64.5009E-03,       3.18672,-0.000208256,0.000216682,0.000320466
1442,-26.0,46.0,0.00223928,  -232.477E-03,   64.5003E-03,       2.98726,0.0027112,0.000748604,0.00027494
1443,-27.0,46.0,0.00208773,  -212.505E-03,   64.4984E-03,       2.78857,0.0055968,0.0012768,0.000213825
1448,-28.0,46.0,0.00193754,  -192.845E-03,   64.4954E-03,       2.59143,0.00844117,0.00180935,0.000141688
1449,-29.0,46.0,0.0017893,  -173.648E-03,   64.4914E-03,       2.39661,0.0112379,0.00235374,6.39693e-05
1454,-30.0,46.0,0.00164361,  -155.056E-03,   64.4869E-03,       2.20486,0.0139811,0.00291622,-1.36377e-05
1457,-31.0,46.0,0.00150106,  -137.202E-03,   64.4820E-03,       2.01693,0.0166654,0.00350092,-8.56061e-05
1458,-32.0,46.0,0.00136222,  -120.209E-03,   64.4771E-03,       1.83356,0.019285,0.00410963,-0.000147231
1463,-33.0,46.0,0.00122764,  -104.186E-03,   64.4725E-03,       1.65546,0.0218339,0.00474113,-0.00019476
1464,-34.0,46.0,0.00109786,  -89.2250E-03,   64.4682E-03,       1.48334,0.0243049,0.00539164,-0.000225943
1469,-35.0,46.0,0.0009733910000000001,  -75.4043E-03,   64.4646E-03,       1.31788,0.0266903,0.00605448,-0.000239715
1472,-36.0,46.0,0.00085473,  -62.7829E-03,   64.4616E-03,       1.15973,0.0289813,0.00672113,-0.000236692
1473,-37.0,46.0,0.0007423410000000001,  -51.4014E-03,   64.4593E-03,       1.00952,0.0311685,0.00738134,-0.000218497
1478,-38.0,46.0,0.000636663,  -41.2808E-03,   64.4577E-03,   867.860E-03,0.0332425,0.00802461,-0.000188302
1479,-39.0,46.0,0.000538101,  -32.4222E-03,   64.4567E-03,   735.310E-03,0.0351936,0.00864101,-0.000150232
1484,-40.0,46.0,0.00044702800000000003,  -24.8068E-03,   64.4564E-03,   612.405E-03,0.0370131,0.00922293,-0.000109506
1487,-41.0,46.0,0.00036377800000000004,  -18.3959E-03,   64.4568E-03,   499.641E-03,0.0386938,0.00976729,-7.30055e-05
1488,-42.0,46.0,0.000288646,  -13.1312E-03,   64.4581E-03,   397.466E-03,0.0402296,0.0102783,-4.65503e-05
1493,-43.0,46.0,0.00022187900000000002,  -8.93657E-03,   64.4605E-03,   306.287E-03,0.04162,0.0107708,-3.90274e-05
1494,-44.0,46.0,0.000163679,  -5.71819E-03,   64.4642E-03,   226.458E-03,0.0428611,0.0112777,-4.94679e-05
1499,-45.0,46.0,0.000114191,  -3.36704E-03,   64.4694E-03,   158.278E-03,0.043976,0.0118452,-7.55162e-05
1502,-46.0,46.0,7.35111e-05,  -1.76062E-03,   64.4761E-03,   101.996E-03,0.0449596,0.0125532,-8.44639e-05
1503,-47.0,46.0,4.16681e-05,  -764.938E-06,   64.4841E-03,   57.7918E-03,0.0459591,0.0134432,2.47258e-05
1508,-48.0,46.0,1.87063e-05,  -239.088E-06,   64.4913E-03,   25.8854E-03,0.0471441,0.0143642,0.000216892
1509,-49.0,46.0,4.72608e-06,  -36.2736E-06,   64.4963E-03,   6.51278E-03,0.0485064,0.015145,0.000259107
1514,-50.0,46.0,0.0,  -42.2113E-42,   64.4978E-03,           -0.,0.0492331,0.0154912,0.000209194
1517,50.0,45.0,0.0,      -1.01048,   64.4873E-03,            0.,0.0485878,0.0152787,-0.000173832
1518,49.0,45.0,4.79742e-06,      -1.01045,   64.4863E-03,   6.41885E-03,0.048303,0.0151996,-0.000253673
1523,48.0,45.0,1.90141e-05,      -1.01025,   64.4834E-03,   25.6123E-03,0.0475652,0.0149152,-0.000277578
1524,47.0,45.0,4.23566e-05,      -1.00973,   64.4783E-03,   57.4014E-03,0.0466538,0.0144463,-0.000154946
1529,46.0,45.0,7.464510000000001e-05,      -1.00874,   64.4724E-03,   101.555E-03,0.0457055,0.0138898,-3.95107e-05
1532,45.0,45.0,0.000115765,      -1.00713,   64.4663E-03,   157.857E-03,0.044705,0.0133264,1.70653e-05
1533,44.0,45.0,0.00016560900000000002,      -1.00478,   64.4613E-03,   226.071E-03,0.043601,0.012808,2.0904e-05
1538,43.0,45.0,0.00022405599999999998,      -1.00157,   64.4574E-03,   305.944E-03,0.042345,0.0123141,1.41167e-05
1539,42.0,45.0,0.00029094200000000003,  -997.374E-03,   64.4548E-03,   397.169E-03,0.0409374,0.0118121,1.21316e-05
1544,41.0,45.0,0.00036606,  -992.108E-03,   64.4532E-03,   499.392E-03,0.0393698,0.0112801,1.97119e-05
1547,40.0,45.0,0.00044916,  -985.695E-03,   64.4526E-03,   612.209E-03,0.0376483,0.0107039,3.73707e-05
1548,39.0,45.0,0.000539951,  -978.076E-03,   64.4528E-03,   735.171E-03,0.0357779,0.0100793,6.10269e-05
1553,38.0,45.0,0.000638103,  -969.212E-03,   64.4538E-03,   867.782E-03,0.0337683,0.00940929,8.69437e-05
1554,37.0,45.0,0.00074325,  -959.084E-03,   64.4555E-03,       1.00951,0.0316296,0.00870118,0.000110947
1559,36.0,45.0,0.000854992,  -947.694E-03,   64.4579E-03,       1.15978,0.0293734,0.00796537,0.000129625
1562,35.0,45.0,0.000972898,  -935.064E-03,   64.4610E-03,       1.31799,0.0270113,0.00721337,0.000140461
1563,34.0,45.0,0.00109651,  -921.235E-03,   64.4647E-03,       1.48351,0.0245549,0.0064565,0.000141678
1568,33.0,45.0,0.00122534,  -906.266E-03,   64.4689E-03,       1.65567,0.022015,0.00570487,0.000132716
1569,32.0,45.0,0.00135889,  -890.237E-03,   64.4735E-03,       1.83380,0.0194016,0.00496638,0.00011381
1574,31.0,45.0,0.00149662,  -873.240E-03,   64.4783E-03,       2.01719,0.0167234,0.00424633,8.63786e-05
1577,30.0,45.0,0.00163799,  -855.387E-03,   64.4830E-03,       2.20511,0.0139875,0.00354685,5.25739e-05
1578,29.0,45.0,0.00178244,  -836.797E-03,   64.4873E-03,       2.39684,0.0112005,0.00286711,1.53863e-05
1583,28.0,45.0,0.00192939,  -817.606E-03,   64.4910E-03,       2.59162,0.00836768,0.00220337,-2.18417e-05
1584,27.0,45.0,0.00207825,  -797.955E-03,   64.4939E-03,       2.78871,0.00549421,0.00154972,-5.55806e-05
1589,26.0,45.0,0.00222843,  -777.994E-03,   64.4957E-03,       2.98733,0.00258527,0.000898652,-8.2597e-05
1592,25.0,45.0,0.00237933,  -757.877E-03,   64.4963E-03,       3.18672,-0.000353348,0.000242077,-0.000100214
1593,24.0,45.0,0.00253034,  -737.759E-03,   64.4956E-03,       3.38612,-0.00331489,-0.000427829,-0.000106658
1598,23.0,45.0,0.00268086,  -717.798E-03,   64.4938E-03,       3.58474,-0.0062913,-0.00111771,-0.000101198
1599,22.0,45.0,0.00283029,  -698.147E-03,   64.4909E-03,       3.78182,-0.00927304,-0.00183234,-8.4228e-05
1604,21.0,45.0,0.00297803,  -678.955E-03,   64.4872E-03,       3.97661,-0.012249,-0.00257407,-5.71723e-05
1607,20.0,45.0,0.00312348,  -660.365E-03,   64.4830E-03,       4.16834,-0.0152066,-0.00334264,-2.23009e-05
1608,19.0,45.0,0.00326607,  -642.510E-03,   64.4785E-03,       4.35627,-0.0181319,-0.0041351,1.75549e-05
1613,18.0,45.0,0.00340521,  -625.513E-03,   64.4741E-03,       4.53966,-0.0210097,-0.00494612,5.93165e-05
1614,17.0,45.0,0.00354037,  -609.482E-03,   64.4700E-03,       4.71780,-0.0238241,-0.0057684,9.99757e-05
1619,16.0,45.0,0.00367099,  -594.512E-03,   64.4664E-03,       4.88997,-0.026559,-0.00659327,0.000136867
1622,15.0,45.0,0.00379654,  -580.680E-03,   64.4635E-03,       5.05550,-0.0291983,-0.00741131,0.000167872
1623,14.0,45.0,0.00391653,  -568.047E-03,   64.4614E-03,       5.21372,-0.0317266,-0.00821297,0.000191539
1628,13.0,45.0,0.00403048,  -556.655E-03,   64.4600E-03,       5.36401,-0.0341294,-0.00898909,0.000207118
1629,12.0,45.0,0.00413793,  -546.523E-03,   64.4594E-03,       5.50576,-0.0363937,-0.00973133,0.000214526
1634,11.0,45.0,0.00423844,  -537.655E-03,   64.4595E-03,       5.63840,-0.0385082,-0.0104324,0.000214238
1637,10.0,45.0,0.00433162,  -530.032E-03,   64.4601E-03,       5.76139,-0.040463,-0.0110861,0.00020716
1638,9.0,45.0,0.00441709,  -523.615E-03,   64.4611E-03,       5.87423,-0.0422501,-0.0116876,0.000194471
1643,8.0,45.0,0.00449451,  -518.346E-03,   64.4624E-03,       5.97647,-0.0438629,-0.012233,0.000177466
1644,7.0,45.0,0.00456357,  -514.150E-03,   64.4638E-03,       6.06768,-0.0452961,-0.0127192,0.000157426
1649,6.0,45.0,0.00462399,  -510.933E-03,   64.4652E-03,       6.14750,-0.0465455,-0.0131441,0.0001355
1652,5.0,45.0,0.00467553,  -508.586E-03,   64.4666E-03,       6.21560,-0.0476077,-0.0135059,0.000112635
1653,4.0,45.0,0.00471798,  -506.987E-03,   64.4678E-03,       6.27170,-0.0484802,-0.0138033,8.95254e-05
1658,3.0,45.0,0.00475118,  -506.001E-03,   64.4687E-03,       6.31558,-0.0491608,-0.0140356,6.66087e-05
1659,2.0,45.0,0.00477499,  -505.484E-03,   64.4695E-03,       6.34705,-0.0496481,-0.0142019,4.40781e-05
1664,1.0,45.0,0.00478931,  -505.283E-03,   64.4699E-03,       6.36598,-0.0499409,-0.0143019,2.19258e-05
1667,4.5068699999999996e-29,45.0,0.00479409,  -505.241E-03,   64.4701E-03,       6.37230,-0.0500385,-0.0143353,2.27374e-13
1668,-1.0,45.0,0.00478931,  -505.199E-03,   64.4699E-03,       6.36598,-0.0499409,-0.0143019,-2.19258e-05
1673,-2.0,45.0,0.00477499,  -504.998E-03,   64.4695E-03,       6.34705,-0.0496481,-0.0142019,-4.40781e-05
1674,-3.0,45.0,0.00475118,  -504.480E-03,   64.4687E-03,       6.31558,-0.0491608,-0.0140356,-6.66087e-05
1679,-4.0,45.0,0.00471798,  -503.494E-03,   64.4678E-03,       6.27170,-0.0484802,-0.0138033,-8.95254e-05
1682,-5.0,45.0,0.00467553,  -501.895E-03,   64.4666E-03,       6.21560,-0.0476077,-0.0135059,-0.000112635
1683,-6.0,45.0,0.00462399,  -499.549E-03,   64.4652E-03,       6.14750,-0.0465455,-0.0131441,-0.0001355
1688,-7.0,45.0,0.00456357,  -496.332E-03,   64.4638E-03,       6.06768,-0.0452961,-0.0127192,-0.000157426
1689,-8.0,45.0,0.00449451,  -492.136E-03,   64.4624E-03,       5.97647,-0.0438629,-0.012233,-0.000177466
1694,-9.0,45.0,0.00441709,  -486.867E-03,   64.4611E-03,       5.87423,-0.0422501,-0.0116876,-0.000194471
1697,-10.0,45.0,0.00433162,  -480.450E-03,   64.4601E-03,       5.76139,-0.040463,-0.0110861,-0.00020716
1698,-11.0,45.0,0.00423844,  -472.827E-03,   64.4595E-03,       5.63840,-0.0385082,-0.0104324,-0.000214238
1703,-12.0,45.0,0.00413793,  -463.959E-03,   64.4594E-03,       5.50576,-0.0363937,-0.00973133,-0.000214526
1704,-13.0,45.0,0.00403048,  -453.827E-03,   64.4600E-03,       5.36401,-0.0341294,-0.00898909,-0.000207118
1709,-14.0,45.0,0.00391653,  -442.434E-03,   64.4614E-03,       5.21372,-0.0317266,-0.00821297,-0.000191539
1712,-15.0,45.0,0.00379654,  -429.802E-03,   64.4635E-03,       5.05550,-0.0291983,-0.00741131,-0.000167872
1713,-16.0,45.0,0.00367099,  -415.970E-03,   64.4664E-03,       4.88997,-0.026559,-0.00659327,-0.000136867
1718,-17.0,45.0,0.00354037,  -401.000E-03,   64.4700E-03,       4.71780,-0.0238241,-0.0057684,-9.99757e-05
1719,-18.0,45.0,0.00340521,  -384.969E-03,   64.4741E-03,       4.53966,-0.0210097,-0.00494612,-5.93165e-05
1724,-19.0,45.0,0.00326607,  -367.972E-03,   64.4785E-03,       4.35627,-0.0181319,-0.0041351,-1.75549e-05
1727,-20.0,45.0,0.00312348,  -350.117E-03,   64.4830E-03,       4.16834,-0.0152066,-0.00334264,2.23009e-05
1728,-21.0,45.0,0.00297803,  -331.527E-03,   64.4872E-03,       3.97661,-0.012249,-0.00257407,5.71723e-05
1733,-22.0,45.0,0.00283029,  -312.335E-03,   64.4909E-03,       3.78182,-0.00927304,-0.00183234,8.4228e-05
1734,-23.0,45.0,0.00268086,  -292.684E-03,   64.4938E-03,       3.58474,-0.0062913,-0.00111771,0.000101198
1739,-24.0,45.0,0.00253034,  -272.722E-03,   64.4956E-03,       3.38612,-0.00331489,-0.000427829,0.000106658
1742,-25.0,45.0,0.00237933,  -252.605E-03,   64.4963E-03,       3.18672,-0.000353348,0.000242077,0.000100214
1743,-26.0,45.0,0.00222843,  -232.487E-03,   64.4957E-03,       2.98733,0.00258527,0.000898652,8.2597e-05
1748,-27.0,45.0,0.00207825,  -212.526E-03,   64.4939E-03,       2.78871,0.00549421,0.00154972,5.55806e-05
1749,-28.0,45.0,0.00192939,  -192.876E-03,   64.4910E-03,       2.59162,0.00836768,0.00220337,2.18417e-05
1754,-29.0,45.0,0.00178244,  -173.684E-03,   64.4873E-03,       2.39684,0.0112005,0.00286711,-1.53863e-05
1757,-30.0,45.0,0.00163799,  -155.095E-03,   64.4830E-03,       2.20511,0.0139875,0.00354685,-5.25739e-05
1758,-31.0,45.0,0.00149662,  -137.241E-03,   64.4783E-03,       2.01719,0.0167234,0.00424633,-8.63786e-05
1763,-32.0,45.0,0.00135889,  -120.245E-03,   64.4735E-03,       1.83380,0.0194016,0.00496638,-0.00011381
1764,-33.0,45.0,0.00122534,  -104.216E-03,   64.4689E-03,       1.65567,0.022015,0.00570487,-0.000132716
1769,-34.0,45.0,0.00109651,  -89.2471E-03,   64.4647E-03,       1.48351,0.0245549,0.0064565,-0.000141678
1772,-35.0,45.0,0.000972898,  -75.4177E-03,   64.4610E-03,       1.31799,0.0270113,0.00721337,-0.000140461
1773,-36.0,45.0,0.000854992,  -62.7874E-03,   64.4579E-03,       1.15978,0.0293734,0.00796537,-0.000129625
1778,-37.0,45.0,0.00074325,  -51.3976E-03,   64.4555E-03,       1.00951,0.0316296,0.00870118,-0.000110947
1779,-38.0,45.0,0.000638103,  -41.2699E-03,   64.4538E-03,   867.782E-03,0.0337683,0.00940929,-8.69437e-05
1784,-39.0,45.0,0.000539951,  -32.4058E-03,   64.4528E-03,   735.171E-03,0.0357779,0.0100793,-6.10269e-05
1787,-40.0,45.0,0.00044916,  -24.7866E-03,   64.4526E-03,   612.209E-03,0.0376483,0.0107039,-3.73707e-05
1788,-41.0,45.0,0.00036606,  -18.3736E-03,   64.4532E-03,   499.392E-03,0.0393698,0.0112801,-1.97119e-05
1793,-42.0,45.0,0.00029094200000000003,  -13.1083E-03,   64.4548E-03,   397.169E-03,0.0409374,0.0118121,-1.21316e-05
1794,-43.0,45.0,0.00022405599999999998,  -8.91408E-03,   64.4574E-03,   305.944E-03,0.042345,0.0123141,-1.41167e-05
1799,-44.0,45.0,0.00016560900000000002,  -5.69707E-03,   64.4613E-03,   226.071E-03,0.043601,0.012808,-2.0904e-05
1802,-45.0,45.0,0.000115765,  -3.34811E-03,   64.4663E-03,   157.857E-03,0.044705,0.0133264,-1.70653e-05
1803,-46.0,45.0,7.464510000000001e-05,  -1.74461E-03,   64.4724E-03,   101.555E-03,0.0457055,0.0138898,3.95107e-05
1808,-47.0,45.0,4.23566e-05,  -753.521E-06,   64.4783E-03,   57.4014E-03,0.0466538,0.0144463,0.000154946
1809,-48.0,45.0,1.90141e-05,  -233.567E-06,   64.4834E-03,   25.6123E-03,0.0475652,0.0149152,0.000277578
1814,-49.0,45.0,4.79742e-06,  -34.8523E-06,   64.4863E-03,   6.41885E-03,0.048303,0.0151996,0.000253673
1817,-50.0,45.0,0.0,  -38.4979E-42,   64.4873E-03,            0.,0.0485878,0.0152787,0.000173832
1818,50.0,44.0,0.0,      -1.01048,   64.4785E-03,           -0.,0.0481561,0.0150291,-0.0001059
1823,49.0,44.0,4.82757e-06,      -1.01045,   64.4780E-03,   6.34972E-03,0.0481197,0.015062,-0.000164948
1824,48.0,44.0,1.91481e-05,      -1.01026,   64.4761E-03,   25.3876E-03,0.0478053,0.0150404,-0.000209274
1829,47.0,44.0,4.26874e-05,      -1.00974,   64.4730E-03,   57.0291E-03,0.0471348,0.0148352,-0.000143888
1832,46.0,44.0,7.523e-05,      -1.00876,   64.4686E-03,   101.090E-03,0.0462946,0.014489,-5.69602e-05
1833,45.0,44.0,0.00011661,      -1.00716,   64.4639E-03,   157.346E-03,0.0453286,0.0140701,-7.44162e-07
1838,44.0,44.0,0.000166677,      -1.00482,   64.4593E-03,   225.554E-03,0.0442286,0.0136171,1.89065e-05
1839,43.0,44.0,0.000225272,      -1.00161,   64.4557E-03,   305.437E-03,0.0429789,0.0131496,1.24631e-05
1844,42.0,44.0,0.00029221200000000003,  -997.416E-03,   64.4529E-03,   396.684E-03,0.0415633,0.0126579,-2.20475e-08
1847,41.0,44.0,0.000367278,  -992.153E-03,   64.4512E-03,   498.935E-03,0.0399837,0.0121285,-9.85921e-06
1848,40.0,44.0,0.000450215,  -985.742E-03,   64.4503E-03,   611.785E-03,0.0382403,0.0115518,-1.32382e-05
1853,39.0,44.0,0.000540731,  -978.123E-03,   64.4504E-03,   734.784E-03,0.036341,0.0109234,-9.7748e-06
1854,38.0,44.0,0.000638498,  -969.258E-03,   64.4512E-03,   867.436E-03,0.0342945,0.0102448,-1.37042e-06
1859,37.0,44.0,0.000743152,  -959.128E-03,   64.4528E-03,       1.00921,0.0321122,0.00952198,9.76118e-06
1862,36.0,44.0,0.000854299,  -947.735E-03,   64.4552E-03,       1.15953,0.0298064,0.00876376,2.13275e-05
1863,35.0,44.0,0.0009715139999999999,  -935.100E-03,   64.4581E-03,       1.31779,0.0273901,0.00798064,3.14453e-05
1868,34.0,44.0,0.00109434,  -921.265E-03,   64.4617E-03,       1.48335,0.0248762,0.00718333,3.89119e-05
1869,33.0,44.0,0.00122231,  -906.290E-03,   64.4657E-03,       1.65556,0.0222774,0.00638168,4.30088e-05
1874,32.0,44.0,0.00135492,  -890.255E-03,   64.4700E-03,       1.83373,0.0196052,0.0055838,4.37778e-05
1877,31.0,44.0,0.00149163,  -873.253E-03,   64.4745E-03,       2.01715,0.01687,0.00479536,4.16631e-05
1878,30.0,44.0,0.00163193,  -855.395E-03,   64.4788E-03,       2.20510,0.0140808,0.00401926,3.76765e-05
1883,29.0,44.0,0.00177524,  -836.802E-03,   64.4828E-03,       2.39684,0.0112452,0.00325551,3.30377e-05
1884,28.0,44.0,0.00192101,  -817.609E-03,   64.4862E-03,       2.59163,0.00836972,0.00250155,2.91917e-05
1889,27.0,44.0,0.00206865,  -797.957E-03,   64.4888E-03,       2.78872,0.00546002,0.00175265,2.74865e-05
1892,26.0,44.0,0.00221757,  -777.996E-03,   64.4904E-03,       2.98734,0.00252151,0.00100272,2.91006e-05
1893,25.0,44.0,0.00236718,  -757.879E-03,   64.4909E-03,       3.18673,-0.000440227,0.000245131,3.48096e-05
1898,24.0,44.0,0.00251689,  -737.762E-03,   64.4904E-03,       3.38611,-0.00341888,-0.00052635,4.49335e-05
1899,23.0,44.0,0.0026661,  -717.800E-03,   64.4887E-03,       3.58473,-0.00640702,-0.00131674,5.92527e-05
1904,22.0,44.0,0.00281421,  -698.148E-03,   64.4861E-03,       3.78182,-0.00939577,-0.00212915,7.70597e-05
1905,21.0,44.0,0.00296063,  -678.954E-03,   64.4827E-03,       3.97662,-0.0123746,-0.0029643,9.72318e-05
1910,20.0,44.0,0.00310478,  -660.360E-03,   64.4789E-03,       4.16836,-0.0153314,-0.00382035,0.000118381
1911,19.0,44.0,0.00324607,  -642.501E-03,   64.4747E-03,       4.35632,-0.0182525,-0.00469296,0.000139014
1916,18.0,44.0,0.00338395,  -625.498E-03,   64.4706E-03,       4.53975,-0.0211228,-0.00557559,0.000157697
1919,17.0,44.0,0.00351787,  -609.460E-03,   64.4667E-03,       4.71792,-0.0239266,-0.00646005,0.000173202
1920,16.0,44.0,0.00364728,  -594.483E-03,   64.4633E-03,       4.89015,-0.0266476,-0.00733709,0.000184605
1925,15.0,44.0,0.00377167,  -580.645E-03,   64.4604E-03,       5.05573,-0.0292699,-0.00819707,0.000191345
1926,14.0,44.0,0.00389055,  -568.007E-03,   64.4583E-03,       5.21401,-0.0317781,-0.00903061,0.000193232
1931,13.0,44.0,0.00400343,  -556.609E-03,   64.4568E-03,       5.36436,-0.034158,-0.00982905,0.000190417
1934,12.0,44.0,0.00410987,  -546.474E-03,   64.4560E-03,       5.50616,-0.0363971,-0.0105848,0.000183335
1935,11.0,44.0,0.00420943,  -537.604E-03,   64.4559E-03,       5.63885,-0.0384844,-0.0112918,0.000172627
1940,10.0,44.0,0.00430173,  -529.980E-03,   64.4562E-03,       5.76188,-0.0404109,-0.0119449,0.000159058
1941,9.0,44.0,0.0043864,  -523.564E-03,   64.4570E-03,       5.87477,-0.0421693,-0.0125408,0.000143441
1946,8.0,44.0,0.00446308,  -518.297E-03,   64.4580E-03,       5.97704,-0.0437538,-0.0130767,0.000126561
1949,7.0,44.0,0.00453149,  -514.105E-03,   64.4592E-03,       6.06828,-0.0451599,-0.0135511,0.000109121
1950,6.0,44.0,0.00459133,  -510.892E-03,   64.4605E-03,       6.14813,-0.0463841,-0.0139629,9.16946e-05
1955,5.0,44.0,0.00464238,  -508.551E-03,   64.4617E-03,       6.21624,-0.0474237,-0.0143118,7.47056e-05
1956,4.0,44.0,0.00468443,  -506.959E-03,   64.4628E-03,       6.27236,-0.0482769,-0.0145973,5.841e-05
1961,3.0,44.0,0.00471731,  -505.979E-03,   64.4637E-03,       6.31625,-0.048942,-0.0148193,4.29013e-05
1964,2.0,44.0,0.00474089,  -505.469E-03,   64.4643E-03,       6.34772,-0.0494179,-0.014978,2.81265e-05
1965,1.0,44.0,0.00475508,  -505.275E-03,   64.4647E-03,       6.36666,-0.0497037,-0.0150731,1.39121e-05
1970,-3.8509699999999995e-29,44.0,0.00475981,  -505.241E-03,   64.4649E-03,       6.37298,-0.0497991,-0.0151049,0.0
1971,-1.0,44.0,0.00475508,  -505.207E-03,   64.4647E-03,       6.36666,-0.0497037,-0.0150731,-1.39121e-05
1976,-2.0,44.0,0.00474089,  -505.013E-03,   64.4643E-03,       6.34772,-0.0494179,-0.014978,-2.81265e-05
1979,-3.0,44.0,0.00471731,  -504.502E-03,   64.4637E-03,       6.31625,-0.048942,-0.0148193,-4.29013e-05
1980,-4.0,44.0,0.00468443,  -503.523E-03,   64.4628E-03,       6.27236,-0.0482769,-0.0145973,-5.841e-05
1985,-5.0,44.0,0.00464238,  -501.930E-03,   64.4617E-03,       6.21624,-0.0474237,-0.0143118,-7.47056e-05
1986,-6.0,44.0,0.00459133,  -499.589E-03,   64.4605E-03,       6.14813,-0.0463841,-0.0139629,-9.16946e-05
1991,-7.0,44.0,0.00453149,  -496.377E-03,   64.4592E-03,       6.06828,-0.0451599,-0.0135511,-0.000109121
1994,-8.0,44.0,0.00446308,  -492.185E-03,   64.4580E-03,       5.97704,-0.0437538,-0.0130767,-0.000126561
1995,-9.0,44.0,0.0043864,  -486.918E-03,   64.4570E-03,       5.87477,-0.0421693,-0.0125408,-0.000143441
2000,-10.0,44.0,0.00430173,  -480.502E-03,   64.4562E-03,       5.76188,-0.0404109,-0.0119449,-0.000159058
2001,-11.0,44.0,0.00420943,  -472.878E-03,   64.4559E-03,       5.63885,-0.0384844,-0.0112918,-0.000172627
2006,-12.0,44.0,0.00410987,  -464.008E-03,   64.4560E-03,       5.50616,-0.0363971,-0.0105848,-0.000183335
2009,-13.0,44.0,0.00400343,  -453.873E-03,   64.4568E-03,       5.36436,-0.034158,-0.00982905,-0.000190417
2010,-14.0,44.0,0.00389055,  -442.475E-03,   64.4583E-03,       5.21401,-0.0317781,-0.00903061,-0.000193232
2015,-15.0,44.0,0.00377167,  -429.836E-03,   64.4604E-03,       5.05573,-0.0292699,-0.00819707,-0.000191345
2016,-16.0,44.0,0.00364728,  -415.998E-03,   64.4633E-03,       4.89015,-0.0266476,-0.00733709,-0.000184605
2021,-17.0,44.0,0.00351787,  -401.021E-03,   64.4667E-03,       4.71792,-0.0239266,-0.00646005,-0.000173202
2024,-18.0,44.0,0.00338395,  -384.984E-03,   64.4706E-03,       4.53975,-0.0211228,-0.00557559,-0.000157697
2025,-19.0,44.0,0.00324607,  -367.981E-03,   64.4747E-03,       4.35632,-0.0182525,-0.00469296,-0.000139014
2030,-20.0,44.0,0.00310478,  -350.121E-03,   64.4789E-03,       4.16836,-0.0153314,-0.00382035,-0.000118381
2031,-21.0,44.0,0.00296063,  -331.528E-03,   64.4827E-03,       3.97662,-0.0123746,-0.0029643,-9.72318e-05
2036,-22.0,44.0,0.00281421,  -312.334E-03,   64.4861E-03,       3.78182,-0.00939577,-0.00212915,-7.70597e-05
2039,-23.0,44.0,0.0026661,  -292.682E-03,   64.4887E-03,       3.58473,-0.00640702,-0.00131674,-5.92527e-05
2040,-24.0,44.0,0.00251689,  -272.720E-03,   64.4904E-03,       3.38611,-0.00341888,-0.00052635,-4.49335e-05
2045,-25.0,44.0,0.00236718,  -252.603E-03,   64.4909E-03,       3.18673,-0.000440227,0.000245131,-3.48096e-05
2046,-26.0,44.0,0.00221757,  -232.486E-03,   64.4904E-03,       2.98734,0.00252151,0.00100272,-2.91006e-05
2051,-27.0,44.0,0.00206865,  -212.525E-03,   64.4888E-03,       2.78872,0.00546002,0.00175265,-2.74865e-05
2054,-28.0,44.0,0.00192101,  -192.873E-03,   64.4862E-03,       2.59163,0.00836972,0.00250155,-2.91917e-05
2055,-29.0,44.0,0.00177524,  -173.680E-03,   64.4828E-03,       2.39684,0.0112452,0.00325551,-3.30377e-05
2060,-30.0,44.0,0.00163193,  -155.087E-03,   64.4788E-03,       2.20510,0.0140808,0.00401926,-3.76765e-05
2061,-31.0,44.0,0.00149163,  -137.229E-03,   64.4745E-03,       2.01715,0.01687,0.00479536,-4.16631e-05
2066,-32.0,44.0,0.00135492,  -120.227E-03,   64.4700E-03,       1.83373,0.0196052,0.0055838,-4.37778e-05
2069,-33.0,44.0,0.00122231,  -104.192E-03,   64.4657E-03,       1.65556,0.0222774,0.00638168,-4.30088e-05
2070,-34.0,44.0,0.00109434,  -89.2172E-03,   64.4617E-03,       1.48335,0.0248762,0.00718333,-3.89119e-05
2075,-35.0,44.0,0.0009715139999999999,  -75.3822E-03,   64.4581E-03,       1.31779,0.0273901,0.00798064,-3.14453e-05
2076,-36.0,44.0,0.000854299,  -62.7471E-03,   64.4552E-03,       1.15953,0.0298064,0.00876376,-2.13275e-05
2081,-37.0,44.0,0.000743152,  -51.3536E-03,   64.4528E-03,       1.00921,0.0321122,0.00952198,-9.76118e-06
2084,-38.0,44.0,0.000638498,  -41.2235E-03,   64.4512E-03,   867.436E-03,0.0342945,0.0102448,1.37042e-06
2085,-39.0,44.0,0.000540731,  -32.3586E-03,   64.4504E-03,   734.784E-03,0.036341,0.0109234,9.7748e-06
2090,-40.0,44.0,0.000450215,  -24.7398E-03,   64.4503E-03,   611.785E-03,0.0382403,0.0115518,1.32382e-05
2091,-41.0,44.0,0.000367278,  -18.3284E-03,   64.4512E-03,   498.935E-03,0.0399837,0.0121285,9.85921e-06
2096,-42.0,44.0,0.00029221200000000003,  -13.0659E-03,   64.4529E-03,   396.684E-03,0.0415633,0.0126579,2.20477e-08
2099,-43.0,44.0,0.000225272,  -8.87526E-03,   64.4557E-03,   305.437E-03,0.0429789,0.0131496,-1.24631e-05
2100,-44.0,44.0,0.000166677,  -5.66270E-03,   64.4593E-03,   225.554E-03,0.0442286,0.0136171,-1.89065e-05
2105,-45.0,44.0,0.00011661,  -3.31906E-03,   64.4639E-03,   157.346E-03,0.0453286,0.0140701,7.44161e-07
2106,-46.0,44.0,7.523e-05,  -1.72201E-03,   64.4686E-03,   101.090E-03,0.0462946,0.014489,5.69602e-05
2111,-47.0,44.0,4.26874e-05,  -738.556E-06,   64.4730E-03,   57.0291E-03,0.0471348,0.0148352,0.000143888
2114,-48.0,44.0,1.91481e-05,  -225.611E-06,   64.4761E-03,   25.3876E-03,0.0478053,0.0150404,0.000209274
2115,-49.0,44.0,4.82757e-06,  -32.3635E-06,   64.4780E-03,   6.34972E-03,0.0481197,0.015062,0.000164948
2120,-50.0,44.0,0.0,  -32.1808E-42,   64.4785E-03,           -0.,0.0481561,0.0150291,0.0001059
2121,50.0,43.0,0.0,      -1.01048,   64.4716E-03,            0.,0.0479445,0.0148382,-4.93719e-05
2126,49.0,43.0,4.82863e-06,      -1.01045,   64.4713E-03,   6.30526E-03,0.0480136,0.0149051,-8.18018e-05
2129,48.0,43.0,1.91778e-05,      -1.01026,   64.4703E-03,   25.2399E-03,0.0479099,0.0149671,-0.000113013
2130,47.0,43.0,4.2788100000000005e-05,      -1.00976,   64.4682E-03,   56.7612E-03,0.0474155,0.0148856,-8.74137e-05
2135,46.0,43.0,7.54419e-05,      -1.00878,   64.4653E-03,   100.726E-03,0.0466711,0.0146637,-3.40456e-05
2136,45.0,43.0,0.000116944,      -1.00719,   64.4617E-03,   156.921E-03,0.0457491,0.0143358,9.64218e-06
2141,44.0,43.0,0.000167112,      -1.00485,   64.4581E-03,   225.099E-03,0.0446668,0.0139426,2.74485e-05
2144,43.0,43.0,0.000225761,      -1.00164,   64.4548E-03,   304.974E-03,0.0434219,0.0135034,2.30351e-05
2145,42.0,43.0,0.000292686,  -997.458E-03,   64.4522E-03,   396.225E-03,0.0420106,0.013027,4.90859e-06
2150,41.0,43.0,0.000367655,  -992.199E-03,   64.4504E-03,   498.486E-03,0.040429,0.0125091,-1.62828e-05
2151,40.0,43.0,0.00045040699999999994,  -985.790E-03,   64.4494E-03,   611.351E-03,0.0386812,0.0119445,-3.5097e-05
2156,39.0,43.0,0.000540643,  -978.174E-03,   64.4493E-03,   734.366E-03,0.0367721,0.01133,-4.87827e-05
2159,38.0,43.0,0.0006380369999999999,  -969.311E-03,   64.4500E-03,   867.039E-03,0.034711,0.0106659,-5.67383e-05
2160,37.0,43.0,0.000742226,  -959.182E-03,   64.4514E-03,       1.00883,0.0325084,0.00995593,-5.95574e-05
2165,36.0,43.0,0.000852818,  -947.788E-03,   64.4535E-03,       1.15918,0.0301767,0.00920675,-5.81457e-05
2166,35.0,43.0,0.000969393,  -935.152E-03,   64.4562E-03,       1.31747,0.0277291,0.00842657,-5.33884e-05
2171,34.0,43.0,0.0010915,  -921.315E-03,   64.4595E-03,       1.48306,0.0251792,0.00762431,-4.59895e-05
2174,33.0,43.0,0.00121867,  -906.337E-03,   64.4631E-03,       1.65531,0.0225405,0.00680839,-3.6308e-05
2175,32.0,43.0,0.00135041,  -890.298E-03,   64.4670E-03,       1.83351,0.0198255,0.00598604,-2.45733e-05
2180,31.0,43.0,0.0014862,  -873.291E-03,   64.4710E-03,       2.01696,0.0170461,0.00516261,-1.07829e-05
2181,30.0,43.0,0.0016255,  -855.427E-03,   64.4748E-03,       2.20494,0.0142128,0.00434123,5.0188e-06
2186,29.0,43.0,0.00176778,  -836.829E-03,   64.4783E-03,       2.39672,0.0113346,0.00352274,2.28084e-05
2189,28.0,43.0,0.00191246,  -817.630E-03,   64.4813E-03,       2.59155,0.00841948,0.00270586,4.23732e-05
2190,27.0,43.0,0.00205897,  -797.972E-03,   64.4836E-03,       2.78866,0.00547455,0.00188764,6.33689e-05
2195,26.0,43.0,0.00220674,  -778.004E-03,   64.4850E-03,       2.98731,0.00250626,0.00106412,8.52147e-05
2196,25.0,43.0,0.00235518,  -757.881E-03,   64.4855E-03,       3.18673,-0.000478976,0.000231004,0.00010717
2201,24.0,43.0,0.0025037,  -737.757E-03,   64.4850E-03,       3.38615,-0.00347435,-0.000615484,0.000128333
2204,23.0,43.0,0.0026517,  -717.789E-03,   64.4835E-03,       3.58480,-0.00647224,-0.00147796,0.000147747
2205,22.0,43.0,0.00279859,  -698.131E-03,   64.4813E-03,       3.78192,-0.00946386,-0.00235731,0.000164473
2210,21.0,43.0,0.00294381,  -678.931E-03,   64.4783E-03,       3.97674,-0.012439,-0.00325234,0.000177699
2211,20.0,43.0,0.00308675,  -660.331E-03,   64.4749E-03,       4.16853,-0.0153861,-0.00415969,0.000186819
2216,19.0,43.0,0.00322686,  -642.466E-03,   64.4713E-03,       4.35652,-0.018292,-0.00507394,0.000191502
2219,18.0,43.0,0.00336357,  -625.457E-03,   64.4676E-03,       4.53998,-0.0211427,-0.005988,0.000191717
2220,17.0,43.0,0.00349635,  -609.415E-03,   64.4641E-03,       4.71820,-0.023923,-0.00689359,0.00018772
2225,16.0,43.0,0.00362465,  -594.435E-03,   64.4610E-03,       4.89045,-0.0266178,-0.00778184,0.000180012
2226,15.0,43.0,0.00374797,  -580.594E-03,   64.4583E-03,       5.05607,-0.0292117,-0.00864387,0.000169269
2231,14.0,43.0,0.00386582,  -567.953E-03,   64.4563E-03,       5.21439,-0.0316904,-0.00947136,0.000156257
2234,13.0,43.0,0.00397772,  -556.554E-03,   64.4548E-03,       5.36477,-0.0340405,-0.0102569,0.00014176
2235,12.0,43.0,0.00408323,  -546.420E-03,   64.4540E-03,       5.50660,-0.0362501,-0.0109944,0.000126506
2240,11.0,43.0,0.00418193,  -537.551E-03,   64.4537E-03,       5.63931,-0.0383088,-0.011679,0.000111128
2241,10.0,43.0,0.00427342,  -529.929E-03,   64.4539E-03,       5.76237,-0.0402082,-0.0123073,9.61328e-05
2246,9.0,43.0,0.00435734,  -523.516E-03,   64.4545E-03,       5.87527,-0.0419412,-0.0128768,8.18972e-05
2249,8.0,43.0,0.00443335,  -518.254E-03,   64.4553E-03,       5.97755,-0.0435024,-0.0133864,6.86728e-05
2250,7.0,43.0,0.00450115,  -514.066E-03,   64.4563E-03,       6.06880,-0.0448876,-0.0138353,5.66005e-05
2255,6.0,43.0,0.00456047,  -510.858E-03,   64.4574E-03,       6.14866,-0.0460935,-0.0142234,4.5727e-05
2256,5.0,43.0,0.00461107,  -508.523E-03,   64.4585E-03,       6.21678,-0.0471175,-0.0145511,3.60209e-05
2261,4.0,43.0,0.00465274,  -506.936E-03,   64.4595E-03,       6.27290,-0.0479577,-0.0148185,2.73862e-05
2264,3.0,43.0,0.00468533,  -505.962E-03,   64.4603E-03,       6.31679,-0.0486127,-0.0150261,1.96738e-05
2265,2.0,43.0,0.0047087,  -505.457E-03,   64.4610E-03,       6.34827,-0.0490813,-0.0151741,1.26922e-05
2270,1.0,43.0,0.00472276,  -505.269E-03,   64.4613E-03,       6.36720,-0.0493628,-0.0152628,6.21667e-06
2271,8.371429999999999e-29,43.0,0.00472746,  -505.241E-03,   64.4615E-03,       6.37352,-0.0494567,-0.0152924,0.0
2276,-1.0,43.0,0.00472276,  -505.213E-03,   64.4613E-03,       6.36720,-0.0493628,-0.0152628,-6.21667e-06
2279,-2.0,43.0,0.0047087,  -505.025E-03,   64.4610E-03,       6.34827,-0.0490813,-0.0151741,-1.26922e-05
2280,-3.0,43.0,0.00468533,  -504.520E-03,   64.4603E-03,       6.31679,-0.0486127,-0.0150261,-1.96738e-05
2285,-4.0,43.0,0.00465274,  -503.546E-03,   64.4595E-03,       6.27290,-0.0479577,-0.0148185,-2.73862e-05
2286,-5.0,43.0,0.00461107,  -501.959E-03,   64.4585E-03,       6.21678,-0.0471175,-0.0145511,-3.60209e-05
2291,-6.0,43.0,0.00456047,  -499.623E-03,   64.4574E-03,       6.14866,-0.0460935,-0.0142234,-4.5727e-05
2294,-7.0,43.0,0.00450115,  -496.416E-03,   64.4563E-03,       6.06880,-0.0448876,-0.0138353,-5.66005e-05
2295,-8.0,43.0,0.00443335,  -492.228E-03,   64.4553E-03,       5.97755,-0.0435024,-0.0133864,-6.86728e-05
2300,-9.0,43.0,0.00435734,  -486.966E-03,   64.4545E-03,       5.87527,-0.0419412,-0.0128768,-8.18972e-05
2301,-10.0,43.0,0.00427342,  -480.553E-03,   64.4539E-03,       5.76237,-0.0402082,-0.0123073,-9.61328e-05
2306,-11.0,43.0,0.00418193,  -472.931E-03,   64.4537E-03,       5.63931,-0.0383088,-0.011679,-0.000111128
2309,-12.0,43.0,0.00408323,  -464.062E-03,   64.4540E-03,       5.50660,-0.0362501,-0.0109944,-0.000126506
2310,-13.0,43.0,0.00397772,  -453.927E-03,   64.4548E-03,       5.36477,-0.0340405,-0.0102569,-0.00014176
2315,-14.0,43.0,0.00386582,  -442.529E-03,   64.4563E-03,       5.21439,-0.0316904,-0.00947136,-0.000156257
2316,-15.0,43.0,0.00374797,  -429.888E-03,   64.4583E-03,       5.05607,-0.0292117,-0.00864387,-0.000169269
2321,-16.0,43.0,0.00362465,  -416.047E-03,   64.4610E-03,       4.89045,-0.0266178,-0.00778184,-0.000180012
2324,-17.0,43.0,0.00349635,  -401.066E-03,   64.4641E-03,       4.71820,-0.023923,-0.00689359,-0.00018772
2325,-18.0,43.0,0.00336357,  -385.024E-03,   64.4676E-03,       4.53998,-0.0211427,-0.005988,-0.000191717
2330,-19.0,43.0,0.00322686,  -368.016E-03,   64.4713E-03,       4.35652,-0.018292,-0.00507394,-0.000191502
2331,-20.0,43.0,0.00308675,  -350.151E-03,   64.4749E-03,       4.16853,-0.0153861,-0.00415969,-0.000186819
2336,-21.0,43.0,0.00294381,  -331.551E-03,   64.4783E-03,       3.97674,-0.012439,-0.00325234,-0.000177699
2339,-22.0,43.0,0.00279859,  -312.351E-03,   64.4813E-03,       3.78192,-0.00946386,-0.00235731,-0.000164473
2340,-23.0,43.0,0.0026517,  -292.693E-03,   64.4835E-03,       3.58480,-0.00647224,-0.00147796,-0.000147747
2345,-24.0,43.0,0.0025037,  -272.725E-03,   64.4850E-03,       3.38615,-0.00347435,-0.000615484,-0.000128333
2346,-25.0,43.0,0.00235518,  -252.601E-03,   64.4855E-03,       3.18673,-0.000478976,0.000231004,-0.00010717
2351,-26.0,43.0,0.00220674,  -232.478E-03,   64.4850E-03,       2.98731,0.00250626,0.00106412,-8.52147e-05
2354,-27.0,43.0,0.00205897,  -212.510E-03,   64.4836E-03,       2.78866,0.00547455,0.00188764,-6.33689e-05
2355,-28.0,43.0,0.00191246,  -192.852E-03,   64.4813E-03,       2.59155,0.00841948,0.00270586,-4.23732e-05
2360,-29.0,43.0,0.00176778,  -173.653E-03,   64.4783E-03,       2.39672,0.0113346,0.00352274,-2.28084e-05
2361,-30.0,43.0,0.0016255,  -155.055E-03,   64.4748E-03,       2.20494,0.0142128,0.00434123,-5.0188e-06
2366,-31.0,43.0,0.0014862,  -137.191E-03,   64.4710E-03,       2.01696,0.0170461,0.00516261,1.07829e-05
2369,-32.0,43.0,0.00135041,  -120.184E-03,   64.4670E-03,       1.83351,0.0198255,0.00598604,2.45733e-05
2370,-33.0,43.0,0.00121867,  -104.145E-03,   64.4631E-03,       1.65531,0.0225405,0.00680839,3.6308e-05
2375,-34.0,43.0,0.0010915,  -89.1670E-03,   64.4595E-03,       1.48306,0.0251792,0.00762431,4.59895e-05
2376,-35.0,43.0,0.000969393,  -75.3297E-03,   64.4562E-03,       1.31747,0.0277291,0.00842657,5.33884e-05
2381,-36.0,43.0,0.000852818,  -62.6934E-03,   64.4535E-03,       1.15918,0.0301767,0.00920675,5.81457e-05
2384,-37.0,43.0,0.000742226,  -51.2998E-03,   64.4514E-03,       1.00883,0.0325084,0.00995593,5.95574e-05
2385,-38.0,43.0,0.0006380369999999999,  -41.1707E-03,   64.4500E-03,   867.039E-03,0.034711,0.0106659,5.67383e-05
2390,-39.0,43.0,0.000540643,  -32.3075E-03,   64.4493E-03,   734.366E-03,0.0367721,0.01133,4.87827e-05
2391,-40.0,43.0,0.00045040699999999994,  -24.6914E-03,   64.4494E-03,   611.351E-03,0.0386812,0.0119445,3.5097e-05
2396,-41.0,43.0,0.000367655,  -18.2831E-03,   64.4504E-03,   498.486E-03,0.040429,0.0125091,1.62828e-05
2399,-42.0,43.0,0.000292686,  -13.0242E-03,   64.4522E-03,   396.225E-03,0.0420106,0.013027,-4.90859e-06
2400,-43.0,43.0,0.000225761,  -8.83781E-03,   64.4548E-03,   304.974E-03,0.0434219,0.0135034,-2.30351e-05
2405,-44.0,43.0,0.000167112,  -5.63016E-03,   64.4581E-03,   225.099E-03,0.0446668,0.0139426,-2.74485e-05
2406,-45.0,43.0,0.000116944,  -3.29217E-03,   64.4617E-03,   156.921E-03,0.0457491,0.0143358,-9.64218e-06
2411,-46.0,43.0,7.54419e-05,  -1.70186E-03,   64.4653E-03,   100.726E-03,0.0466711,0.0146637,3.40456e-05
2414,-47.0,43.0,4.2788100000000005e-05,  -725.166E-06,   64.4682E-03,   56.7612E-03,0.0474155,0.0148856,8.74137e-05
2415,-48.0,43.0,1.91778e-05,  -218.704E-06,   64.4703E-03,   25.2399E-03,0.0479099,0.0149671,0.000113013
2420,-49.0,43.0,4.82863e-06,  -29.6520E-06,   64.4713E-03,   6.30526E-03,0.0480136,0.0149051,8.18018e-05
2421,-50.0,43.0,0.0,  -26.1763E-42,   64.4716E-03,            0.,0.0479445,0.0148382,4.93719e-05
2426,50.0,42.0,0.0,      -1.01048,   64.4665E-03,           -0.,0.0478752,0.0146976,-8.69075e-06
2429,49.0,42.0,4.815019999999999e-06,      -1.01045,   64.4663E-03,   6.28471E-03,0.0479703,0.014762,-2.00942e-05
2430,48.0,42.0,1.91383e-05,      -1.01027,   64.4656E-03,   25.1578E-03,0.0479442,0.014836,-3.48223e-05
2435,47.0,42.0,4.27408e-05,      -1.00977,   64.4644E-03,   56.6023E-03,0.0475443,0.0147897,-2.76526e-05
2436,46.0,42.0,7.540220000000001e-05,      -1.00879,   64.4624E-03,   100.491E-03,0.0468712,0.0146222,-1.50447e-06
2441,45.0,42.0,0.00011692,      -1.00721,   64.4599E-03,   156.631E-03,0.0459864,0.0143488,2.6026e-05
2444,44.0,42.0,0.00016709,      -1.00488,   64.4571E-03,   224.774E-03,0.0449212,0.0139932,3.9557e-05
2445,43.0,42.0,0.00022570900000000002,      -1.00167,   64.4544E-03,   304.632E-03,0.0436846,0.013579,3.50595e-05
2450,42.0,42.0,0.000292554,  -997.490E-03,   64.4521E-03,   395.876E-03,0.0422777,0.0131166,1.69308e-05
2451,41.0,42.0,0.000367381,  -992.235E-03,   64.4504E-03,   498.137E-03,0.0407014,0.0126107,-8.73135e-06
2456,40.0,42.0,0.00044991800000000005,  -985.830E-03,   64.4494E-03,   611.002E-03,0.0389574,0.01206,-3.57104e-05
2459,39.0,42.0,0.000539865,  -978.217E-03,   64.4492E-03,   734.021E-03,0.0370515,0.0114632,-6.02383e-05
2460,38.0,42.0,0.000636889,  -969.356E-03,   64.4497E-03,   866.697E-03,0.0349908,0.01082,-8.01151e-05
2465,37.0,42.0,0.0007406310000000001,  -959.230E-03,   64.4509E-03,       1.00850,0.0327856,0.0101327,-9.43373e-05
2466,36.0,42.0,0.000850697,  -947.839E-03,   64.4527E-03,       1.15885,0.0304472,0.00940542,-0.00010257
2471,35.0,42.0,0.000966672,  -935.204E-03,   64.4551E-03,       1.31715,0.0279885,0.00864401,-0.000104728
2474,34.0,42.0,0.00108811,  -921.367E-03,   64.4580E-03,       1.48276,0.0254226,0.00785493,-0.000100804
2475,33.0,42.0,0.00121454,  -906.388E-03,   64.4611E-03,       1.65502,0.0227631,0.0070447,-9.08713e-05
2480,32.0,42.0,0.00134548,  -890.347E-03,   64.4645E-03,       1.83324,0.0200231,0.00621905,-7.50519e-05
2481,31.0,42.0,0.00148041,  -873.337E-03,   64.4680E-03,       2.01672,0.0172151,0.00538252,-5.37127e-05
2486,30.0,42.0,0.0016188,  -855.468E-03,   64.4712E-03,       2.20474,0.0143506,0.00453812,-2.74411e-05
2489,29.0,42.0,0.00176012,  -836.864E-03,   64.4742E-03,       2.39655,0.0114402,0.00368727,2.79555e-06
2490,28.0,42.0,0.0019038,  -817.657E-03,   64.4768E-03,       2.59142,0.00849333,0.00282996,3.5736e-05
2495,27.0,42.0,0.00204929,  -797.991E-03,   64.4787E-03,       2.78858,0.00551856,0.0019651,6.97951e-05
2496,26.0,42.0,0.002196,  -778.015E-03,   64.4799E-03,       2.98727,0.00252394,0.00109101,0.000103224
2501,25.0,42.0,0.00234335,  -757.882E-03,   64.4802E-03,       3.18673,-0.000482763,0.000206005,0.000134197
2504,24.0,42.0,0.00249076,  -737.750E-03,   64.4798E-03,       3.38620,-0.00349367,-0.000691058,0.000161009
2505,23.0,42.0,0.00263766,  -717.773E-03,   64.4786E-03,       3.58489,-0.00650042,-0.00160027,0.000182206
2510,22.0,42.0,0.00278344,  -698.106E-03,   64.4767E-03,       3.78206,-0.00949389,-0.00252029,0.000196742
2511,21.0,42.0,0.00292754,  -678.898E-03,   64.4743E-03,       3.97693,-0.012464,-0.00344819,0.000204069
2516,20.0,42.0,0.00306938,  -660.293E-03,   64.4714E-03,       4.16875,-0.0153995,-0.00437942,0.000204188
2519,19.0,42.0,0.00320839,  -642.422E-03,   64.4683E-03,       4.35677,-0.0182883,-0.00530797,0.000197623
2520,18.0,42.0,0.00334403,  -625.410E-03,   64.4651E-03,       4.54026,-0.0211171,-0.0062268,0.000185352
2525,17.0,42.0,0.00347576,  -609.366E-03,   64.4621E-03,       4.71850,-0.0238722,-0.00712816,0.000168677
2526,16.0,42.0,0.00360304,  -594.384E-03,   64.4594E-03,       4.89078,-0.0265397,-0.0080042,0.000149074
2531,15.0,42.0,0.00372538,  -580.543E-03,   64.4570E-03,       5.05642,-0.0291055,-0.00884734,0.000128032
2534,14.0,42.0,0.00384228,  -567.903E-03,   64.4551E-03,       5.21474,-0.0315565,-0.00965072,0.000106914
2535,13.0,42.0,0.00395328,  -556.507E-03,   64.4538E-03,       5.36513,-0.0338801,-0.0104085,8.68446e-05
2540,12.0,42.0,0.00405793,  -546.375E-03,   64.4529E-03,       5.50697,-0.0360652,-0.011116,6.8649e-05
2541,11.0,42.0,0.00415583,  -537.509E-03,   64.4526E-03,       5.63968,-0.038102,-0.0117698,5.2835e-05
2546,10.0,42.0,0.00424658,  -529.891E-03,   64.4526E-03,       5.76274,-0.0399822,-0.0123676,3.96151e-05
2549,9.0,42.0,0.00432981,  -523.481E-03,   64.4531E-03,       5.87564,-0.0416989,-0.0129078,2.8958e-05
2550,8.0,42.0,0.0044052,  -518.223E-03,   64.4538E-03,       5.97792,-0.0432466,-0.01339,2.06552e-05
2555,7.0,42.0,0.00447244,  -514.039E-03,   64.4547E-03,       6.06917,-0.0446206,-0.0138141,1.43901e-05
2556,6.0,42.0,0.00453127,  -510.836E-03,   64.4556E-03,       6.14902,-0.0458176,-0.0141804,9.79983e-06
2561,5.0,42.0,0.00458145,  -508.504E-03,   64.4566E-03,       6.21714,-0.0468346,-0.0144893,6.52278e-06
2564,4.0,42.0,0.00462279,  -506.921E-03,   64.4575E-03,       6.27326,-0.0476695,-0.0147412,4.22969e-06
2565,3.0,42.0,0.00465511,  -505.951E-03,   64.4583E-03,       6.31715,-0.0483206,-0.0149367,2.63955e-06
2570,2.0,42.0,0.00467829,  -505.450E-03,   64.4589E-03,       6.34862,-0.0487866,-0.0150761,1.52249e-06
2571,1.0,42.0,0.00469223,  -505.266E-03,   64.4592E-03,       6.36756,-0.0490666,-0.0151596,6.93482e-07
2576,-1.68454e-29,42.0,0.00469688,  -505.241E-03,   64.4593E-03,       6.37388,-0.0491599,-0.0151874,-2.84217e-14
2579,-1.0,42.0,0.00469223,  -505.216E-03,   64.4592E-03,       6.36756,-0.0490666,-0.0151596,-6.93482e-07
2580,-2.0,42.0,0.00467829,  -505.032E-03,   64.4589E-03,       6.34862,-0.0487866,-0.0150761,-1.52249e-06
2585,-3.0,42.0,0.00465511,  -504.531E-03,   64.4583E-03,       6.31715,-0.0483206,-0.0149367,-2.63955e-06
2586,-4.0,42.0,0.00462279,  -503.561E-03,   64.4575E-03,       6.27326,-0.0476695,-0.0147412,-4.22969e-06
2591,-5.0,42.0,0.00458145,  -501.978E-03,   64.4566E-03,       6.21714,-0.0468346,-0.0144893,-6.52278e-06
2594,-6.0,42.0,0.00453127,  -499.646E-03,   64.4556E-03,       6.14902,-0.0458176,-0.0141804,-9.79983e-06
2595,-7.0,42.0,0.00447244,  -496.443E-03,   64.4547E-03,       6.06917,-0.0446206,-0.0138141,-1.43901e-05
2600,-8.0,42.0,0.0044052,  -492.259E-03,   64.4538E-03,       5.97792,-0.0432466,-0.01339,-2.06552e-05
2601,-9.0,42.0,0.00432981,  -487.000E-03,   64.4531E-03,       5.87564,-0.0416989,-0.0129078,-2.8958e-05
2606,-10.0,42.0,0.00424658,  -480.591E-03,   64.4526E-03,       5.76274,-0.0399822,-0.0123676,-3.96151e-05
2609,-11.0,42.0,0.00415583,  -472.973E-03,   64.4526E-03,       5.63968,-0.038102,-0.0117698,-5.2835e-05
2610,-12.0,42.0,0.00405793,  -464.107E-03,   64.4529E-03,       5.50697,-0.0360652,-0.011116,-6.8649e-05
2615,-13.0,42.0,0.00395328,  -453.975E-03,   64.4538E-03,       5.36513,-0.0338801,-0.0104085,-8.68446e-05
2616,-14.0,42.0,0.00384228,  -442.578E-03,   64.4551E-03,       5.21474,-0.0315565,-0.00965072,-0.000106914
2621,-15.0,42.0,0.00372538,  -429.939E-03,   64.4570E-03,       5.05642,-0.0291055,-0.00884734,-0.000128032
2624,-16.0,42.0,0.00360304,  -416.098E-03,   64.4594E-03,       4.89078,-0.0265397,-0.0080042,-0.000149074
2625,-17.0,42.0,0.00347576,  -401.116E-03,   64.4621E-03,       4.71850,-0.0238722,-0.00712816,-0.000168677
2630,-18.0,42.0,0.00334403,  -385.072E-03,   64.4651E-03,       4.54026,-0.0211171,-0.0062268,-0.000185352
2631,-19.0,42.0,0.00320839,  -368.059E-03,   64.4683E-03,       4.35677,-0.0182883,-0.00530797,-0.000197623
2636,-20.0,42.0,0.00306938,  -350.189E-03,   64.4714E-03,       4.16875,-0.0153995,-0.00437942,-0.000204188
2639,-21.0,42.0,0.00292754,  -331.583E-03,   64.4743E-03,       3.97693,-0.012464,-0.00344819,-0.000204069
2640,-22.0,42.0,0.00278344,  -312.376E-03,   64.4767E-03,       3.78206,-0.00949389,-0.00252029,-0.000196742
2645,-23.0,42.0,0.00263766,  -292.709E-03,   64.4786E-03,       3.58489,-0.00650042,-0.00160027,-0.000182206
2646,-24.0,42.0,0.00249076,  -272.732E-03,   64.4798E-03,       3.38620,-0.00349367,-0.000691058,-0.000161009
2651,-25.0,42.0,0.00234335,  -252.600E-03,   64.4802E-03,       3.18673,-0.000482763,0.000206005,-0.000134197
2654,-26.0,42.0,0.002196,  -232.467E-03,   64.4799E-03,       2.98727,0.00252394,0.00109101,-0.000103224
2655,-27.0,42.0,0.00204929,  -212.491E-03,   64.4787E-03,       2.78858,0.00551856,0.0019651,-6.97951e-05
2660,-28.0,42.0,0.0019038,  -192.825E-03,   64.4768E-03,       2.59142,0.00849333,0.00282996,-3.5736e-05
2661,-29.0,42.0,0.00176012,  -173.618E-03,   64.4742E-03,       2.39655,0.0114402,0.00368727,-2.79555e-06
2666,-30.0,42.0,0.0016188,  -155.013E-03,   64.4712E-03,       2.20474,0.0143506,0.00453812,2.74411e-05
2669,-31.0,42.0,0.00148041,  -137.145E-03,   64.4680E-03,       2.01672,0.0172151,0.00538252,5.37127e-05
2670,-32.0,42.0,0.00134548,  -120.135E-03,   64.4645E-03,       1.83324,0.0200231,0.00621905,7.50519e-05
2675,-33.0,42.0,0.00121454,  -104.093E-03,   64.4611E-03,       1.65502,0.0227631,0.0070447,9.08713e-05
2676,-34.0,42.0,0.00108811,  -89.1149E-03,   64.4580E-03,       1.48276,0.0254226,0.00785493,0.000100804
2681,-35.0,42.0,0.000966672,  -75.2780E-03,   64.4551E-03,       1.31715,0.0279885,0.00864401,0.000104728
2684,-36.0,42.0,0.000850697,  -62.6432E-03,   64.4527E-03,       1.15885,0.0304472,0.00940542,0.00010257
2685,-37.0,42.0,0.0007406310000000001,  -51.2517E-03,   64.4509E-03,       1.00850,0.0327856,0.0101327,9.43373e-05
2690,-38.0,42.0,0.000636889,  -41.1253E-03,   64.4497E-03,   866.697E-03,0.0349908,0.01082,8.01151e-05
2691,-39.0,42.0,0.000539865,  -32.2652E-03,   64.4492E-03,   734.021E-03,0.0370515,0.0114632,6.02383e-05
2696,-40.0,42.0,0.00044991800000000005,  -24.6522E-03,   64.4494E-03,   611.002E-03,0.0389574,0.01206,3.57104e-05
2699,-41.0,42.0,0.000367381,  -18.2472E-03,   64.4504E-03,   498.137E-03,0.0407014,0.0126107,8.73135e-06
2700,-42.0,42.0,0.000292554,  -12.9916E-03,   64.4521E-03,   395.876E-03,0.0422777,0.0131166,-1.69308e-05
2705,-43.0,42.0,0.00022570900000000002,  -8.80892E-03,   64.4544E-03,   304.632E-03,0.0436846,0.013579,-3.50595e-05
2706,-44.0,42.0,0.00016709,  -5.60528E-03,   64.4571E-03,   224.774E-03,0.0449212,0.0139932,-3.95569e-05
2711,-45.0,42.0,0.00011692,  -3.27216E-03,   64.4599E-03,   156.631E-03,0.0459864,0.0143488,-2.6026e-05
2714,-46.0,42.0,7.540220000000001e-05,  -1.68690E-03,   64.4624E-03,   100.491E-03,0.0468712,0.0146222,1.50447e-06
2715,-47.0,42.0,4.27408e-05,  -715.637E-06,   64.4644E-03,   56.6023E-03,0.0475443,0.0147897,2.76526e-05
2720,-48.0,42.0,1.91383e-05,  -213.372E-06,   64.4656E-03,   25.1578E-03,0.0479442,0.014836,3.48223e-05
2721,-49.0,42.0,4.815019999999999e-06,  -27.5574E-06,   64.4663E-03,   6.28471E-03,0.0479703,0.014762,2.00942e-05
2726,-50.0,42.0,0.0,  -21.3950E-42,   64.4665E-03,           -0.,0.0478752,0.0146976,8.69075e-06
2729,50.0,41.0,0.0,      -1.01048,   64.4627E-03,           -0.,0.0478941,0.0146172,1.17771e-05
2730,49.0,41.0,4.7901900000000005e-06,      -1.01046,   64.4625E-03,   6.27689E-03,0.0479705,0.0146616,1.54772e-05
2735,48.0,41.0,1.90581e-05,      -1.01027,   64.4621E-03,   25.1258E-03,0.0479429,0.0147058,1.52405e-05
2736,47.0,41.0,4.25949e-05,      -1.00977,   64.4612E-03,   56.5250E-03,0.0475834,0.0146561,1.43683e-05
2741,46.0,41.0,7.519449999999999e-05,      -1.00880,   64.4599E-03,   100.367E-03,0.0469501,0.0145031,2.49317e-05
2744,45.0,41.0,0.00011664700000000001,      -1.00722,   64.4582E-03,   156.465E-03,0.0460926,0.014253,3.92458e-05
2745,44.0,41.0,0.00016674299999999999,      -1.00489,   64.4562E-03,   224.578E-03,0.0450408,0.0139209,4.7689e-05
2750,43.0,41.0,0.00022526099999999998,      -1.00169,   64.4541E-03,   304.417E-03,0.0438108,0.0135226,4.40474e-05
2751,42.0,41.0,0.000291968,  -997.512E-03,   64.4522E-03,   395.650E-03,0.0424087,0.0130718,2.82012e-05
2756,41.0,41.0,0.000366609,  -992.259E-03,   64.4508E-03,   497.903E-03,0.0408377,0.012575,3.69936e-06
2759,40.0,41.0,0.000448904,  -985.857E-03,   64.4499E-03,   610.764E-03,0.0391009,0.0120354,-2.50773e-05
2760,39.0,41.0,0.000538546,  -978.247E-03,   64.4496E-03,   733.776E-03,0.037203,0.011453,-5.40467e-05
2765,38.0,41.0,0.0006352,  -969.390E-03,   64.4500E-03,   866.446E-03,0.0351508,0.0108285,-8.02506e-05
2766,37.0,41.0,0.000738504,  -959.267E-03,   64.4510E-03,       1.00824,0.032953,0.0101627,-0.000101663
2771,36.0,41.0,0.000848068,  -947.879E-03,   64.4526E-03,       1.15858,0.0306201,0.00945832,-0.000116914
2774,35.0,41.0,0.000963474,  -935.247E-03,   64.4546E-03,       1.31688,0.0281637,0.00871877,-0.000125108
2775,34.0,41.0,0.00108428,  -921.412E-03,   64.4570E-03,       1.48249,0.0255963,0.00794842,-0.000125641
2780,33.0,41.0,0.00121002,  -906.434E-03,   64.4597E-03,       1.65475,0.0229309,0.00715166,-0.000118193
2781,32.0,41.0,0.00134021,  -890.393E-03,   64.4626E-03,       1.83299,0.0201805,0.00633272,-0.000102794
2786,31.0,41.0,0.00147435,  -873.381E-03,   64.4654E-03,       2.01649,0.0173578,0.00549507,-7.98636e-05
2789,30.0,41.0,0.0016119,  -855.509E-03,   64.4681E-03,       2.20453,0.0144749,0.00464142,-5.03338e-05
2790,29.0,41.0,0.00175233,  -836.899E-03,   64.4706E-03,       2.39637,0.0115432,0.00377355,-1.56109e-05
2795,28.0,41.0,0.0018951,  -817.685E-03,   64.4726E-03,       2.59128,0.00857359,0.00289254,2.24098e-05
2796,27.0,41.0,0.00203963,  -798.011E-03,   64.4742E-03,       2.78848,0.0055761,0.00199894,6.1504e-05
2801,26.0,41.0,0.00218536,  -778.026E-03,   64.4751E-03,       2.98723,0.00256034,0.00109318,9.92474e-05
2804,25.0,41.0,0.00233171,  -757.884E-03,   64.4755E-03,       3.18674,-0.000464425,0.000175911,0.000133259
2805,24.0,41.0,0.00247812,  -737.741E-03,   64.4751E-03,       3.38625,-0.00348899,-0.000751629,0.000161398
2810,23.0,41.0,0.00262398,  -717.755E-03,   64.4742E-03,       3.58500,-0.00650401,-0.00168733,0.000181991
2811,22.0,41.0,0.00276874,  -698.080E-03,   64.4726E-03,       3.78221,-0.00949978,-0.00262802,0.00019398
2816,21.0,41.0,0.00291181,  -678.866E-03,   64.4706E-03,       3.97711,-0.012466,-0.00356945,0.000197024
2819,20.0,41.0,0.00305263,  -660.255E-03,   64.4683E-03,       4.16897,-0.015392,-0.00450632,0.00019151
2820,19.0,41.0,0.00319064,  -642.381E-03,   64.4658E-03,       4.35702,-0.0182661,-0.00543255,0.000178484
2825,18.0,41.0,0.00332529,  -625.366E-03,   64.4632E-03,       4.54053,-0.0210763,-0.00634151,0.000159508
2826,17.0,41.0,0.00345605,  -609.321E-03,   64.4606E-03,       4.71878,-0.0238101,-0.00722642,0.000136468
2831,16.0,41.0,0.00358239,  -594.340E-03,   64.4583E-03,       4.89107,-0.0264549,-0.00808065,0.00011136
2834,15.0,41.0,0.00370382,  -580.501E-03,   64.4562E-03,       5.05670,-0.0289982,-0.00889811,8.60808e-05
2835,14.0,41.0,0.00381985,  -567.864E-03,   64.4546E-03,       5.21503,-0.0314277,-0.00967345,6.22559e-05
2840,13.0,41.0,0.00393002,  -556.471E-03,   64.4533E-03,       5.36541,-0.033732,-0.0104022,4.11189e-05
2841,12.0,41.0,0.00403389,  -546.343E-03,   64.4525E-03,       5.50724,-0.0359006,-0.011081,2.34557e-05
2846,11.0,41.0,0.00413105,  -537.480E-03,   64.4521E-03,       5.63994,-0.0379241,-0.0117074,9.60907e-06
2849,10.0,41.0,0.0042211,  -529.866E-03,   64.4521E-03,       5.76299,-0.039794,-0.0122796,-4.66029e-07
2850,9.0,41.0,0.0043037,  -523.460E-03,   64.4524E-03,       5.87588,-0.0415035,-0.0127969,-7.11289e-06
2855,8.0,41.0,0.00437852,  -518.205E-03,   64.4530E-03,       5.97815,-0.0430464,-0.013259,-1.08676e-05
2856,7.0,41.0,0.00444525,  -514.024E-03,   64.4537E-03,       6.06939,-0.0444178,-0.0136657,-1.23553e-05
2861,6.0,41.0,0.00450363,  -510.823E-03,   64.4546E-03,       6.14924,-0.0456138,-0.0140174,-1.22007e-05
2862,5.0,41.0,0.00455343,  -508.494E-03,   64.4554E-03,       6.21735,-0.0466308,-0.0143144,-1.09614e-05
2867,4.0,41.0,0.00459445,  -506.913E-03,   64.4563E-03,       6.27347,-0.0474664,-0.0145569,-9.08646e-06
2868,3.0,41.0,0.00462652,  -505.945E-03,   64.4570E-03,       6.31735,-0.0481184,-0.0147453,-6.89971e-06
2873,2.0,41.0,0.00464952,  -505.446E-03,   64.4575E-03,       6.34882,-0.0485852,-0.0148797,-4.6029e-06
2876,1.0,41.0,0.00466336,  -505.264E-03,   64.4578E-03,       6.36775,-0.0488657,-0.0149603,-2.29471e-06
2877,2.2958e-29,41.0,0.00466797,  -505.241E-03,   64.4580E-03,       6.37407,-0.0489593,-0.0149871,-5.68434e-14
2882,-1.0,41.0,0.00466336,  -505.218E-03,   64.4578E-03,       6.36775,-0.0488657,-0.0149603,2.29471e-06
2883,-2.0,41.0,0.00464952,  -505.036E-03,   64.4575E-03,       6.34882,-0.0485852,-0.0148797,4.6029e-06
2888,-3.0,41.0,0.00462652,  -504.537E-03,   64.4570E-03,       6.31735,-0.0481184,-0.0147453,6.89971e-06
2891,-4.0,41.0,0.00459445,  -503.569E-03,   64.4563E-03,       6.27347,-0.0474664,-0.0145569,9.08646e-06
2892,-5.0,41.0,0.00455343,  -501.988E-03,   64.4554E-03,       6.21735,-0.0466308,-0.0143144,1.09614e-05
2897,-6.0,41.0,0.00450363,  -499.659E-03,   64.4546E-03,       6.14924,-0.0456138,-0.0140174,1.22007e-05
2898,-7.0,41.0,0.00444525,  -496.458E-03,   64.4537E-03,       6.06939,-0.0444178,-0.0136657,1.23553e-05
2903,-8.0,41.0,0.00437852,  -492.277E-03,   64.4530E-03,       5.97815,-0.0430464,-0.013259,1.08676e-05
2906,-9.0,41.0,0.0043037,  -487.022E-03,   64.4524E-03,       5.87588,-0.0415035,-0.0127969,7.11289e-06
2907,-10.0,41.0,0.0042211,  -480.616E-03,   64.4521E-03,       5.76299,-0.039794,-0.0122796,4.66028e-07
2912,-11.0,41.0,0.00413105,  -473.001E-03,   64.4521E-03,       5.63994,-0.0379241,-0.0117074,-9.60907e-06
2913,-12.0,41.0,0.00403389,  -464.139E-03,   64.4525E-03,       5.50724,-0.0359006,-0.011081,-2.34557e-05
2918,-13.0,41.0,0.00393002,  -454.011E-03,   64.4533E-03,       5.36541,-0.033732,-0.0104022,-4.11189e-05
2921,-14.0,41.0,0.00381985,  -442.617E-03,   64.4546E-03,       5.21503,-0.0314277,-0.00967345,-6.22559e-05
2922,-15.0,41.0,0.00370382,  -429.981E-03,   64.4562E-03,       5.05670,-0.0289982,-0.00889811,-8.60808e-05
2927,-16.0,41.0,0.00358239,  -416.142E-03,   64.4583E-03,       4.89107,-0.0264549,-0.00808065,-0.00011136
2928,-17.0,41.0,0.00345605,  -401.160E-03,   64.4606E-03,       4.71878,-0.0238101,-0.00722642,-0.000136468
2933,-18.0,41.0,0.00332529,  -385.116E-03,   64.4632E-03,       4.54053,-0.0210763,-0.00634151,-0.000159508
2936,-19.0,41.0,0.00319064,  -368.101E-03,   64.4658E-03,       4.35702,-0.0182661,-0.00543255,-0.000178484
2937,-20.0,41.0,0.00305263,  -350.227E-03,   64.4683E-03,       4.16897,-0.015392,-0.00450632,-0.00019151
2942,-21.0,41.0,0.00291181,  -331.616E-03,   64.4706E-03,       3.97711,-0.012466,-0.00356945,-0.000197024
2943,-22.0,41.0,0.00276874,  -312.401E-03,   64.4726E-03,       3.78221,-0.00949978,-0.00262802,-0.00019398
2948,-23.0,41.0,0.00262398,  -292.726E-03,   64.4742E-03,       3.58500,-0.00650401,-0.00168733,-0.000181991
2951,-24.0,41.0,0.00247812,  -272.741E-03,   64.4751E-03,       3.38625,-0.00348899,-0.000751629,-0.000161398
2952,-25.0,41.0,0.00233171,  -252.598E-03,   64.4755E-03,       3.18674,-0.000464425,0.000175911,-0.000133259
2957,-26.0,41.0,0.00218536,  -232.456E-03,   64.4751E-03,       2.98723,0.00256034,0.00109318,-9.92474e-05
2958,-27.0,41.0,0.00203963,  -212.471E-03,   64.4742E-03,       2.78848,0.0055761,0.00199894,-6.1504e-05
2963,-28.0,41.0,0.0018951,  -192.796E-03,   64.4726E-03,       2.59128,0.00857359,0.00289254,-2.24098e-05
2966,-29.0,41.0,0.00175233,  -173.583E-03,   64.4706E-03,       2.39637,0.0115432,0.00377355,1.56109e-05
2967,-30.0,41.0,0.0016119,  -154.973E-03,   64.4681E-03,       2.20453,0.0144749,0.00464142,5.03338e-05
2972,-31.0,41.0,0.00147435,  -137.101E-03,   64.4654E-03,       2.01649,0.0173578,0.00549507,7.98636e-05
2973,-32.0,41.0,0.00134021,  -120.089E-03,   64.4626E-03,       1.83299,0.0201805,0.00633272,0.000102794
2978,-33.0,41.0,0.00121002,  -104.047E-03,   64.4597E-03,       1.65475,0.0229309,0.00715166,0.000118193
2981,-34.0,41.0,0.00108428,  -89.0700E-03,   64.4570E-03,       1.48249,0.0255963,0.00794842,0.000125641
2982,-35.0,41.0,0.000963474,  -75.2352E-03,   64.4546E-03,       1.31688,0.0281637,0.00871877,0.000125108
2987,-36.0,41.0,0.000848068,  -62.6032E-03,   64.4526E-03,       1.15858,0.0306201,0.00945832,0.000116914
2988,-37.0,41.0,0.000738504,  -51.2150E-03,   64.4510E-03,       1.00824,0.032953,0.0101627,0.000101663
2993,-38.0,41.0,0.0006352,  -41.0919E-03,   64.4500E-03,   866.446E-03,0.0351508,0.0108285,8.02506e-05
2996,-39.0,41.0,0.000538546,  -32.2350E-03,   64.4496E-03,   733.776E-03,0.037203,0.011453,5.40467e-05
2997,-40.0,41.0,0.000448904,  -24.6249E-03,   64.4499E-03,   610.764E-03,0.0391009,0.0120354,2.50773e-05
3002,-41.0,41.0,0.000366609,  -18.2226E-03,   64.4508E-03,   497.903E-03,0.0408377,0.012575,-3.69936e-06
3003,-42.0,41.0,0.000291968,  -12.9697E-03,   64.4522E-03,   395.650E-03,0.0424087,0.0130718,-2.82012e-05
3008,-43.0,41.0,0.00022526099999999998,  -8.78957E-03,   64.4541E-03,   304.417E-03,0.0438108,0.0135226,-4.40474e-05
3011,-44.0,41.0,0.00016674299999999999,  -5.58902E-03,   64.4562E-03,   224.578E-03,0.0450408,0.0139209,-4.7689e-05
3012,-45.0,41.0,0.00011664700000000001,  -3.25908E-03,   64.4582E-03,   156.465E-03,0.0460926,0.014253,-3.92458e-05
3017,-46.0,41.0,7.519449999999999e-05,  -1.67757E-03,   64.4599E-03,   100.367E-03,0.0469501,0.0145031,-2.49317e-05
3018,-47.0,41.0,4.25949e-05,  -709.447E-06,   64.4612E-03,   56.5250E-03,0.0475834,0.0146561,-1.43683e-05
3023,-48.0,41.0,1.90581e-05,  -210.020E-06,   64.4621E-03,   25.1258E-03,0.0479429,0.0147058,-1.52405e-05
3026,-49.0,41.0,4.7901900000000005e-06,  -25.9974E-06,   64.4625E-03,   6.27689E-03,0.0479705,0.0146616,-1.54772e-05
3027,-50.0,41.0,0.0,  -18.1300E-42,   64.4627E-03,           -0.,0.0478941,0.0146172,-1.17771e-05
3032,50.0,40.0,0.0,      -1.01048,   64.4598E-03,           -0.,0.0479483,0.0145717,2.1379e-05
3033,49.0,40.0,4.760119999999999e-06,      -1.01046,   64.4596E-03,   6.27828E-03,0.0479931,0.0145957,3.13656e-05
3038,48.0,40.0,1.89504e-05,      -1.01027,   64.4593E-03,   25.1206E-03,0.0479303,0.0146058,4.05239e-05
3041,47.0,40.0,4.23876e-05,      -1.00978,   64.4587E-03,   56.5033E-03,0.0475761,0.0145346,3.84289e-05
3042,46.0,40.0,7.487390000000001e-05,      -1.00881,   64.4578E-03,   100.318E-03,0.0469612,0.0143775,4.01207e-05
3047,45.0,40.0,0.000116205,      -1.00723,   64.4566E-03,   156.389E-03,0.0461192,0.0141343,4.62829e-05
3048,44.0,40.0,0.00016616599999999998,      -1.00490,   64.4552E-03,   224.480E-03,0.0450769,0.0138129,5.04318e-05
3053,43.0,40.0,0.000224529,      -1.00170,   64.4537E-03,   304.302E-03,0.0438514,0.0134253,4.75632e-05
3056,42.0,40.0,0.00029105,  -997.525E-03,   64.4523E-03,   395.524E-03,0.0424523,0.0129821,3.52533e-05
3057,41.0,40.0,0.000365466,  -992.274E-03,   64.4512E-03,   497.769E-03,0.0408853,0.0124919,1.45933e-05
3062,40.0,40.0,0.000447491,  -985.874E-03,   64.4504E-03,   610.621E-03,0.0391547,0.0119593,-1.16515e-05
3063,39.0,40.0,0.000536813,  -978.266E-03,   64.4502E-03,   733.624E-03,0.0372654,0.0113866,-4.01296e-05
3068,38.0,40.0,0.000633093,  -969.412E-03,   64.4505E-03,   866.282E-03,0.0352236,0.0107748,-6.77912e-05
3071,37.0,40.0,0.000735968,  -959.292E-03,   64.4514E-03,       1.00806,0.033037,0.0101249,-9.20887e-05
3072,36.0,40.0,0.000845045,  -947.907E-03,   64.4527E-03,       1.15839,0.0307149,0.00943832,-0.000111087
3077,35.0,40.0,0.0009599089999999999,  -935.278E-03,   64.4544E-03,       1.31668,0.0282679,0.00871701,-0.000123292
3078,34.0,40.0,0.00108012,  -921.447E-03,   64.4564E-03,       1.48228,0.0257075,0.00796343,-0.000127671
3083,33.0,40.0,0.00120521,  -906.471E-03,   64.4586E-03,       1.65454,0.0230457,0.00718043,-0.000123605
3086,32.0,40.0,0.00133471,  -890.430E-03,   64.4610E-03,       1.83278,0.0202949,0.0063707,-0.000110956
3087,31.0,40.0,0.0014681,  -873.418E-03,   64.4633E-03,       2.01629,0.0174677,0.00553687,-9.01306e-05
3092,30.0,40.0,0.00160487,  -855.543E-03,   64.4655E-03,       2.20434,0.0145763,0.00468122,-6.21082e-05
3093,29.0,40.0,0.00174448,  -836.930E-03,   64.4674E-03,       2.39622,0.0116328,0.00380579,-2.84615e-05
3098,28.0,40.0,0.00188639,  -817.710E-03,   64.4690E-03,       2.59115,0.00864879,0.00291246,8.7432e-06
3101,27.0,40.0,0.00203004,  -798.029E-03,   64.4702E-03,       2.78840,0.00563563,0.00200311,4.7059e-05
3102,26.0,40.0,0.00217487,  -778.036E-03,   64.4710E-03,       2.98719,0.00260427,0.00107984,8.38838e-05
3107,25.0,40.0,0.0023203,  -757.885E-03,   64.4712E-03,       3.18674,-0.000434621,0.000145161,0.000116676
3108,24.0,40.0,0.00246576,  -737.734E-03,   64.4710E-03,       3.38630,-0.00347056,-0.00079783,0.000143218
3113,23.0,40.0,0.00261069,  -717.740E-03,   64.4702E-03,       3.58509,-0.00649315,-0.00174537,0.000161818
3116,22.0,40.0,0.0027545,  -698.058E-03,   64.4690E-03,       3.78234,-0.00949199,-0.00269302,0.000171486
3117,21.0,40.0,0.00289662,  -678.837E-03,   64.4675E-03,       3.97729,-0.0124566,-0.00363568,0.000172014
3122,20.0,40.0,0.0030365,  -660.222E-03,   64.4656E-03,       4.16917,-0.0153762,-0.00456779,0.00016397
3123,19.0,40.0,0.00317358,  -642.345E-03,   64.4636E-03,       4.35724,-0.01824,-0.00548348,0.000148608
3128,18.0,40.0,0.00330732,  -625.330E-03,   64.4615E-03,       4.54076,-0.0210368,-0.00637683,0.000127697
3131,17.0,40.0,0.00343719,  -609.286E-03,   64.4594E-03,       4.71901,-0.0237552,-0.00724208,0.000103304
3132,16.0,40.0,0.00356266,  -594.307E-03,   64.4575E-03,       4.89130,-0.0263838,-0.00807387,7.75612e-05
3137,15.0,40.0,0.00368325,  -580.471E-03,   64.4558E-03,       5.05692,-0.0289113,-0.00886741,5.2443e-05
3138,14.0,40.0,0.00379847,  -567.837E-03,   64.4543E-03,       5.21524,-0.0313265,-0.00961862,2.95871e-05
3143,13.0,40.0,0.00390788,  -556.447E-03,   64.4532E-03,       5.36560,-0.0336188,-0.0103242,1.01772e-05
3146,12.0,40.0,0.00401102,  -546.323E-03,   64.4524E-03,       5.50741,-0.0357782,-0.0109815,-5.10568e-06
3147,11.0,40.0,0.00410749,  -537.464E-03,   64.4520E-03,       5.64010,-0.0377953,-0.0115887,-1.60656e-05
3152,10.0,40.0,0.00419692,  -529.853E-03,   64.4519E-03,       5.76313,-0.0396619,-0.0121445,-2.29209e-05
3153,9.0,40.0,0.00427894,  -523.450E-03,   64.4521E-03,       5.87601,-0.0413706,-0.0126481,-2.61975e-05
3158,8.0,40.0,0.00435322,  -518.197E-03,   64.4526E-03,       5.97827,-0.0429148,-0.013099,-2.66071e-05
3161,7.0,40.0,0.00441948,  -514.017E-03,   64.4532E-03,       6.06950,-0.0442892,-0.0134971,-2.49282e-05
3162,6.0,40.0,0.00447744,  -510.818E-03,   64.4539E-03,       6.14934,-0.0454889,-0.0138422,-2.19056e-05
3167,5.0,40.0,0.00452689,  -508.490E-03,   64.4547E-03,       6.21745,-0.0465102,-0.0141344,-1.81745e-05
3168,4.0,40.0,0.00456761,  -506.910E-03,   64.4554E-03,       6.27356,-0.0473499,-0.0143735,-1.42159e-05
3173,3.0,40.0,0.00459945,  -505.943E-03,   64.4560E-03,       6.31744,-0.0480055,-0.0145595,-1.03391e-05
3176,2.0,40.0,0.00462229,  -505.445E-03,   64.4565E-03,       6.34891,-0.0484751,-0.0146924,-6.68915e-06
3177,1.0,40.0,0.00463603,  -505.263E-03,   64.4568E-03,       6.36784,-0.0487574,-0.0147722,-3.27325e-06
3182,-4.77252e-29,40.0,0.00464062,  -505.241E-03,   64.4569E-03,       6.37416,-0.0488515,-0.0147988,-2.84217e-14
3183,-1.0,40.0,0.00463603,  -505.219E-03,   64.4568E-03,       6.36784,-0.0487574,-0.0147722,3.27325e-06
3188,-2.0,40.0,0.00462229,  -505.037E-03,   64.4565E-03,       6.34891,-0.0484751,-0.0146924,6.68915e-06
3191,-3.0,40.0,0.00459945,  -504.538E-03,   64.4560E-03,       6.31744,-0.0480055,-0.0145595,1.03391e-05
3192,-4.0,40.0,0.00456761,  -503.572E-03,   64.4554E-03,       6.27356,-0.0473499,-0.0143735,1.42159e-05
3197,-5.0,40.0,0.00452689,  -501.991E-03,   64.4547E-03,       6.21745,-0.0465102,-0.0141344,1.81745e-05
3198,-6.0,40.0,0.00447744,  -499.663E-03,   64.4539E-03,       6.14934,-0.0454889,-0.0138422,2.19056e-05
3203,-7.0,40.0,0.00441948,  -496.464E-03,   64.4532E-03,       6.06950,-0.0442892,-0.0134971,2.49282e-05
3206,-8.0,40.0,0.00435322,  -492.285E-03,   64.4526E-03,       5.97827,-0.0429148,-0.013099,2.66071e-05
3207,-9.0,40.0,0.00427894,  -487.032E-03,   64.4521E-03,       5.87601,-0.0413706,-0.0126481,2.61975e-05
3212,-10.0,40.0,0.00419692,  -480.629E-03,   64.4519E-03,       5.76313,-0.0396619,-0.0121445,2.29209e-05
3213,-11.0,40.0,0.00410749,  -473.018E-03,   64.4520E-03,       5.64010,-0.0377953,-0.0115887,1.60656e-05
3218,-12.0,40.0,0.00401102,  -464.159E-03,   64.4524E-03,       5.50741,-0.0357782,-0.0109815,5.10568e-06
3221,-13.0,40.0,0.00390788,  -454.034E-03,   64.4532E-03,       5.36560,-0.0336188,-0.0103242,-1.01772e-05
3222,-14.0,40.0,0.00379847,  -442.645E-03,   64.4543E-03,       5.21524,-0.0313265,-0.00961862,-2.95871e-05
3227,-15.0,40.0,0.00368325,  -430.011E-03,   64.4558E-03,       5.05692,-0.0289113,-0.00886741,-5.2443e-05
3228,-16.0,40.0,0.00356266,  -416.175E-03,   64.4575E-03,       4.89130,-0.0263838,-0.00807387,-7.75612e-05
3233,-17.0,40.0,0.00343719,  -401.196E-03,   64.4594E-03,       4.71901,-0.0237552,-0.00724208,-0.000103304
3236,-18.0,40.0,0.00330732,  -385.152E-03,   64.4615E-03,       4.54076,-0.0210368,-0.00637683,-0.000127697
3237,-19.0,40.0,0.00317358,  -368.137E-03,   64.4636E-03,       4.35724,-0.01824,-0.00548348,-0.000148608
3242,-20.0,40.0,0.0030365,  -350.260E-03,   64.4656E-03,       4.16917,-0.0153762,-0.00456779,-0.00016397
3243,-21.0,40.0,0.00289662,  -331.645E-03,   64.4675E-03,       3.97729,-0.0124566,-0.00363568,-0.000172014
3248,-22.0,40.0,0.0027545,  -312.424E-03,   64.4690E-03,       3.78234,-0.00949199,-0.00269302,-0.000171486
3251,-23.0,40.0,0.00261069,  -292.742E-03,   64.4702E-03,       3.58509,-0.00649315,-0.00174537,-0.000161818
3252,-24.0,40.0,0.00246576,  -272.748E-03,   64.4710E-03,       3.38630,-0.00347056,-0.00079783,-0.000143218
3257,-25.0,40.0,0.0023203,  -252.597E-03,   64.4712E-03,       3.18674,-0.000434621,0.000145161,-0.000116676
3258,-26.0,40.0,0.00217487,  -232.446E-03,   64.4710E-03,       2.98719,0.00260427,0.00107984,-8.38838e-05
3263,-27.0,40.0,0.00203004,  -212.453E-03,   64.4702E-03,       2.78840,0.00563563,0.00200311,-4.7059e-05
3266,-28.0,40.0,0.00188639,  -192.771E-03,   64.4690E-03,       2.59115,0.00864879,0.00291246,-8.7432e-06
3267,-29.0,40.0,0.00174448,  -173.552E-03,   64.4674E-03,       2.39622,0.0116328,0.00380579,2.84615e-05
3272,-30.0,40.0,0.00160487,  -154.939E-03,   64.4655E-03,       2.20434,0.0145763,0.00468122,6.21082e-05
3273,-31.0,40.0,0.0014681,  -137.064E-03,   64.4633E-03,       2.01629,0.0174677,0.00553687,9.01306e-05
3278,-32.0,40.0,0.00133471,  -120.052E-03,   64.4610E-03,       1.83278,0.0202949,0.0063707,0.000110956
3281,-33.0,40.0,0.00120521,  -104.011E-03,   64.4586E-03,       1.65454,0.0230457,0.00718043,0.000123605
3282,-34.0,40.0,0.00108012,  -89.0353E-03,   64.4564E-03,       1.48228,0.0257075,0.00796343,0.000127671
3287,-35.0,40.0,0.0009599089999999999,  -75.2034E-03,   64.4544E-03,       1.31668,0.0282679,0.00871701,0.000123292
3288,-36.0,40.0,0.000845045,  -62.5747E-03,   64.4527E-03,       1.15839,0.0307149,0.00943832,0.000111087
3293,-37.0,40.0,0.000735968,  -51.1899E-03,   64.4514E-03,       1.00806,0.033037,0.0101249,9.20887e-05
3296,-38.0,40.0,0.000633093,  -41.0700E-03,   64.4505E-03,   866.282E-03,0.0352236,0.0107748,6.77912e-05
3297,-39.0,40.0,0.000536813,  -32.2158E-03,   64.4502E-03,   733.624E-03,0.0372654,0.0113866,4.01296e-05
3302,-40.0,40.0,0.000447491,  -24.6081E-03,   64.4504E-03,   610.621E-03,0.0391547,0.0119593,1.16515e-05
3303,-41.0,40.0,0.000365466,  -18.2078E-03,   64.4512E-03,   497.769E-03,0.0408853,0.0124919,-1.45933e-05
3308,-42.0,40.0,0.00029105,  -12.9566E-03,   64.4523E-03,   395.524E-03,0.0424523,0.0129821,-3.52533e-05
3311,-43.0,40.0,0.000224529,  -8.77832E-03,   64.4537E-03,   304.302E-03,0.0438514,0.0134253,-4.75632e-05
3312,-44.0,40.0,0.00016616599999999998,  -5.57956E-03,   64.4552E-03,   224.480E-03,0.0450769,0.0138129,-5.04318e-05
3317,-45.0,40.0,0.000116205,  -3.25186E-03,   64.4566E-03,   156.389E-03,0.0461192,0.0141343,-4.62829e-05
3318,-46.0,40.0,7.487390000000001e-05,  -1.67229E-03,   64.4578E-03,   100.318E-03,0.0469612,0.0143775,-4.01207e-05
3323,-47.0,40.0,4.23876e-05,  -706.156E-06,   64.4587E-03,   56.5033E-03,0.0475761,0.0145346,-3.84289e-05
3326,-48.0,40.0,1.89504e-05,  -207.977E-06,   64.4593E-03,   25.1206E-03,0.0479303,0.0146058,-4.05239e-05
3327,-49.0,40.0,4.760119999999999e-06,  -25.0521E-06,   64.4596E-03,   6.27828E-03,0.0479931,0.0145957,-3.13656e-05
3332,-50.0,40.0,0.0,  -16.0743E-42,   64.4598E-03,           -0.,0.0479483,0.0145717,-2.1379e-05
3333,50.0,39.0,0.0,      -1.01048,   64.4575E-03,           -0.,0.0480118,0.0145516,2.19526e-05
3338,49.0,39.0,4.72612e-06,      -1.01046,   64.4573E-03,   6.28232E-03,0.0480239,0.0145586,3.50529e-05
3341,48.0,39.0,1.88279e-05,      -1.01027,   64.4570E-03,   25.1309E-03,0.0479171,0.0145372,4.83772e-05
3342,47.0,39.0,4.21406e-05,      -1.00978,   64.4566E-03,   56.5095E-03,0.0475516,0.0144442,4.74338e-05
3347,46.0,39.0,7.44817e-05,      -1.00881,   64.4560E-03,   100.314E-03,0.0469408,0.0142758,4.58625e-05
3348,45.0,39.0,0.00011565,      -1.00723,   64.4552E-03,   156.370E-03,0.0461063,0.0140314,4.69541e-05
3353,44.0,39.0,0.000165432,      -1.00491,   64.4543E-03,   224.446E-03,0.0450695,0.0137144,4.84992e-05
3356,43.0,39.0,0.00022359599999999998,      -1.00171,   64.4532E-03,   304.256E-03,0.0438467,0.0133325,4.6083e-05
3357,42.0,39.0,0.000289894,  -997.532E-03,   64.4522E-03,   395.468E-03,0.0424491,0.0128948,3.72419e-05
3362,41.0,39.0,0.000364054,  -992.282E-03,   64.4514E-03,   497.704E-03,0.0408842,0.0124087,2.12777e-05
3363,40.0,39.0,0.000445786,  -985.883E-03,   64.4509E-03,   610.548E-03,0.0391577,0.0118803,-3.49955e-07
3368,39.0,39.0,0.000534774,  -978.277E-03,   64.4507E-03,   733.541E-03,0.0372751,0.0113127,-2.5349e-05
3371,38.0,39.0,0.000630674,  -969.425E-03,   64.4510E-03,   866.187E-03,0.0352423,0.0107082,-5.09828e-05
3372,37.0,39.0,0.000733122,  -959.308E-03,   64.4517E-03,       1.00795,0.0330665,0.0100676,-7.47671e-05
3377,36.0,39.0,0.0008417260000000001,  -947.926E-03,   64.4528E-03,       1.15827,0.0307561,0.00939222,-9.44904e-05
3378,35.0,39.0,0.000956068,  -935.300E-03,   64.4543E-03,       1.31654,0.0283207,0.00868292,-0.000108436
3383,34.0,39.0,0.00107571,  -921.471E-03,   64.4559E-03,       1.48213,0.0257705,0.00794115,-0.000115296
3386,33.0,39.0,0.00120019,  -906.498E-03,   64.4577E-03,       1.65438,0.0231169,0.00716839,-0.000114282
3387,32.0,39.0,0.00132903,  -890.459E-03,   64.4596E-03,       1.83262,0.0203714,0.00636642,-0.000105121
3392,31.0,39.0,0.00146172,  -873.446E-03,   64.4615E-03,       2.01613,0.017546,0.00553709,-8.81233e-05
3393,30.0,39.0,0.00159776,  -855.571E-03,   64.4632E-03,       2.20420,0.014653,0.00468241,-6.41972e-05
3398,29.0,39.0,0.00173661,  -836.954E-03,   64.4647E-03,       2.39609,0.0117045,0.00380454,-3.48213e-05
3401,28.0,39.0,0.00187773,  -817.731E-03,   64.4659E-03,       2.59105,0.00871275,0.00290597,-1.96937e-06
3402,27.0,39.0,0.00202056,  -798.044E-03,   64.4668E-03,       2.78833,0.00568994,0.00198952,3.20471e-05
3407,26.0,39.0,0.00216455,  -778.044E-03,   64.4674E-03,       2.98715,0.00264804,0.00105848,6.47642e-05
3408,25.0,39.0,0.00230913,  -757.886E-03,   64.4676E-03,       3.18675,-0.000401128,0.00011667,9.38054e-05
3413,24.0,39.0,0.00245372,  -737.728E-03,   64.4674E-03,       3.38635,-0.00344599,-0.000831565,0.000117103
3416,23.0,39.0,0.00259777,  -717.727E-03,   64.4668E-03,       3.58517,-0.00647521,-0.00178141,0.000133109
3417,22.0,39.0,0.00274071,  -698.039E-03,   64.4659E-03,       3.78246,-0.00947771,-0.00272767,0.000140941
3422,21.0,39.0,0.00288196,  -678.814E-03,   64.4647E-03,       3.97743,-0.0124426,-0.00366489,0.000140458
3423,20.0,39.0,0.00302097,  -660.196E-03,   64.4633E-03,       4.16933,-0.0153593,-0.00458756,0.000132245
3428,19.0,39.0,0.00315719,  -642.318E-03,   64.4617E-03,       4.35741,-0.0182171,-0.00549024,0.000117523
3431,18.0,39.0,0.00329008,  -625.303E-03,   64.4601E-03,       4.54094,-0.0210056,-0.00636775,9.79831e-05
3432,17.0,39.0,0.00341912,  -609.260E-03,   64.4584E-03,       4.71919,-0.0237144,-0.00721528,7.55784e-05
3437,16.0,39.0,0.0035438,  -594.283E-03,   64.4568E-03,       4.89146,-0.0263329,-0.00802854,5.23021e-05
3438,15.0,39.0,0.00366361,  -580.450E-03,   64.4554E-03,       5.05708,-0.0288507,-0.00880377,2.99801e-05
3443,14.0,39.0,0.00377809,  -567.820E-03,   64.4541E-03,       5.21537,-0.0312575,-0.00953779,1.01036e-05
3446,13.0,39.0,0.00388678,  -556.433E-03,   64.4531E-03,       5.36572,-0.0335434,-0.010228,-6.27856e-06
3447,12.0,39.0,0.00398925,  -546.312E-03,   64.4524E-03,       5.50751,-0.0356987,-0.0108723,-1.86025e-05
3452,11.0,39.0,0.0040851,  -537.456E-03,   64.4520E-03,       5.64019,-0.0377143,-0.0114691,-2.67689e-05
3453,10.0,39.0,0.00417394,  -529.847E-03,   64.4518E-03,       5.76320,-0.0395816,-0.012017,-3.10714e-05
3458,9.0,39.0,0.00425542,  -523.446E-03,   64.4519E-03,       5.87607,-0.041293,-0.0125151,-3.2092e-05
3461,8.0,39.0,0.00432921,  -518.195E-03,   64.4523E-03,       5.97832,-0.0428416,-0.0129627,-3.05805e-05
3462,7.0,39.0,0.00439503,  -514.017E-03,   64.4528E-03,       6.06954,-0.0442212,-0.0133591,-2.73373e-05
3467,6.0,39.0,0.00445261,  -510.818E-03,   64.4533E-03,       6.14937,-0.0454268,-0.0137038,-2.31131e-05
3468,5.0,39.0,0.00450173,  -508.490E-03,   64.4540E-03,       6.21748,-0.0464539,-0.0139963,-1.85338e-05
3473,4.0,39.0,0.00454219,  -506.911E-03,   64.4546E-03,       6.27358,-0.047299,-0.0142363,-1.40547e-05
3476,3.0,39.0,0.00457382,  -505.944E-03,   64.4552E-03,       6.31746,-0.0479591,-0.0144234,-9.9438e-06
3477,2.0,39.0,0.0045965,  -505.445E-03,   64.4556E-03,       6.34893,-0.0484321,-0.0145572,-6.2902e-06
3482,1.0,39.0,0.00461015,  -505.263E-03,   64.4559E-03,       6.36786,-0.0487165,-0.0146376,-3.03217e-06
3483,-1.18426e-29,39.0,0.00461471,  -505.241E-03,   64.4559E-03,       6.37418,-0.0488114,-0.0146644,2.84217e-14
3488,-1.0,39.0,0.00461015,  -505.219E-03,   64.4559E-03,       6.36786,-0.0487165,-0.0146376,3.03217e-06
3491,-2.0,39.0,0.0045965,  -505.037E-03,   64.4556E-03,       6.34893,-0.0484321,-0.0145572,6.2902e-06
3492,-3.0,39.0,0.00457382,  -504.538E-03,   64.4552E-03,       6.31746,-0.0479591,-0.0144234,9.9438e-06
3497,-4.0,39.0,0.00454219,  -503.571E-03,   64.4546E-03,       6.27358,-0.047299,-0.0142363,1.40547e-05
3498,-5.0,39.0,0.00450173,  -501.991E-03,   64.4540E-03,       6.21748,-0.0464539,-0.0139963,1.85338e-05
3503,-6.0,39.0,0.00445261,  -499.664E-03,   64.4533E-03,       6.14937,-0.0454268,-0.0137038,2.31131e-05
3506,-7.0,39.0,0.00439503,  -496.465E-03,   64.4528E-03,       6.06954,-0.0442212,-0.0133591,2.73373e-05
3507,-8.0,39.0,0.00432921,  -492.287E-03,   64.4523E-03,       5.97832,-0.0428416,-0.0129627,3.05805e-05
3512,-9.0,39.0,0.00425542,  -487.036E-03,   64.4519E-03,       5.87607,-0.041293,-0.0125151,3.2092e-05
3513,-10.0,39.0,0.00417394,  -480.634E-03,   64.4518E-03,       5.76320,-0.0395816,-0.012017,3.10714e-05
3518,-11.0,39.0,0.0040851,  -473.025E-03,   64.4520E-03,       5.64019,-0.0377143,-0.0114691,2.67689e-05
3521,-12.0,39.0,0.00398925,  -464.170E-03,   64.4524E-03,       5.50751,-0.0356987,-0.0108723,1.86025e-05
3522,-13.0,39.0,0.00388678,  -454.048E-03,   64.4531E-03,       5.36572,-0.0335434,-0.010228,6.27856e-06
3527,-14.0,39.0,0.00377809,  -442.662E-03,   64.4541E-03,       5.21537,-0.0312575,-0.00953779,-1.01036e-05
3528,-15.0,39.0,0.00366361,  -430.032E-03,   64.4554E-03,       5.05708,-0.0288507,-0.00880377,-2.99801e-05
3533,-16.0,39.0,0.0035438,  -416.199E-03,   64.4568E-03,       4.89146,-0.0263329,-0.00802854,-5.23021e-05
3536,-17.0,39.0,0.00341912,  -401.222E-03,   64.4584E-03,       4.71919,-0.0237144,-0.00721528,-7.55784e-05
3537,-18.0,39.0,0.00329008,  -385.179E-03,   64.4601E-03,       4.54094,-0.0210056,-0.00636775,-9.79831e-05
3542,-19.0,39.0,0.00315719,  -368.164E-03,   64.4617E-03,       4.35741,-0.0182171,-0.00549024,-0.000117523
3543,-20.0,39.0,0.00302097,  -350.286E-03,   64.4633E-03,       4.16933,-0.0153593,-0.00458756,-0.000132245
3548,-21.0,39.0,0.00288196,  -331.667E-03,   64.4647E-03,       3.97743,-0.0124426,-0.00366489,-0.000140458
3551,-22.0,39.0,0.00274071,  -312.443E-03,   64.4659E-03,       3.78246,-0.00947771,-0.00272767,-0.000140941
3552,-23.0,39.0,0.00259777,  -292.755E-03,   64.4668E-03,       3.58517,-0.00647521,-0.00178141,-0.000133109
3557,-24.0,39.0,0.00245372,  -272.754E-03,   64.4674E-03,       3.38635,-0.00344599,-0.000831565,-0.000117103
3558,-25.0,39.0,0.00230913,  -252.596E-03,   64.4676E-03,       3.18675,-0.000401128,0.00011667,-9.38054e-05
3563,-26.0,39.0,0.00216455,  -232.438E-03,   64.4674E-03,       2.98715,0.00264804,0.00105848,-6.47642e-05
3566,-27.0,39.0,0.00202056,  -212.438E-03,   64.4668E-03,       2.78833,0.00568994,0.00198952,-3.20471e-05
3567,-28.0,39.0,0.00187773,  -192.751E-03,   64.4659E-03,       2.59105,0.00871275,0.00290597,1.96937e-06
3572,-29.0,39.0,0.00173661,  -173.528E-03,   64.4647E-03,       2.39609,0.0117045,0.00380454,3.48213e-05
3573,-30.0,39.0,0.00159776,  -154.911E-03,   64.4632E-03,       2.20420,0.014653,0.00468241,6.41972e-05
3578,-31.0,39.0,0.00146172,  -137.036E-03,   64.4615E-03,       2.01613,0.017546,0.00553709,8.81233e-05
3581,-32.0,39.0,0.00132903,  -120.023E-03,   64.4596E-03,       1.83262,0.0203714,0.00636642,0.000105121
3582,-33.0,39.0,0.00120019,  -103.984E-03,   64.4577E-03,       1.65438,0.0231169,0.00716839,0.000114282
3587,-34.0,39.0,0.00107571,  -89.0106E-03,   64.4559E-03,       1.48213,0.0257705,0.00794115,0.000115296
3588,-35.0,39.0,0.000956068,  -75.1816E-03,   64.4543E-03,       1.31654,0.0283207,0.00868292,0.000108436
3593,-36.0,39.0,0.0008417260000000001,  -62.5560E-03,   64.4528E-03,       1.15827,0.0307561,0.00939222,9.44904e-05
3596,-37.0,39.0,0.000733122,  -51.1742E-03,   64.4517E-03,       1.00795,0.0330665,0.0100676,7.47671e-05
3597,-38.0,39.0,0.000630674,  -41.0569E-03,   64.4510E-03,   866.187E-03,0.0352423,0.0107082,5.09828e-05
3602,-39.0,39.0,0.000534774,  -32.2049E-03,   64.4507E-03,   733.541E-03,0.0372751,0.0113127,2.5349e-05
3603,-40.0,39.0,0.000445786,  -24.5989E-03,   64.4509E-03,   610.548E-03,0.0391577,0.0118803,3.49955e-07
3608,-41.0,39.0,0.000364054,  -18.1999E-03,   64.4514E-03,   497.704E-03,0.0408842,0.0124087,-2.12777e-05
3611,-42.0,39.0,0.000289894,  -12.9499E-03,   64.4522E-03,   395.468E-03,0.0424491,0.0128948,-3.72419e-05
3612,-43.0,39.0,0.00022359599999999998,  -8.77255E-03,   64.4532E-03,   304.256E-03,0.0438467,0.0133325,-4.6083e-05
3617,-44.0,39.0,0.000165432,  -5.57503E-03,   64.4543E-03,   224.446E-03,0.0450695,0.0137144,-4.84992e-05
3618,-45.0,39.0,0.00011565,  -3.24836E-03,   64.4552E-03,   156.370E-03,0.0461063,0.0140314,-4.69541e-05
3623,-46.0,39.0,7.44817e-05,  -1.66998E-03,   64.4560E-03,   100.314E-03,0.0469408,0.0142758,-4.58625e-05
3626,-47.0,39.0,4.21406e-05,  -704.541E-06,   64.4566E-03,   56.5095E-03,0.0475516,0.0144442,-4.74338e-05
3627,-48.0,39.0,1.88279e-05,  -207.005E-06,   64.4570E-03,   25.1309E-03,0.0479171,0.0145372,-4.83772e-05
3632,-49.0,39.0,4.72612e-06,  -24.4640E-06,   64.4573E-03,   6.28232E-03,0.0480239,0.0145586,-3.50529e-05
3633,-50.0,39.0,0.0,  -14.9252E-42,   64.4575E-03,           -0.,0.0480118,0.0145516,-2.19526e-05
3638,50.0,38.0,0.0,      -1.01048,   64.4556E-03,           -0.,0.0480694,0.0145452,1.98561e-05
3641,49.0,38.0,4.69081e-06,      -1.01046,   64.4554E-03,   6.28780E-03,0.0480546,0.0145396,3.20123e-05
3642,48.0,38.0,1.86965e-05,      -1.01028,   64.4552E-03,   25.1451E-03,0.0479079,0.0144956,4.66068e-05
3647,47.0,38.0,4.18717e-05,      -1.00978,   64.4548E-03,   56.5293E-03,0.0475255,0.0143845,4.72604e-05
3648,46.0,38.0,7.40448e-05,      -1.00881,   64.4544E-03,   100.331E-03,0.0469113,0.0142052,4.47448e-05
3653,45.0,38.0,0.000115024,      -1.00723,   64.4538E-03,   156.381E-03,0.0460792,0.0139567,4.35972e-05
3656,44.0,38.0,0.00016459599999999998,      -1.00491,   64.4532E-03,   224.448E-03,0.0450452,0.0136408,4.3199e-05
3657,43.0,38.0,0.00022253,      -1.00171,   64.4526E-03,   304.249E-03,0.0438238,0.0132625,4.12324e-05
3662,42.0,38.0,0.000288573,  -997.535E-03,   64.4519E-03,   395.453E-03,0.0424266,0.0128283,3.49799e-05
3663,41.0,38.0,0.00036245300000000005,  -992.285E-03,   64.4514E-03,   497.682E-03,0.0408624,0.0123453,2.34485e-05
3668,40.0,38.0,0.000443873,  -985.887E-03,   64.4511E-03,   610.519E-03,0.0391379,0.011819,6.81136e-06
3671,39.0,38.0,0.000532514,  -978.282E-03,   64.4511E-03,   733.503E-03,0.0372593,0.0112538,-1.33706e-05
3672,38.0,38.0,0.000628031,  -969.432E-03,   64.4514E-03,   866.139E-03,0.0352329,0.0106521,-3.51132e-05
3677,37.0,38.0,0.0007300560000000001,  -959.317E-03,   64.4520E-03,       1.00789,0.0330656,0.0100157,-5.61378e-05
3678,36.0,38.0,0.000838195,  -947.937E-03,   64.4529E-03,       1.15820,0.0307652,0.00934555,-7.44172e-05
3683,35.0,38.0,0.000952033,  -935.314E-03,   64.4541E-03,       1.31645,0.0283403,0.00864237,-8.81633e-05
3686,34.0,38.0,0.00107113,  -921.488E-03,   64.4555E-03,       1.48203,0.0258005,0.00790687,-9.60616e-05
3687,33.0,38.0,0.00119503,  -906.517E-03,   64.4569E-03,       1.65427,0.0231561,0.00713995,-9.72304e-05
3692,32.0,38.0,0.00132325,  -890.479E-03,   64.4584E-03,       1.83250,0.0204181,0.00634269,-9.13347e-05
3693,31.0,38.0,0.00145529,  -873.467E-03,   64.4598E-03,       2.01602,0.0175978,0.00551656,-7.85698e-05
3698,30.0,38.0,0.00159064,  -855.591E-03,   64.4612E-03,       2.20409,0.014707,0.00466336,-5.96899e-05
3701,29.0,38.0,0.00172877,  -836.972E-03,   64.4623E-03,       2.39600,0.011758,0.0037854,-3.59582e-05
3702,28.0,38.0,0.00186915,  -817.746E-03,   64.4632E-03,       2.59098,0.00876328,0.00288554,-9.06645e-06
3707,27.0,38.0,0.00201122,  -798.055E-03,   64.4639E-03,       2.78828,0.00573541,0.00196724,1.89967e-05
3708,26.0,38.0,0.00215443,  -778.050E-03,   64.4643E-03,       2.98713,0.00268713,0.00103452,4.61229e-05
3713,25.0,38.0,0.00229821,  -757.887E-03,   64.4645E-03,       3.18676,-0.00036895,9.20039e-05,7.02753e-05
3716,24.0,38.0,0.00244201,  -737.723E-03,   64.4643E-03,       3.38639,-0.00342039,-0.000855281,8.96896e-05
3717,23.0,38.0,0.00258525,  -717.718E-03,   64.4639E-03,       3.58524,-0.0064551,-0.00180197,0.000103041
3722,22.0,38.0,0.00272737,  -698.025E-03,   64.4632E-03,       3.78254,-0.0094614,-0.00274258,0.000109575
3723,21.0,38.0,0.00286781,  -678.797E-03,   64.4623E-03,       3.97754,-0.0124281,-0.00367164,0.000109164
3728,20.0,38.0,0.00300601,  -660.177E-03,   64.4613E-03,       4.16945,-0.0153443,-0.00458388,0.000102301
3731,19.0,38.0,0.00314144,  -642.298E-03,   64.4601E-03,       4.35754,-0.0181997,-0.00547436,9.00173e-05
3732,18.0,38.0,0.00327355,  -625.284E-03,   64.4588E-03,       4.54107,-0.0209842,-0.00633859,7.37453e-05
3737,17.0,38.0,0.00340183,  -609.242E-03,   64.4574E-03,       4.71932,-0.0236879,-0.00717253,5.51427e-05
3738,16.0,38.0,0.00352576,  -594.267E-03,   64.4562E-03,       4.89158,-0.026301,-0.00797264,3.59025e-05
3743,15.0,38.0,0.00364486,  -580.437E-03,   64.4550E-03,       5.05718,-0.0288138,-0.00873589,1.75756e-05
3746,14.0,38.0,0.00375865,  -567.810E-03,   64.4539E-03,       5.21546,-0.0312165,-0.00945965,1.42694e-06
3747,13.0,38.0,0.00386668,  -556.426E-03,   64.4530E-03,       5.36579,-0.0334997,-0.0101417,-1.16591e-05
3752,12.0,38.0,0.00396854,  -546.307E-03,   64.4523E-03,       5.50757,-0.0356539,-0.0107801,-2.12175e-05
3753,11.0,38.0,0.0040638,  -537.454E-03,   64.4519E-03,       5.64023,-0.0376702,-0.0113733,-2.71875e-05
3758,10.0,38.0,0.00415209,  -529.847E-03,   64.4517E-03,       5.76323,-0.03954,-0.0119197,-2.98521e-05
3761,9.0,38.0,0.00423307,  -523.447E-03,   64.4517E-03,       5.87608,-0.0412553,-0.0124181,-2.97477e-05
3762,8.0,38.0,0.00430642,  -518.196E-03,   64.4519E-03,       5.97833,-0.0428088,-0.0128673,-2.75585e-05
3767,7.0,38.0,0.00437183,  -514.018E-03,   64.4523E-03,       6.06955,-0.0441941,-0.0132663,-2.40118e-05
3768,6.0,38.0,0.00442906,  -510.820E-03,   64.4528E-03,       6.14937,-0.0454056,-0.0136141,-1.97866e-05
3773,5.0,38.0,0.00447787,  -508.492E-03,   64.4533E-03,       6.21747,-0.0464383,-0.0139099,-1.54443e-05
3776,4.0,38.0,0.00451808,  -506.912E-03,   64.4538E-03,       6.27358,-0.0472885,-0.0141531,-1.13851e-05
3777,3.0,38.0,0.00454952,  -505.945E-03,   64.4543E-03,       6.31746,-0.0479529,-0.0143428,-7.8303e-06
3782,2.0,38.0,0.00457206,  -505.446E-03,   64.4546E-03,       6.34893,-0.0484291,-0.0144787,-4.8296e-06
3783,1.0,38.0,0.00458562,  -505.264E-03,   64.4549E-03,       6.36786,-0.0487155,-0.0145604,-2.28664e-06
3788,-2.52156e-29,38.0,0.00459015,  -505.241E-03,   64.4550E-03,       6.37418,-0.048811,-0.0145877,2.84217e-14
3791,-1.0,38.0,0.00458562,  -505.218E-03,   64.4549E-03,       6.36786,-0.0487155,-0.0145604,2.28664e-06
3792,-2.0,38.0,0.00457206,  -505.036E-03,   64.4546E-03,       6.34893,-0.0484291,-0.0144787,4.8296e-06
3797,-3.0,38.0,0.00454952,  -504.537E-03,   64.4543E-03,       6.31746,-0.0479529,-0.0143428,7.8303e-06
3798,-4.0,38.0,0.00451808,  -503.570E-03,   64.4538E-03,       6.27358,-0.0472885,-0.0141531,1.13851e-05
3803,-5.0,38.0,0.00447787,  -501.990E-03,   64.4533E-03,       6.21747,-0.0464383,-0.0139099,1.54443e-05
3806,-6.0,38.0,0.00442906,  -499.662E-03,   64.4528E-03,       6.14937,-0.0454056,-0.0136141,1.97866e-05
3807,-7.0,38.0,0.00437183,  -496.464E-03,   64.4523E-03,       6.06955,-0.0441941,-0.0132663,2.40118e-05
3812,-8.0,38.0,0.00430642,  -492.286E-03,   64.4519E-03,       5.97833,-0.0428088,-0.0128673,2.75585e-05
3813,-9.0,38.0,0.00423307,  -487.035E-03,   64.4517E-03,       5.87608,-0.0412553,-0.0124181,2.97477e-05
3818,-10.0,38.0,0.00415209,  -480.635E-03,   64.4517E-03,       5.76323,-0.03954,-0.0119197,2.98521e-05
3819,-11.0,38.0,0.0040638,  -473.028E-03,   64.4519E-03,       5.64023,-0.0376702,-0.0113733,2.71875e-05
3824,-12.0,38.0,0.00396854,  -464.174E-03,   64.4523E-03,       5.50757,-0.0356539,-0.0107801,2.12175e-05
3825,-13.0,38.0,0.00386668,  -454.056E-03,   64.4530E-03,       5.36579,-0.0334997,-0.0101417,1.16591e-05
3830,-14.0,38.0,0.00375865,  -442.672E-03,   64.4539E-03,       5.21546,-0.0312165,-0.00945965,-1.42694e-06
3833,-15.0,38.0,0.00364486,  -430.045E-03,   64.4550E-03,       5.05718,-0.0288138,-0.00873589,-1.75756e-05
3834,-16.0,38.0,0.00352576,  -416.214E-03,   64.4562E-03,       4.89158,-0.026301,-0.00797264,-3.59025e-05
3839,-17.0,38.0,0.00340183,  -401.240E-03,   64.4574E-03,       4.71932,-0.0236879,-0.00717253,-5.51427e-05
3840,-18.0,38.0,0.00327355,  -385.198E-03,   64.4588E-03,       4.54107,-0.0209842,-0.00633859,-7.37453e-05
3845,-19.0,38.0,0.00314144,  -368.184E-03,   64.4601E-03,       4.35754,-0.0181997,-0.00547436,-9.00173e-05
3848,-20.0,38.0,0.00300601,  -350.305E-03,   64.4613E-03,       4.16945,-0.0153443,-0.00458388,-0.000102301
3849,-21.0,38.0,0.00286781,  -331.684E-03,   64.4623E-03,       3.97754,-0.0124281,-0.00367164,-0.000109164
3854,-22.0,38.0,0.00272737,  -312.456E-03,   64.4632E-03,       3.78254,-0.0094614,-0.00274258,-0.000109575
3855,-23.0,38.0,0.00258525,  -292.764E-03,   64.4639E-03,       3.58524,-0.0064551,-0.00180197,-0.000103041
3860,-24.0,38.0,0.00244201,  -272.759E-03,   64.4643E-03,       3.38639,-0.00342039,-0.000855281,-8.96896e-05
3863,-25.0,38.0,0.00229821,  -252.595E-03,   64.4645E-03,       3.18676,-0.00036895,9.20039e-05,-7.02753e-05
3864,-26.0,38.0,0.00215443,  -232.432E-03,   64.4643E-03,       2.98713,0.00268713,0.00103452,-4.61229e-05
3869,-27.0,38.0,0.00201122,  -212.427E-03,   64.4639E-03,       2.78828,0.00573541,0.00196724,-1.89967e-05
3870,-28.0,38.0,0.00186915,  -192.736E-03,   64.4632E-03,       2.59098,0.00876328,0.00288554,9.06645e-06
3875,-29.0,38.0,0.00172877,  -173.510E-03,   64.4623E-03,       2.39600,0.011758,0.0037854,3.59582e-05
3878,-30.0,38.0,0.00159064,  -154.891E-03,   64.4612E-03,       2.20409,0.014707,0.00466336,5.96899e-05
3879,-31.0,38.0,0.00145529,  -137.015E-03,   64.4598E-03,       2.01602,0.0175978,0.00551656,7.85698e-05
3884,-32.0,38.0,0.00132325,  -120.003E-03,   64.4584E-03,       1.83250,0.0204181,0.00634269,9.13347e-05
3885,-33.0,38.0,0.00119503,  -103.965E-03,   64.4569E-03,       1.65427,0.0231561,0.00713995,9.72304e-05
3890,-34.0,38.0,0.00107113,  -88.9940E-03,   64.4555E-03,       1.48203,0.0258005,0.00790687,9.60616e-05
3893,-35.0,38.0,0.000952033,  -75.1675E-03,   64.4541E-03,       1.31645,0.0283403,0.00864237,8.81633e-05
3894,-36.0,38.0,0.000838195,  -62.5444E-03,   64.4529E-03,       1.15820,0.0307652,0.00934555,7.44172e-05
3899,-37.0,38.0,0.0007300560000000001,  -51.1650E-03,   64.4520E-03,       1.00789,0.0330656,0.0100157,5.61378e-05
3900,-38.0,38.0,0.000628031,  -41.0497E-03,   64.4514E-03,   866.139E-03,0.0352329,0.0106521,3.51132e-05
3905,-39.0,38.0,0.000532514,  -32.1993E-03,   64.4511E-03,   733.503E-03,0.0372593,0.0112538,1.33706e-05
3908,-40.0,38.0,0.000443873,  -24.5944E-03,   64.4511E-03,   610.519E-03,0.0391379,0.011819,-6.81136e-06
3909,-41.0,38.0,0.00036245300000000005,  -18.1963E-03,   64.4514E-03,   497.682E-03,0.0408624,0.0123453,-2.34485e-05
3914,-42.0,38.0,0.000288573,  -12.9469E-03,   64.4519E-03,   395.453E-03,0.0424266,0.0128283,-3.49799e-05
3915,-43.0,38.0,0.00022253,  -8.77027E-03,   64.4526E-03,   304.249E-03,0.0438238,0.0132625,-4.12324e-05
3920,-44.0,38.0,0.00016459599999999998,  -5.57325E-03,   64.4532E-03,   224.448E-03,0.0450452,0.0136408,-4.3199e-05
3923,-45.0,38.0,0.000115024,  -3.24725E-03,   64.4538E-03,   156.381E-03,0.0460792,0.0139567,-4.35972e-05
3924,-46.0,38.0,7.40448e-05,  -1.66918E-03,   64.4544E-03,   100.331E-03,0.0469113,0.0142052,-4.47448e-05
3929,-47.0,38.0,4.18717e-05,  -704.068E-06,   64.4548E-03,   56.5293E-03,0.0475255,0.0143845,-4.72604e-05
3930,-48.0,38.0,1.86965e-05,  -206.544E-06,   64.4552E-03,   25.1451E-03,0.0479079,0.0144956,-4.66068e-05
3935,-49.0,38.0,4.69081e-06,  -24.1745E-06,   64.4554E-03,   6.28780E-03,0.0480546,0.0145396,-3.20123e-05
3938,-50.0,38.0,0.0,  -14.3171E-42,   64.4556E-03,           -0.,0.0480694,0.0145452,-1.98561e-05
3939,50.0,37.0,0.0,      -1.01048,   64.4539E-03,           -0.,0.0481155,0.0145437,1.58384e-05
3944,49.0,37.0,4.6548e-06,      -1.01046,   64.4538E-03,   6.29247E-03,0.0480814,0.0145311,2.67647e-05
3945,48.0,37.0,1.85619e-05,      -1.01028,   64.4536E-03,   25.1599E-03,0.0479035,0.0144726,4.02335e-05
3950,47.0,37.0,4.1591199999999996e-05,      -1.00978,   64.4533E-03,   56.5511E-03,0.0475041,0.0143493,4.22481e-05
3953,46.0,37.0,7.35839e-05,      -1.00881,   64.4529E-03,   100.356E-03,0.0468839,0.0141615,4.00442e-05
3954,45.0,37.0,0.000114355,      -1.00723,   64.4526E-03,   156.404E-03,0.0460512,0.0139091,3.78171e-05
3959,44.0,37.0,0.000163697,      -1.00491,   64.4522E-03,   224.466E-03,0.0450184,0.0135932,3.64525e-05
3960,43.0,37.0,0.000221378,      -1.00171,   64.4518E-03,   304.261E-03,0.0437978,0.0132171,3.44539e-05
3965,42.0,37.0,0.000287147,  -997.536E-03,   64.4514E-03,   395.459E-03,0.0424007,0.0127858,3.01215e-05
3968,41.0,37.0,0.000360727,  -992.287E-03,   64.4512E-03,   497.682E-03,0.0408363,0.012305,2.1992e-05
3969,40.0,37.0,0.000441821,  -985.889E-03,   64.4511E-03,   610.513E-03,0.0391123,0.0117802,9.9356e-06
3974,39.0,37.0,0.000530106,  -978.285E-03,   64.4511E-03,   733.490E-03,0.0372357,0.0112155,-5.41667e-06
3975,38.0,37.0,0.0006252359999999999,  -969.436E-03,   64.4515E-03,   866.117E-03,0.0352131,0.0106143,-2.25558e-05
3980,37.0,37.0,0.00072684,  -959.322E-03,   64.4520E-03,       1.00786,0.0330514,0.00997855,-3.97921e-05
3983,36.0,37.0,0.0008345239999999999,  -947.944E-03,   64.4528E-03,       1.15815,0.0307581,0.00930947,-5.53068e-05
3984,35.0,37.0,0.000947873,  -935.323E-03,   64.4538E-03,       1.31640,0.0283415,0.00860778,-6.75626e-05
3989,34.0,37.0,0.00106645,  -921.498E-03,   64.4549E-03,       1.48197,0.0258104,0.00787412,-7.52932e-05
3990,33.0,37.0,0.00118979,  -906.529E-03,   64.4561E-03,       1.65420,0.0231744,0.00710905,-7.76914e-05
3995,32.0,37.0,0.00131742,  -890.492E-03,   64.4572E-03,       1.83243,0.0204437,0.00631348,-7.43763e-05
3998,31.0,37.0,0.00144884,  -873.481E-03,   64.4583E-03,       2.01594,0.0176293,0.00548865,-6.54632e-05
3999,30.0,37.0,0.00158355,  -855.605E-03,   64.4594E-03,       2.20402,0.0147426,0.00463636,-5.15178e-05
4004,29.0,37.0,0.00172101,  -836.985E-03,   64.4602E-03,       2.39593,0.0117955,0.00375904,-3.35354e-05
4005,28.0,37.0,0.00186069,  -817.756E-03,   64.4609E-03,       2.59093,0.00880073,0.00285981,-1.28518e-05
4010,27.0,37.0,0.00200205,  -798.062E-03,   64.4614E-03,       2.78825,0.005771,0.00194246,8.96138e-06
4013,26.0,37.0,0.00214453,  -778.054E-03,   64.4617E-03,       2.98712,0.00271944,0.00101144,3.02357e-05
4014,25.0,37.0,0.00228758,  -757.887E-03,   64.4618E-03,       3.18676,-0.000340795,7.16972e-05,4.93586e-05
4019,24.0,37.0,0.00243062,  -737.720E-03,   64.4617E-03,       3.38641,-0.00339672,-0.000871436,6.49233e-05
4020,23.0,37.0,0.00257311,  -717.711E-03,   64.4614E-03,       3.58529,-0.00643569,-0.00181247,7.58628e-05
4025,22.0,37.0,0.00271447,  -698.016E-03,   64.4609E-03,       3.78261,-0.00944554,-0.00274592,8.15463e-05
4028,21.0,37.0,0.00285416,  -678.786E-03,   64.4602E-03,       3.97762,-0.0124147,-0.00366653,8.18306e-05
4029,20.0,37.0,0.00299162,  -660.164E-03,   64.4594E-03,       4.16954,-0.0153322,-0.00456937,7.70555e-05
4034,19.0,37.0,0.00312631,  -642.285E-03,   64.4585E-03,       4.35763,-0.0181877,-0.00544999,6.79876e-05
4035,18.0,37.0,0.0032577,  -625.271E-03,   64.4575E-03,       4.54116,-0.0209712,-0.00630441,5.57173e-05
4040,17.0,37.0,0.00338527,  -609.231E-03,   64.4565E-03,       4.71940,-0.0236731,-0.00712915,4.15259e-05
4043,16.0,37.0,0.00350851,  -594.258E-03,   64.4554E-03,       4.89166,-0.0262841,-0.00792117,2.6739e-05
4044,15.0,37.0,0.00362695,  -580.429E-03,   64.4544E-03,       5.05725,-0.0287949,-0.00867782,1.25864e-05
4049,14.0,37.0,0.0037401,  -567.804E-03,   64.4535E-03,       5.21552,-0.0311961,-0.00939678,8.54901e-08
4050,13.0,37.0,0.00384753,  -556.423E-03,   64.4527E-03,       5.36583,-0.0334785,-0.0100759,-1.00386e-05
4055,12.0,37.0,0.0039488,  -546.306E-03,   64.4521E-03,       5.50760,-0.0356331,-0.0107133,-1.73909e-05
4058,11.0,37.0,0.00404353,  -537.454E-03,   64.4517E-03,       5.64024,-0.0376509,-0.0113071,-2.19011e-05
4059,10.0,37.0,0.00413132,  -529.848E-03,   64.4514E-03,       5.76324,-0.0395233,-0.0118557,-2.37808e-05
4064,9.0,37.0,0.00421184,  -523.449E-03,   64.4514E-03,       5.87608,-0.0412421,-0.0123574,-2.34553e-05
4065,8.0,37.0,0.00428476,  -518.198E-03,   64.4515E-03,       5.97832,-0.0427999,-0.0128106,-2.14791e-05
4070,7.0,37.0,0.0043498,  -514.021E-03,   64.4518E-03,       6.06954,-0.0441899,-0.0132141,-1.84503e-05
4073,6.0,37.0,0.0044067,  -510.822E-03,   64.4521E-03,       6.14936,-0.0454061,-0.0135664,-1.49338e-05
4074,5.0,37.0,0.00445524,  -508.494E-03,   64.4525E-03,       6.21746,-0.0464434,-0.0138665,-1.13994e-05
4079,4.0,37.0,0.00449521,  -506.914E-03,   64.4530E-03,       6.27357,-0.0472977,-0.0141134,-8.18168e-06
4080,3.0,37.0,0.00452647,  -505.946E-03,   64.4533E-03,       6.31745,-0.0479655,-0.0143063,-5.46245e-06
4085,2.0,37.0,0.00454888,  -505.447E-03,   64.4536E-03,       6.34892,-0.0484443,-0.0144445,-3.27313e-06
4088,1.0,37.0,0.00456237,  -505.264E-03,   64.4538E-03,       6.36786,-0.0487323,-0.0145277,-1.51615e-06
4089,6.648199999999999e-29,37.0,0.00456687,  -505.241E-03,   64.4539E-03,       6.37418,-0.0488284,-0.0145554,0.0
4094,-1.0,37.0,0.00456237,  -505.218E-03,   64.4538E-03,       6.36786,-0.0487323,-0.0145277,1.51615e-06
4095,-2.0,37.0,0.00454888,  -505.035E-03,   64.4536E-03,       6.34892,-0.0484443,-0.0144445,3.27313e-06
4100,-3.0,37.0,0.00452647,  -504.536E-03,   64.4533E-03,       6.31745,-0.0479655,-0.0143063,5.46245e-06
4103,-4.0,37.0,0.00449521,  -503.568E-03,   64.4530E-03,       6.27357,-0.0472977,-0.0141134,8.18168e-06
4104,-5.0,37.0,0.00445524,  -501.988E-03,   64.4525E-03,       6.21746,-0.0464434,-0.0138665,1.13994e-05
4109,-6.0,37.0,0.0044067,  -499.660E-03,   64.4521E-03,       6.14936,-0.0454061,-0.0135664,1.49338e-05
4110,-7.0,37.0,0.0043498,  -496.461E-03,   64.4518E-03,       6.06954,-0.0441899,-0.0132141,1.84503e-05
4115,-8.0,37.0,0.00428476,  -492.283E-03,   64.4515E-03,       5.97832,-0.0427999,-0.0128106,2.14791e-05
4118,-9.0,37.0,0.00421184,  -487.033E-03,   64.4514E-03,       5.87608,-0.0412421,-0.0123574,2.34553e-05
4119,-10.0,37.0,0.00413132,  -480.634E-03,   64.4514E-03,       5.76324,-0.0395233,-0.0118557,2.37808e-05
4124,-11.0,37.0,0.00404353,  -473.028E-03,   64.4517E-03,       5.64024,-0.0376509,-0.0113071,2.19011e-05
4125,-12.0,37.0,0.0039488,  -464.176E-03,   64.4521E-03,       5.50760,-0.0356331,-0.0107133,1.73909e-05
4130,-13.0,37.0,0.00384753,  -454.059E-03,   64.4527E-03,       5.36583,-0.0334785,-0.0100759,1.00386e-05
4133,-14.0,37.0,0.0037401,  -442.677E-03,   64.4535E-03,       5.21552,-0.0311961,-0.00939678,-8.54901e-08
4134,-15.0,37.0,0.00362695,  -430.053E-03,   64.4544E-03,       5.05725,-0.0287949,-0.00867782,-1.25864e-05
4139,-16.0,37.0,0.00350851,  -416.224E-03,   64.4554E-03,       4.89166,-0.0262841,-0.00792117,-2.6739e-05
4140,-17.0,37.0,0.00338527,  -401.251E-03,   64.4565E-03,       4.71940,-0.0236731,-0.00712915,-4.15259e-05
4145,-18.0,37.0,0.0032577,  -385.211E-03,   64.4575E-03,       4.54116,-0.0209712,-0.00630441,-5.57173e-05
4148,-19.0,37.0,0.00312631,  -368.197E-03,   64.4585E-03,       4.35763,-0.0181877,-0.00544999,-6.79876e-05
4149,-20.0,37.0,0.00299162,  -350.318E-03,   64.4594E-03,       4.16954,-0.0153322,-0.00456937,-7.70555e-05
4154,-21.0,37.0,0.00285416,  -331.696E-03,   64.4602E-03,       3.97762,-0.0124147,-0.00366653,-8.18306e-05
4155,-22.0,37.0,0.00271447,  -312.466E-03,   64.4609E-03,       3.78261,-0.00944554,-0.00274592,-8.15463e-05
4160,-23.0,37.0,0.00257311,  -292.771E-03,   64.4614E-03,       3.58529,-0.00643569,-0.00181247,-7.58628e-05
4163,-24.0,37.0,0.00243062,  -272.762E-03,   64.4617E-03,       3.38641,-0.00339672,-0.000871436,-6.49233e-05
4164,-25.0,37.0,0.00228758,  -252.595E-03,   64.4618E-03,       3.18676,-0.000340795,7.16972e-05,-4.93586e-05
4169,-26.0,37.0,0.00214453,  -232.428E-03,   64.4617E-03,       2.98712,0.00271944,0.00101144,-3.02357e-05
4170,-27.0,37.0,0.00200205,  -212.419E-03,   64.4614E-03,       2.78825,0.005771,0.00194246,-8.96138e-06
4175,-28.0,37.0,0.00186069,  -192.725E-03,   64.4609E-03,       2.59093,0.00880073,0.00285981,1.28518e-05
4178,-29.0,37.0,0.00172101,  -173.497E-03,   64.4602E-03,       2.39593,0.0117955,0.00375904,3.35354e-05
4179,-30.0,37.0,0.00158355,  -154.877E-03,   64.4594E-03,       2.20402,0.0147426,0.00463636,5.15178e-05
4184,-31.0,37.0,0.00144884,  -137.001E-03,   64.4583E-03,       2.01594,0.0176293,0.00548865,6.54632e-05
4185,-32.0,37.0,0.00131742,  -119.990E-03,   64.4572E-03,       1.83243,0.0204437,0.00631348,7.43763e-05
4190,-33.0,37.0,0.00118979,  -103.953E-03,   64.4561E-03,       1.65420,0.0231744,0.00710905,7.76914e-05
4193,-34.0,37.0,0.00106645,  -88.9834E-03,   64.4549E-03,       1.48197,0.0258104,0.00787412,7.52932e-05
4194,-35.0,37.0,0.000947873,  -75.1588E-03,   64.4538E-03,       1.31640,0.0283415,0.00860778,6.75626e-05
4199,-36.0,37.0,0.0008345239999999999,  -62.5377E-03,   64.4528E-03,       1.15815,0.0307581,0.00930947,5.53068e-05
4200,-37.0,37.0,0.00072684,  -51.1599E-03,   64.4520E-03,       1.00786,0.0330514,0.00997855,3.97921e-05
4205,-38.0,37.0,0.0006252359999999999,  -41.0460E-03,   64.4515E-03,   866.117E-03,0.0352131,0.0106143,2.25558e-05
4208,-39.0,37.0,0.000530106,  -32.1966E-03,   64.4511E-03,   733.490E-03,0.0372357,0.0112155,5.41667e-06
4209,-40.0,37.0,0.000441821,  -24.5926E-03,   64.4511E-03,   610.513E-03,0.0391123,0.0117802,-9.9356e-06
4214,-41.0,37.0,0.000360727,  -18.1949E-03,   64.4512E-03,   497.682E-03,0.0408363,0.012305,-2.1992e-05
4215,-42.0,37.0,0.000287147,  -12.9460E-03,   64.4514E-03,   395.459E-03,0.0424007,0.0127858,-3.01215e-05
4220,-43.0,37.0,0.000221378,  -8.76966E-03,   64.4518E-03,   304.261E-03,0.0437978,0.0132171,-3.44539e-05
4223,-44.0,37.0,0.000163697,  -5.57305E-03,   64.4522E-03,   224.466E-03,0.0450184,0.0135932,-3.64525e-05
4224,-45.0,37.0,0.000114355,  -3.24719E-03,   64.4526E-03,   156.404E-03,0.0460512,0.0139091,-3.78171e-05
4229,-46.0,37.0,7.35839e-05,  -1.66929E-03,   64.4529E-03,   100.356E-03,0.0468839,0.0141615,-4.00442e-05
4230,-47.0,37.0,4.1591199999999996e-05,  -704.030E-06,   64.4533E-03,   56.5511E-03,0.0475041,0.0143493,-4.22481e-05
4235,-48.0,37.0,1.85619e-05,  -206.437E-06,   64.4536E-03,   25.1599E-03,0.0479035,0.0144726,-4.02335e-05
4238,-49.0,37.0,4.6548e-06,  -24.0115E-06,   64.4538E-03,   6.29247E-03,0.0480814,0.0145311,-2.67647e-05
4239,-50.0,37.0,0.0,  -14.0312E-42,   64.4539E-03,           -0.,0.0481155,0.0145437,-1.58384e-05
4244,50.0,36.0,0.0,      -1.01048,   64.4524E-03,           -0.,0.0481511,0.0145462,1.24317e-05
4245,49.0,36.0,4.6192e-06,      -1.01046,   64.4523E-03,   6.29644E-03,0.0481033,0.0145284,2.11186e-05
4250,48.0,36.0,1.8427e-05,      -1.01028,   64.4521E-03,   25.1721E-03,0.0479027,0.0144611,3.29446e-05
4253,47.0,36.0,4.1307600000000004e-05,      -1.00978,   64.4518E-03,   56.5715E-03,0.0474893,0.0143304,3.55369e-05
4254,46.0,36.0,7.31126e-05,      -1.00881,   64.4516E-03,   100.381E-03,0.0468625,0.0141372,3.38819e-05
4259,45.0,36.0,0.000113666,      -1.00723,   64.4514E-03,   156.429E-03,0.0460283,0.0138821,3.13958e-05
4260,44.0,36.0,0.000162763,      -1.00491,   64.4511E-03,   224.489E-03,0.0449958,0.0135662,2.9309e-05
4265,43.0,36.0,0.000220178,      -1.00171,   64.4510E-03,   304.280E-03,0.0437758,0.0131919,2.72814e-05
4268,42.0,36.0,0.000285658,  -997.536E-03,   64.4508E-03,   395.473E-03,0.0423788,0.012763,2.3972e-05
4269,41.0,36.0,0.000358927,  -992.287E-03,   64.4508E-03,   497.692E-03,0.040814,0.0122843,1.83812e-05
4274,40.0,36.0,0.00043968400000000003,  -985.890E-03,   64.4508E-03,   610.516E-03,0.0390898,0.0117605,9.89586e-06
4275,39.0,36.0,0.0005276069999999999,  -978.286E-03,   64.4510E-03,   733.488E-03,0.0372137,0.011196,-1.13916e-06
4280,38.0,36.0,0.000622348,  -969.438E-03,   64.4513E-03,   866.109E-03,0.0351928,0.010594,-1.39161e-05
4283,37.0,36.0,0.000723534,  -959.325E-03,   64.4519E-03,       1.00785,0.0330342,0.00995698,-2.71153e-05
4284,36.0,36.0,0.000830773,  -947.948E-03,   64.4526E-03,       1.15813,0.0307455,0.00928641,-3.94023e-05
4289,35.0,36.0,0.000943646,  -935.328E-03,   64.4534E-03,       1.31637,0.0283344,0.00858335,-4.94569e-05
4290,34.0,36.0,0.00106172,  -921.505E-03,   64.4543E-03,       1.48193,0.0258096,0.00784845,-5.62592e-05
4295,33.0,36.0,0.00118452,  -906.537E-03,   64.4552E-03,       1.65416,0.0231801,0.00708243,-5.90741e-05
4298,32.0,36.0,0.00131159,  -890.501E-03,   64.4561E-03,       1.83238,0.0204556,0.00628616,-5.757e-05
4299,31.0,36.0,0.00144243,  -873.490E-03,   64.4570E-03,       2.01589,0.0176466,0.00546097,-5.17742e-05
4304,30.0,36.0,0.00157652,  -855.614E-03,   64.4577E-03,       2.20397,0.0147642,0.00460874,-4.20913e-05
4305,29.0,36.0,0.00171336,  -836.993E-03,   64.4583E-03,       2.39589,0.0118201,0.00373203,-2.92372e-05
4310,28.0,36.0,0.00185239,  -817.763E-03,   64.4588E-03,       2.59090,0.00882688,0.0028341,-1.41899e-05
4313,27.0,36.0,0.00199308,  -798.068E-03,   64.4592E-03,       2.78822,0.00579729,0.00191894,1.90348e-06
4314,26.0,36.0,0.00213488,  -778.057E-03,   64.4594E-03,       2.98711,0.00274462,0.000991095,1.78205e-05
4319,25.0,36.0,0.00227723,  -757.888E-03,   64.4595E-03,       3.18677,-0.000317715,5.56149e-05,3.23723e-05
4320,24.0,36.0,0.00241958,  -737.718E-03,   64.4594E-03,       3.38644,-0.0033764,-0.000882197,4.45084e-05
4325,23.0,36.0,0.00256136,  -717.707E-03,   64.4592E-03,       3.58532,-0.00641843,-0.00181696,5.34092e-05
4328,22.0,36.0,0.00270202,  -698.010E-03,   64.4588E-03,       3.78266,-0.0094313,-0.00274341,5.85574e-05
4329,21.0,36.0,0.00284101,  -678.778E-03,   64.4583E-03,       3.97767,-0.0124032,-0.00365658,5.97778e-05
4334,20.0,36.0,0.00297778,  -660.156E-03,   64.4577E-03,       4.16960,-0.0153228,-0.00455191,5.72427e-05
4335,19.0,36.0,0.00311178,  -642.277E-03,   64.4570E-03,       4.35770,-0.0181798,-0.00542532,5.14393e-05
4340,18.0,36.0,0.0032425,  -625.263E-03,   64.4563E-03,       4.54123,-0.0209641,-0.00627323,4.31056e-05
4343,17.0,36.0,0.00336941,  -609.224E-03,   64.4554E-03,       4.71946,-0.0236664,-0.00709247,3.31409e-05
4344,16.0,36.0,0.00349202,  -594.252E-03,   64.4546E-03,       4.89171,-0.0262773,-0.0078803,2.25043e-05
4349,15.0,36.0,0.00360984,  -580.425E-03,   64.4537E-03,       5.05729,-0.0287878,-0.00863422,1.21126e-05
4350,14.0,36.0,0.0037224,  -567.802E-03,   64.4530E-03,       5.21555,-0.0311889,-0.00935195,2.75091e-06
4355,13.0,36.0,0.00382926,  -556.422E-03,   64.4523E-03,       5.36586,-0.0334716,-0.0100314,-4.99354e-06
4358,12.0,36.0,0.00393,  -546.306E-03,   64.4517E-03,       5.50762,-0.0356269,-0.0106704,-1.0769e-05
4359,11.0,36.0,0.00402423,  -537.455E-03,   64.4513E-03,       5.64025,-0.037646,-0.011267,-1.44653e-05
4364,10.0,36.0,0.00411156,  -529.850E-03,   64.4510E-03,       5.76324,-0.0395203,-0.0118192,-1.61912e-05
4365,9.0,36.0,0.00419165,  -523.451E-03,   64.4509E-03,       5.87608,-0.0412416,-0.0123251,-1.62298e-05
4370,8.0,36.0,0.00426418,  -518.201E-03,   64.4509E-03,       5.97831,-0.0428024,-0.0127829,-1.49784e-05
4373,7.0,36.0,0.00432888,  -514.023E-03,   64.4511E-03,       6.06953,-0.0441956,-0.013191,-1.28838e-05
4374,6.0,36.0,0.00438547,  -510.824E-03,   64.4514E-03,       6.14935,-0.0454152,-0.0135477,-1.0381e-05
4379,5.0,36.0,0.00443375,  -508.496E-03,   64.4517E-03,       6.21746,-0.0464558,-0.0138518,-7.84125e-06
4380,4.0,36.0,0.00447351,  -506.915E-03,   64.4520E-03,       6.27357,-0.047313,-0.0141022,-5.53581e-06
4385,3.0,36.0,0.0045046,  -505.947E-03,   64.4523E-03,       6.31745,-0.0479833,-0.0142979,-3.61707e-06
4388,2.0,36.0,0.00452689,  -505.447E-03,   64.4526E-03,       6.34892,-0.0484639,-0.0144381,-2.11701e-06
4389,1.0,36.0,0.0045403,  -505.264E-03,   64.4527E-03,       6.36786,-0.0487531,-0.0145225,-9.61919e-07
4394,-3.70709e-29,36.0,0.00454478,  -505.241E-03,   64.4528E-03,       6.37418,-0.0488496,-0.0145506,-1.42109e-14
4395,-1.0,36.0,0.0045403,  -505.217E-03,   64.4527E-03,       6.36786,-0.0487531,-0.0145225,9.61919e-07
4400,-2.0,36.0,0.00452689,  -505.034E-03,   64.4526E-03,       6.34892,-0.0484639,-0.0144381,2.11701e-06
4403,-3.0,36.0,0.0045046,  -504.535E-03,   64.4523E-03,       6.31745,-0.0479833,-0.0142979,3.61707e-06
4404,-4.0,36.0,0.00447351,  -503.567E-03,   64.4520E-03,       6.27357,-0.047313,-0.0141022,5.53581e-06
4409,-5.0,36.0,0.00443375,  -501.986E-03,   64.4517E-03,       6.21746,-0.0464558,-0.0138518,7.84125e-06
4410,-6.0,36.0,0.00438547,  -499.658E-03,   64.4514E-03,       6.14935,-0.0454152,-0.0135477,1.0381e-05
4415,-7.0,36.0,0.00432888,  -496.459E-03,   64.4511E-03,       6.06953,-0.0441956,-0.013191,1.28838e-05
4418,-8.0,36.0,0.00426418,  -492.281E-03,   64.4509E-03,       5.97831,-0.0428024,-0.0127829,1.49784e-05
4419,-9.0,36.0,0.00419165,  -487.031E-03,   64.4509E-03,       5.87608,-0.0412416,-0.0123251,1.62298e-05
4424,-10.0,36.0,0.00411156,  -480.632E-03,   64.4510E-03,       5.76324,-0.0395203,-0.0118192,1.61912e-05
4425,-11.0,36.0,0.00402423,  -473.026E-03,   64.4513E-03,       5.64025,-0.037646,-0.011267,1.44653e-05
4430,-12.0,36.0,0.00393,  -464.175E-03,   64.4517E-03,       5.50762,-0.0356269,-0.0106704,1.0769e-05
4433,-13.0,36.0,0.00382926,  -454.060E-03,   64.4523E-03,       5.36586,-0.0334716,-0.0100314,4.99354e-06
4434,-14.0,36.0,0.0037224,  -442.680E-03,   64.4530E-03,       5.21555,-0.0311889,-0.00935195,-2.75091e-06
4439,-15.0,36.0,0.00360984,  -430.057E-03,   64.4537E-03,       5.05729,-0.0287878,-0.00863422,-1.21126e-05
4440,-16.0,36.0,0.00349202,  -416.230E-03,   64.4546E-03,       4.89171,-0.0262773,-0.0078803,-2.25043e-05
4445,-17.0,36.0,0.00336941,  -401.258E-03,   64.4554E-03,       4.71946,-0.0236664,-0.00709247,-3.31409e-05
4448,-18.0,36.0,0.0032425,  -385.219E-03,   64.4563E-03,       4.54123,-0.0209641,-0.00627323,-4.31056e-05
4449,-19.0,36.0,0.00311178,  -368.205E-03,   64.4570E-03,       4.35770,-0.0181798,-0.00542532,-5.14393e-05
4454,-20.0,36.0,0.00297778,  -350.326E-03,   64.4577E-03,       4.16960,-0.0153228,-0.00455191,-5.72427e-05
4455,-21.0,36.0,0.00284101,  -331.703E-03,   64.4583E-03,       3.97767,-0.0124032,-0.00365658,-5.97778e-05
4460,-22.0,36.0,0.00270202,  -312.472E-03,   64.4588E-03,       3.78266,-0.0094313,-0.00274341,-5.85574e-05
4463,-23.0,36.0,0.00256136,  -292.775E-03,   64.4592E-03,       3.58532,-0.00641843,-0.00181696,-5.34092e-05
4464,-24.0,36.0,0.00241958,  -272.764E-03,   64.4594E-03,       3.38644,-0.0033764,-0.000882197,-4.45084e-05
4469,-25.0,36.0,0.00227723,  -252.594E-03,   64.4595E-03,       3.18677,-0.000317715,5.56149e-05,-3.23723e-05
4470,-26.0,36.0,0.00213488,  -232.425E-03,   64.4594E-03,       2.98711,0.00274462,0.000991095,-1.78205e-05
4475,-27.0,36.0,0.00199308,  -212.414E-03,   64.4592E-03,       2.78822,0.00579729,0.00191894,-1.90348e-06
4478,-28.0,36.0,0.00185239,  -192.718E-03,   64.4588E-03,       2.59090,0.00882688,0.0028341,1.41899e-05
4479,-29.0,36.0,0.00171336,  -173.489E-03,   64.4583E-03,       2.39589,0.0118201,0.00373203,2.92372e-05
4484,-30.0,36.0,0.00157652,  -154.868E-03,   64.4577E-03,       2.20397,0.0147642,0.00460874,4.20913e-05
4485,-31.0,36.0,0.00144243,  -136.992E-03,   64.4570E-03,       2.01589,0.0176466,0.00546097,5.17742e-05
4490,-32.0,36.0,0.00131159,  -119.981E-03,   64.4561E-03,       1.83238,0.0204556,0.00628616,5.757e-05
4493,-33.0,36.0,0.00118452,  -103.945E-03,   64.4552E-03,       1.65416,0.0231801,0.00708243,5.90741e-05
4494,-34.0,36.0,0.00106172,  -88.9769E-03,   64.4543E-03,       1.48193,0.0258096,0.00784845,5.62592e-05
4499,-35.0,36.0,0.000943646,  -75.1536E-03,   64.4534E-03,       1.31637,0.0283344,0.00858335,4.94569e-05
4500,-36.0,36.0,0.000830773,  -62.5337E-03,   64.4526E-03,       1.15813,0.0307455,0.00928641,3.94023e-05
4505,-37.0,36.0,0.000723534,  -51.1570E-03,   64.4519E-03,       1.00785,0.0330342,0.00995698,2.71153e-05
4508,-38.0,36.0,0.000622348,  -41.0440E-03,   64.4513E-03,   866.109E-03,0.0351928,0.010594,1.39161e-05
4509,-39.0,36.0,0.0005276069999999999,  -32.1954E-03,   64.4510E-03,   733.488E-03,0.0372137,0.011196,1.13916e-06
4514,-40.0,36.0,0.00043968400000000003,  -24.5918E-03,   64.4508E-03,   610.516E-03,0.0390898,0.0117605,-9.89586e-06
4515,-41.0,36.0,0.000358927,  -18.1945E-03,   64.4508E-03,   497.692E-03,0.040814,0.0122843,-1.83812e-05
4520,-42.0,36.0,0.000285658,  -12.9459E-03,   64.4508E-03,   395.473E-03,0.0423788,0.012763,-2.3972e-05
4523,-43.0,36.0,0.000220178,  -8.76985E-03,   64.4510E-03,   304.280E-03,0.0437758,0.0131919,-2.72814e-05
4524,-44.0,36.0,0.000162763,  -5.57336E-03,   64.4511E-03,   224.489E-03,0.0449958,0.0135662,-2.9309e-05
4529,-45.0,36.0,0.000113666,  -3.24764E-03,   64.4514E-03,   156.429E-03,0.0460283,0.0138821,-3.13958e-05
4530,-46.0,36.0,7.31126e-05,  -1.66961E-03,   64.4516E-03,   100.381E-03,0.0468625,0.0141372,-3.38819e-05
4535,-47.0,36.0,4.1307600000000004e-05,  -704.235E-06,   64.4518E-03,   56.5715E-03,0.0474893,0.0143304,-3.55369e-05
4538,-48.0,36.0,1.8427e-05,  -206.419E-06,   64.4521E-03,   25.1721E-03,0.0479027,0.0144611,-3.29446e-05
4539,-49.0,36.0,4.6192e-06,  -23.9443E-06,   64.4523E-03,   6.29644E-03,0.0481033,0.0145284,-2.11186e-05
4544,-50.0,36.0,0.0,  -13.8827E-42,   64.4524E-03,           -0.,0.0481511,0.0145462,-1.24317e-05
4545,50.0,35.0,0.0,      -1.01048,   64.4510E-03,           -0.,0.0481769,0.0145468,9.37085e-06
4550,49.0,35.0,4.584380000000001e-06,      -1.01046,   64.4509E-03,   6.29938E-03,0.0481206,0.0145275,1.64395e-05
4553,48.0,35.0,1.82944e-05,      -1.01028,   64.4507E-03,   25.1819E-03,0.0479044,0.0144561,2.61557e-05
4554,47.0,35.0,4.1026e-05,      -1.00978,   64.4505E-03,   56.5879E-03,0.04748,0.0143213,2.89356e-05
4559,46.0,35.0,7.264149999999999e-05,      -1.00881,   64.4503E-03,   100.402E-03,0.0468476,0.0141252,2.77025e-05
4560,45.0,35.0,0.000112972,      -1.00723,   64.4502E-03,   156.451E-03,0.0460114,0.0138687,2.51673e-05
4565,44.0,35.0,0.000161819,      -1.00491,   64.4501E-03,   224.510E-03,0.0449791,0.0135531,2.27297e-05
4568,43.0,35.0,0.00021895900000000002,      -1.00171,   64.4501E-03,   304.298E-03,0.0437597,0.0131804,2.04563e-05
4569,42.0,35.0,0.00028414099999999996,  -997.536E-03,   64.4501E-03,   395.488E-03,0.042363,0.0127537,1.77696e-05
4574,41.0,35.0,0.00035709,  -992.287E-03,   64.4502E-03,   497.702E-03,0.040798,0.012277,1.37625e-05
4575,40.0,35.0,0.000437506,  -985.891E-03,   64.4504E-03,   610.522E-03,0.0390734,0.0117545,7.98587e-06
4580,39.0,35.0,0.000525064,  -978.287E-03,   64.4506E-03,   733.490E-03,0.0371971,0.01119,3.40163e-07
4583,38.0,35.0,0.000619416,  -969.439E-03,   64.4510E-03,   866.106E-03,0.0351766,0.0105869,-8.64322e-06
4584,37.0,35.0,0.000720189,  -959.327E-03,   64.4515E-03,       1.00784,0.0330194,0.00994785,-1.81913e-05
4589,36.0,35.0,0.000826989,  -947.951E-03,   64.4521E-03,       1.15812,0.030733,0.0092747,-2.72809e-05
4590,35.0,35.0,0.0009393989999999999,  -935.331E-03,   64.4528E-03,       1.31635,0.0283253,0.00856873,-3.49786e-05
4595,34.0,35.0,0.00105698,  -921.509E-03,   64.4535E-03,       1.48191,0.0258044,0.00783095,-4.04514e-05
4598,33.0,35.0,0.00117928,  -906.542E-03,   64.4543E-03,       1.65413,0.0231793,0.00706228,-4.31459e-05
4599,32.0,35.0,0.00130581,  -890.506E-03,   64.4550E-03,       1.83235,0.0204593,0.00626385,-4.27573e-05
4604,31.0,35.0,0.00143609,  -873.496E-03,   64.4556E-03,       2.01586,0.0176547,0.00543715,-3.9284e-05
4605,30.0,35.0,0.00156961,  -855.619E-03,   64.4562E-03,       2.20395,0.0147761,0.00458424,-3.29724e-05
4610,29.0,35.0,0.00170584,  -836.998E-03,   64.4566E-03,       2.39587,0.0118351,0.00370782,-2.4303e-05
4613,28.0,35.0,0.00184426,  -817.768E-03,   64.4570E-03,       2.59088,0.00884406,0.00281125,-1.39258e-05
4614,27.0,35.0,0.00198432,  -798.071E-03,   64.4573E-03,       2.78821,0.0058157,0.00189854,-2.61172e-06
4619,26.0,35.0,0.00212549,  -778.059E-03,   64.4574E-03,       2.98711,0.00276328,0.000974231,8.81617e-06
4620,25.0,35.0,0.00226719,  -757.888E-03,   64.4574E-03,       3.18678,-0.000299698,4.32453e-05,1.9545e-05
4625,24.0,35.0,0.00240889,  -737.717E-03,   64.4574E-03,       3.38645,-0.0033598,-0.000889294,2.88383e-05
4628,23.0,35.0,0.00255001,  -717.704E-03,   64.4572E-03,       3.58535,-0.00640382,-0.00181826,3.60931e-05
4629,22.0,35.0,0.00269002,  -698.006E-03,   64.4569E-03,       3.78269,-0.00941905,-0.00273868,4.08879e-05
4634,21.0,35.0,0.00282835,  -678.774E-03,   64.4566E-03,       3.97771,-0.0123934,-0.00364592,4.30151e-05
4635,20.0,35.0,0.00296447,  -660.151E-03,   64.4561E-03,       4.16965,-0.0153155,-0.00453573,4.2493e-05
4640,19.0,35.0,0.00309784,  -642.272E-03,   64.4556E-03,       4.35774,-0.0181746,-0.00540433,3.95571e-05
4643,18.0,35.0,0.00322793,  -625.259E-03,   64.4550E-03,       4.54127,-0.0209608,-0.00624834,3.46295e-05
4644,17.0,35.0,0.00335423,  -609.220E-03,   64.4543E-03,       4.71951,-0.0236644,-0.00706479,2.82698e-05
4649,16.0,35.0,0.00347625,  -594.249E-03,   64.4536E-03,       4.89175,-0.0262764,-0.00785102,2.11131e-05
4650,15.0,35.0,0.00359349,  -580.423E-03,   64.4530E-03,       5.05733,-0.0287876,-0.00860454,1.38021e-05
4655,14.0,35.0,0.00370551,  -567.801E-03,   64.4523E-03,       5.21558,-0.0311892,-0.00932303,6.9229e-06
4658,13.0,35.0,0.00381185,  -556.422E-03,   64.4517E-03,       5.36588,-0.0334724,-0.0100042,9.50692e-07
4659,12.0,35.0,0.00391209,  -546.307E-03,   64.4512E-03,       5.50763,-0.0356283,-0.0106459,-3.78767e-06
4664,11.0,35.0,0.00400585,  -537.457E-03,   64.4508E-03,       5.64026,-0.0376482,-0.0112457,-7.13048e-06
4665,10.0,35.0,0.00409275,  -529.851E-03,   64.4505E-03,       5.76324,-0.0395236,-0.0118017,-9.07732e-06
4670,9.0,35.0,0.00417244,  -523.453E-03,   64.4503E-03,       5.87608,-0.0412463,-0.0123115,-9.7664e-06
4673,8.0,35.0,0.00424462,  -518.202E-03,   64.4503E-03,       5.97831,-0.0428087,-0.0127734,-9.438e-06
4674,7.0,35.0,0.00430899,  -514.024E-03,   64.4504E-03,       6.06953,-0.0442039,-0.0131853,-8.38967e-06
4679,6.0,35.0,0.00436531,  -510.826E-03,   64.4506E-03,       6.14935,-0.0454254,-0.0135456,-6.93011e-06
4680,5.0,35.0,0.00441334,  -508.497E-03,   64.4508E-03,       6.21746,-0.046468,-0.0138528,-5.33741e-06
4685,4.0,35.0,0.0044529,  -506.916E-03,   64.4510E-03,       6.27357,-0.0473271,-0.0141059,-3.82684e-06
4688,3.0,35.0,0.00448383,  -505.947E-03,   64.4513E-03,       6.31745,-0.0479989,-0.0143036,-2.53119e-06
4689,2.0,35.0,0.00450601,  -505.448E-03,   64.4515E-03,       6.34893,-0.0484808,-0.0144454,-1.49519e-06
4694,1.0,35.0,0.00451936,  -505.265E-03,   64.4516E-03,       6.36786,-0.0487707,-0.0145307,-6.83419e-07
4695,-2.17426e-29,35.0,0.00452381,  -505.241E-03,   64.4516E-03,       6.37418,-0.0488674,-0.0145592,-3.55271e-14
4700,-1.0,35.0,0.00451936,  -505.217E-03,   64.4516E-03,       6.36786,-0.0487707,-0.0145307,6.83419e-07
4703,-2.0,35.0,0.00450601,  -505.034E-03,   64.4515E-03,       6.34893,-0.0484808,-0.0144454,1.49519e-06
4704,-3.0,35.0,0.00448383,  -504.534E-03,   64.4513E-03,       6.31745,-0.0479989,-0.0143036,2.53119e-06
4709,-4.0,35.0,0.0044529,  -503.566E-03,   64.4510E-03,       6.27357,-0.0473271,-0.0141059,3.82684e-06
4710,-5.0,35.0,0.00441334,  -501.985E-03,   64.4508E-03,       6.21746,-0.046468,-0.0138528,5.33741e-06
4715,-6.0,35.0,0.00436531,  -499.656E-03,   64.4506E-03,       6.14935,-0.0454254,-0.0135456,6.93011e-06
4718,-7.0,35.0,0.00430899,  -496.457E-03,   64.4504E-03,       6.06953,-0.0442039,-0.0131853,8.38967e-06
4719,-8.0,35.0,0.00424462,  -492.279E-03,   64.4503E-03,       5.97831,-0.0428087,-0.0127734,9.438e-06
4724,-9.0,35.0,0.00417244,  -487.029E-03,   64.4503E-03,       5.87608,-0.0412463,-0.0123115,9.7664e-06
4725,-10.0,35.0,0.00409275,  -480.630E-03,   64.4505E-03,       5.76324,-0.0395236,-0.0118017,9.07732e-06
4730,-11.0,35.0,0.00400585,  -473.025E-03,   64.4508E-03,       5.64026,-0.0376482,-0.0112457,7.13048e-06
4733,-12.0,35.0,0.00391209,  -464.175E-03,   64.4512E-03,       5.50763,-0.0356283,-0.0106459,3.78767e-06
4734,-13.0,35.0,0.00381185,  -454.060E-03,   64.4517E-03,       5.36588,-0.0334724,-0.0100042,-9.50692e-07
4739,-14.0,35.0,0.00370551,  -442.681E-03,   64.4523E-03,       5.21558,-0.0311892,-0.00932303,-6.9229e-06
4740,-15.0,35.0,0.00359349,  -430.059E-03,   64.4530E-03,       5.05733,-0.0287876,-0.00860454,-1.38021e-05
4745,-16.0,35.0,0.00347625,  -416.233E-03,   64.4536E-03,       4.89175,-0.0262764,-0.00785102,-2.11131e-05
4748,-17.0,35.0,0.00335423,  -401.262E-03,   64.4543E-03,       4.71951,-0.0236644,-0.00706479,-2.82698e-05
4749,-18.0,35.0,0.00322793,  -385.223E-03,   64.4550E-03,       4.54127,-0.0209608,-0.00624834,-3.46295e-05
4754,-19.0,35.0,0.00309784,  -368.210E-03,   64.4556E-03,       4.35774,-0.0181746,-0.00540433,-3.95571e-05
4755,-20.0,35.0,0.00296447,  -350.331E-03,   64.4561E-03,       4.16965,-0.0153155,-0.00453573,-4.2493e-05
4760,-21.0,35.0,0.00282835,  -331.708E-03,   64.4566E-03,       3.97771,-0.0123934,-0.00364592,-4.30151e-05
4763,-22.0,35.0,0.00269002,  -312.475E-03,   64.4569E-03,       3.78269,-0.00941905,-0.00273868,-4.08879e-05
4764,-23.0,35.0,0.00255001,  -292.777E-03,   64.4572E-03,       3.58535,-0.00640382,-0.00181826,-3.60931e-05
4769,-24.0,35.0,0.00240889,  -272.765E-03,   64.4574E-03,       3.38645,-0.0033598,-0.000889294,-2.88383e-05
4770,-25.0,35.0,0.00226719,  -252.594E-03,   64.4574E-03,       3.18678,-0.000299698,4.32453e-05,-1.9545e-05
4775,-26.0,35.0,0.00212549,  -232.423E-03,   64.4574E-03,       2.98711,0.00276328,0.000974231,-8.81617e-06
4776,-27.0,35.0,0.00198432,  -212.411E-03,   64.4573E-03,       2.78821,0.0058157,0.00189854,2.61172e-06
4781,-28.0,35.0,0.00184426,  -192.714E-03,   64.4570E-03,       2.59088,0.00884406,0.00281125,1.39258e-05
4782,-29.0,35.0,0.00170584,  -173.483E-03,   64.4566E-03,       2.39587,0.0118351,0.00370782,2.4303e-05
4787,-30.0,35.0,0.00156961,  -154.863E-03,   64.4562E-03,       2.20395,0.0147761,0.00458424,3.29724e-05
4790,-31.0,35.0,0.00143609,  -136.986E-03,   64.4556E-03,       2.01586,0.0176547,0.00543715,3.9284e-05
4791,-32.0,35.0,0.00130581,  -119.976E-03,   64.4550E-03,       1.83235,0.0204593,0.00626385,4.27573e-05
4796,-33.0,35.0,0.00117928,  -103.940E-03,   64.4543E-03,       1.65413,0.0231793,0.00706228,4.31459e-05
4797,-34.0,35.0,0.00105698,  -88.9729E-03,   64.4535E-03,       1.48191,0.0258044,0.00783095,4.04514e-05
4802,-35.0,35.0,0.0009393989999999999,  -75.1504E-03,   64.4528E-03,       1.31635,0.0283253,0.00856873,3.49786e-05
4805,-36.0,35.0,0.000826989,  -62.5312E-03,   64.4521E-03,       1.15812,0.030733,0.0092747,2.72809e-05
4806,-37.0,35.0,0.000720189,  -51.1552E-03,   64.4515E-03,       1.00784,0.0330194,0.00994785,1.81913e-05
4811,-38.0,35.0,0.000619416,  -41.0428E-03,   64.4510E-03,   866.106E-03,0.0351766,0.0105869,8.64322e-06
4812,-39.0,35.0,0.000525064,  -32.1945E-03,   64.4506E-03,   733.490E-03,0.0371971,0.01119,-3.40162e-07
4817,-40.0,35.0,0.000437506,  -24.5913E-03,   64.4504E-03,   610.522E-03,0.0390734,0.0117545,-7.98587e-06
4820,-41.0,35.0,0.00035709,  -18.1943E-03,   64.4502E-03,   497.702E-03,0.040798,0.012277,-1.37625e-05
4821,-42.0,35.0,0.00028414099999999996,  -12.9460E-03,   64.4501E-03,   395.488E-03,0.042363,0.0127537,-1.77696e-05
4826,-43.0,35.0,0.00021895900000000002,  -8.77014E-03,   64.4501E-03,   304.298E-03,0.0437597,0.0131804,-2.04563e-05
4827,-44.0,35.0,0.000161819,  -5.57385E-03,   64.4501E-03,   224.510E-03,0.0449791,0.0135531,-2.27297e-05
4832,-45.0,35.0,0.000112972,  -3.24810E-03,   64.4502E-03,   156.451E-03,0.0460114,0.0138687,-2.51673e-05
4835,-46.0,35.0,7.264149999999999e-05,  -1.67002E-03,   64.4503E-03,   100.402E-03,0.0468476,0.0141252,-2.77025e-05
4836,-47.0,35.0,4.1026e-05,  -704.422E-06,   64.4505E-03,   56.5879E-03,0.04748,0.0143213,-2.89356e-05
4841,-48.0,35.0,1.82944e-05,  -206.461E-06,   64.4507E-03,   25.1819E-03,0.0479044,0.0144561,-2.61557e-05
4842,-49.0,35.0,4.584380000000001e-06,  -23.8962E-06,   64.4509E-03,   6.29938E-03,0.0481206,0.0145275,-1.64395e-05
4847,-50.0,35.0,0.0,  -13.7972E-42,   64.4510E-03,           -0.,0.0481769,0.0145468,-9.37085e-06
4850,50.0,34.0,0.0,      -1.01048,   64.4496E-03,           -0.,0.0481969,0.014549,7.26389e-06
4851,49.0,34.0,4.55075e-06,      -1.01046,   64.4496E-03,   6.30161E-03,0.0481344,0.0145276,1.27485e-05
4856,48.0,34.0,1.81654e-05,      -1.01028,   64.4494E-03,   25.1893E-03,0.0479073,0.0144537,2.07087e-05
4857,47.0,34.0,4.07506e-05,      -1.00978,   64.4493E-03,   56.6009E-03,0.0474749,0.0143173,2.3182e-05
4862,46.0,34.0,7.217729999999999e-05,      -1.00881,   64.4492E-03,   100.419E-03,0.0468379,0.0141199,2.22022e-05
4865,45.0,34.0,0.000112284,      -1.00723,   64.4491E-03,   156.470E-03,0.046,0.013863,1.9707e-05
4866,44.0,34.0,0.000160878,      -1.00491,   64.4491E-03,   224.528E-03,0.0449677,0.0135481,1.70105e-05
4871,43.0,34.0,0.00021774,      -1.00171,   64.4492E-03,   304.314E-03,0.0437491,0.0131771,1.45677e-05
4872,42.0,34.0,0.000282621,  -997.536E-03,   64.4493E-03,   395.499E-03,0.0423529,0.0127525,1.20971e-05
4877,41.0,34.0,0.000355247,  -992.288E-03,   64.4495E-03,   497.710E-03,0.0407881,0.0122778,9.13623e-06
4880,40.0,34.0,0.00043531900000000004,  -985.891E-03,   64.4497E-03,   610.527E-03,0.0390633,0.0117565,5.17885e-06
4881,39.0,34.0,0.0005225130000000001,  -978.288E-03,   64.4501E-03,   733.491E-03,0.0371866,0.0111922,1.19738e-07
4886,38.0,34.0,0.0006164780000000001,  -969.440E-03,   64.4505E-03,   866.104E-03,0.0351659,0.0105882,-5.90093e-06
4887,37.0,34.0,0.0007168439999999999,  -959.328E-03,   64.4510E-03,       1.00783,0.033009,0.00994712,-1.23698e-05
4892,36.0,34.0,0.000823215,  -947.952E-03,   64.4515E-03,       1.15811,0.0307234,0.0092711,-1.86856e-05
4895,35.0,34.0,0.0009351730000000001,  -935.334E-03,   64.4521E-03,       1.31634,0.0283171,0.00856177,-2.41634e-05
4896,34.0,34.0,0.00105228,  -921.511E-03,   64.4527E-03,       1.48189,0.0257984,0.00782046,-2.82484e-05
4901,33.0,34.0,0.00117408,  -906.544E-03,   64.4532E-03,       1.65412,0.0231759,0.00704845,-3.05082e-05
4902,32.0,34.0,0.0013001,  -890.509E-03,   64.4538E-03,       1.83234,0.0204588,0.00624715,-3.07253e-05
4907,31.0,34.0,0.00142985,  -873.499E-03,   64.4543E-03,       2.01585,0.0176572,0.00541834,-2.88555e-05
4910,30.0,34.0,0.00156282,  -855.622E-03,   64.4547E-03,       2.20393,0.0147816,0.00456429,-2.50404e-05
4911,29.0,34.0,0.00169849,  -837.001E-03,   64.4551E-03,       2.39586,0.0118434,0.00368783,-1.9555e-05
4916,28.0,34.0,0.00183633,  -817.770E-03,   64.4553E-03,       2.59087,0.00885458,0.00279238,-1.27888e-05
4917,27.0,34.0,0.0019758,  -798.073E-03,   64.4555E-03,       2.78821,0.00582792,0.00188192,-5.20047e-06
4922,26.0,34.0,0.00211636,  -778.060E-03,   64.4556E-03,       2.98711,0.00277653,0.000960862,2.70938e-06
4925,25.0,34.0,0.00225746,  -757.889E-03,   64.4556E-03,       3.18679,-0.000286158,3.39314e-05,1.04342e-05
4926,24.0,34.0,0.00239855,  -737.717E-03,   64.4556E-03,       3.38647,-0.0033467,-0.000894013,1.74912e-05
4931,23.0,34.0,0.00253906,  -717.703E-03,   64.4554E-03,       3.58537,-0.00639184,-0.00181814,2.34529e-05
4932,22.0,34.0,0.00267845,  -698.005E-03,   64.4552E-03,       3.78272,-0.00940875,-0.0027338,2.79762e-05
4937,21.0,34.0,0.00281618,  -678.772E-03,   64.4550E-03,       3.97774,-0.0123852,-0.00363664,3.08275e-05
4940,20.0,34.0,0.00295169,  -660.149E-03,   64.4546E-03,       4.16967,-0.0153095,-0.00452268,3.1902e-05
4941,19.0,34.0,0.00308447,  -642.270E-03,   64.4542E-03,       4.35777,-0.018171,-0.00538829,3.12329e-05
4946,18.0,34.0,0.00321397,  -625.256E-03,   64.4537E-03,       4.54130,-0.0209593,-0.00623026,2.89874e-05
4947,17.0,34.0,0.00333971,  -609.218E-03,   64.4532E-03,       4.71953,-0.0236649,-0.00704564,2.54503e-05
4952,16.0,34.0,0.00346117,  -594.248E-03,   64.4526E-03,       4.89178,-0.0262783,-0.00783174,2.09941e-05
4955,15.0,34.0,0.00357788,  -580.422E-03,   64.4521E-03,       5.05735,-0.0287907,-0.00858603,1.604e-05
4956,14.0,34.0,0.00368938,  -567.801E-03,   64.4515E-03,       5.21560,-0.031193,-0.00930605,1.10132e-05
4961,13.0,34.0,0.00379524,  -556.422E-03,   64.4510E-03,       5.36589,-0.0334767,-0.00998939,6.3003e-06
4962,12.0,34.0,0.00389503,  -546.308E-03,   64.4505E-03,       5.50764,-0.0356329,-0.0106337,2.21221e-06
4967,11.0,34.0,0.00398835,  -537.457E-03,   64.4501E-03,       5.64027,-0.0376531,-0.0112365,-1.04088e-06
4970,10.0,34.0,0.00407485,  -529.853E-03,   64.4499E-03,       5.76325,-0.0395288,-0.0117955,-3.36075e-06
4971,9.0,34.0,0.00415417,  -523.454E-03,   64.4497E-03,       5.87608,-0.0412519,-0.0123084,-4.75736e-06
4976,8.0,34.0,0.00422601,  -518.204E-03,   64.4496E-03,       5.97832,-0.042815,-0.0127732,-5.33177e-06
4977,7.0,34.0,0.00429009,  -514.026E-03,   64.4496E-03,       6.06953,-0.0442109,-0.0131879,-5.24914e-06
4982,6.0,34.0,0.00434614,  -510.826E-03,   64.4497E-03,       6.14936,-0.0454334,-0.0135507,-4.70651e-06
4985,5.0,34.0,0.00439395,  -508.497E-03,   64.4499E-03,       6.21746,-0.046477,-0.0138601,-3.90034e-06
4986,4.0,34.0,0.00443332,  -506.916E-03,   64.4500E-03,       6.27358,-0.0473371,-0.014115,-2.99865e-06
4991,3.0,34.0,0.00446411,  -505.948E-03,   64.4502E-03,       6.31746,-0.0480098,-0.0143142,-2.1214e-06
4992,2.0,34.0,0.00448619,  -505.448E-03,   64.4504E-03,       6.34894,-0.0484924,-0.014457,-1.33135e-06
4997,1.0,34.0,0.00449947,  -505.265E-03,   64.4505E-03,       6.36787,-0.0487828,-0.0145429,-6.36077e-07
5000,-2.0718699999999998e-29,34.0,0.00450391,  -505.241E-03,   64.4505E-03,       6.37420,-0.0488797,-0.0145715,-3.55271e-14
5001,-1.0,34.0,0.00449947,  -505.217E-03,   64.4505E-03,       6.36787,-0.0487828,-0.0145429,6.36077e-07
5006,-2.0,34.0,0.00448619,  -505.034E-03,   64.4504E-03,       6.34894,-0.0484924,-0.014457,1.33135e-06
5007,-3.0,34.0,0.00446411,  -504.534E-03,   64.4502E-03,       6.31746,-0.0480098,-0.0143142,2.1214e-06
5012,-4.0,34.0,0.00443332,  -503.566E-03,   64.4500E-03,       6.27358,-0.0473371,-0.014115,2.99865e-06
5015,-5.0,34.0,0.00439395,  -501.984E-03,   64.4499E-03,       6.21746,-0.046477,-0.0138601,3.90034e-06
5016,-6.0,34.0,0.00434614,  -499.655E-03,   64.4497E-03,       6.14936,-0.0454334,-0.0135507,4.70651e-06
5021,-7.0,34.0,0.00429009,  -496.456E-03,   64.4496E-03,       6.06953,-0.0442109,-0.0131879,5.24914e-06
5022,-8.0,34.0,0.00422601,  -492.278E-03,   64.4496E-03,       5.97832,-0.042815,-0.0127732,5.33177e-06
5027,-9.0,34.0,0.00415417,  -487.028E-03,   64.4497E-03,       5.87608,-0.0412519,-0.0123084,4.75736e-06
5030,-10.0,34.0,0.00407485,  -480.629E-03,   64.4499E-03,       5.76325,-0.0395288,-0.0117955,3.36075e-06
5031,-11.0,34.0,0.00398835,  -473.024E-03,   64.4501E-03,       5.64027,-0.0376531,-0.0112365,1.04088e-06
5036,-12.0,34.0,0.00389503,  -464.174E-03,   64.4505E-03,       5.50764,-0.0356329,-0.0106337,-2.21221e-06
5037,-13.0,34.0,0.00379524,  -454.060E-03,   64.4510E-03,       5.36589,-0.0334767,-0.00998939,-6.3003e-06
5042,-14.0,34.0,0.00368938,  -442.681E-03,   64.4515E-03,       5.21560,-0.031193,-0.00930605,-1.10132e-05
5045,-15.0,34.0,0.00357788,  -430.059E-03,   64.4521E-03,       5.05735,-0.0287907,-0.00858603,-1.604e-05
5046,-16.0,34.0,0.00346117,  -416.234E-03,   64.4526E-03,       4.89178,-0.0262783,-0.00783174,-2.09941e-05
5051,-17.0,34.0,0.00333971,  -401.264E-03,   64.4532E-03,       4.71953,-0.0236649,-0.00704564,-2.54503e-05
5052,-18.0,34.0,0.00321397,  -385.225E-03,   64.4537E-03,       4.54130,-0.0209593,-0.00623026,-2.89874e-05
5057,-19.0,34.0,0.00308447,  -368.212E-03,   64.4542E-03,       4.35777,-0.018171,-0.00538829,-3.12329e-05
5060,-20.0,34.0,0.00295169,  -350.333E-03,   64.4546E-03,       4.16967,-0.0153095,-0.00452268,-3.1902e-05
5061,-21.0,34.0,0.00281618,  -331.710E-03,   64.4550E-03,       3.97774,-0.0123852,-0.00363665,-3.08275e-05
5066,-22.0,34.0,0.00267845,  -312.477E-03,   64.4552E-03,       3.78272,-0.00940875,-0.0027338,-2.79762e-05
5067,-23.0,34.0,0.00253906,  -292.778E-03,   64.4554E-03,       3.58537,-0.00639184,-0.00181814,-2.34529e-05
5072,-24.0,34.0,0.00239855,  -272.765E-03,   64.4556E-03,       3.38647,-0.0033467,-0.000894013,-1.74912e-05
5075,-25.0,34.0,0.00225746,  -252.593E-03,   64.4556E-03,       3.18679,-0.000286158,3.39314e-05,-1.04342e-05
5076,-26.0,34.0,0.00211636,  -232.422E-03,   64.4556E-03,       2.98711,0.00277653,0.000960862,-2.70938e-06
5081,-27.0,34.0,0.0019758,  -212.409E-03,   64.4555E-03,       2.78821,0.00582792,0.00188192,5.20047e-06
5082,-28.0,34.0,0.00183633,  -192.712E-03,   64.4553E-03,       2.59087,0.00885458,0.00279238,1.27888e-05
5087,-29.0,34.0,0.00169849,  -173.481E-03,   64.4551E-03,       2.39586,0.0118434,0.00368783,1.9555e-05
5090,-30.0,34.0,0.00156282,  -154.860E-03,   64.4547E-03,       2.20393,0.0147816,0.00456429,2.50404e-05
5091,-31.0,34.0,0.00142985,  -136.983E-03,   64.4543E-03,       2.01585,0.0176572,0.00541834,2.88555e-05
5096,-32.0,34.0,0.0013001,  -119.973E-03,   64.4538E-03,       1.83234,0.0204588,0.00624715,3.07253e-05
5097,-33.0,34.0,0.00117408,  -103.937E-03,   64.4532E-03,       1.65412,0.0231759,0.00704845,3.05082e-05
5102,-34.0,34.0,0.00105228,  -88.9704E-03,   64.4527E-03,       1.48189,0.0257984,0.00782046,2.82484e-05
5105,-35.0,34.0,0.0009351730000000001,  -75.1482E-03,   64.4521E-03,       1.31634,0.0283171,0.00856177,2.41634e-05
5106,-36.0,34.0,0.000823215,  -62.5293E-03,   64.4515E-03,       1.15811,0.0307234,0.0092711,1.86856e-05
5111,-37.0,34.0,0.0007168439999999999,  -51.1537E-03,   64.4510E-03,       1.00783,0.033009,0.00994712,1.23698e-05
5112,-38.0,34.0,0.0006164780000000001,  -41.0416E-03,   64.4505E-03,   866.104E-03,0.0351659,0.0105882,5.90093e-06
5117,-39.0,34.0,0.0005225130000000001,  -32.1936E-03,   64.4501E-03,   733.491E-03,0.0371866,0.0111922,-1.19738e-07
5120,-40.0,34.0,0.00043531900000000004,  -24.5907E-03,   64.4497E-03,   610.527E-03,0.0390633,0.0117565,-5.17885e-06
5121,-41.0,34.0,0.000355247,  -18.1940E-03,   64.4495E-03,   497.710E-03,0.0407881,0.0122778,-9.13623e-06
5126,-42.0,34.0,0.000282621,  -12.9459E-03,   64.4493E-03,   395.499E-03,0.0423529,0.0127525,-1.20971e-05
5127,-43.0,34.0,0.00021774,  -8.77038E-03,   64.4492E-03,   304.314E-03,0.0437491,0.0131771,-1.45677e-05
5132,-44.0,34.0,0.000160878,  -5.57419E-03,   64.4491E-03,   224.528E-03,0.0449677,0.0135481,-1.70105e-05
5135,-45.0,34.0,0.000112284,  -3.24851E-03,   64.4491E-03,   156.470E-03,0.046,0.013863,-1.9707e-05
5136,-46.0,34.0,7.217729999999999e-05,  -1.67031E-03,   64.4492E-03,   100.419E-03,0.0468379,0.0141199,-2.22022e-05
5141,-47.0,34.0,4.07506e-05,  -704.593E-06,   64.4493E-03,   56.6009E-03,0.0474749,0.0143173,-2.3182e-05
5142,-48.0,34.0,1.81654e-05,  -206.474E-06,   64.4494E-03,   25.1893E-03,0.0479073,0.0144537,-2.07087e-05
5147,-49.0,34.0,4.55075e-06,  -23.8677E-06,   64.4496E-03,   6.30161E-03,0.0481344,0.0145276,-1.27485e-05
5150,-50.0,34.0,0.0,  -13.7159E-42,   64.4496E-03,           -0.,0.0481969,0.014549,-7.26389e-06
5151,50.0,33.0,0.0,      -1.01048,   64.4484E-03,           -0.,0.0482119,0.0145488,5.69302e-06
5156,49.0,33.0,4.51851e-06,      -1.01046,   64.4483E-03,   6.30331E-03,0.0481456,0.0145274,1.01197e-05
5157,48.0,33.0,1.80412e-05,      -1.01028,   64.4482E-03,   25.1950E-03,0.0479108,0.0144527,1.64824e-05
5162,47.0,33.0,4.04837e-05,      -1.00978,   64.4481E-03,   56.6109E-03,0.0474723,0.0143155,1.8562e-05
5165,46.0,33.0,7.17251e-05,      -1.00881,   64.4480E-03,   100.432E-03,0.0468317,0.0141178,1.76015e-05
5166,45.0,33.0,0.000111611,      -1.00723,   64.4480E-03,   156.484E-03,0.0459924,0.0138612,1.51465e-05
5171,44.0,33.0,0.000159954,      -1.00491,   64.4481E-03,   224.542E-03,0.0449603,0.0135472,1.23277e-05
5172,43.0,33.0,0.00021653700000000002,      -1.00171,   64.4482E-03,   304.326E-03,0.0437425,0.0131778,9.7105e-06
5177,42.0,33.0,0.000281118,  -997.536E-03,   64.4484E-03,   395.508E-03,0.0423472,0.0127552,7.3629e-06
5180,41.0,33.0,0.000353422,  -992.288E-03,   64.4487E-03,   497.715E-03,0.0407829,0.0122823,4.98313e-06
5181,40.0,33.0,0.000433151,  -985.892E-03,   64.4490E-03,   610.529E-03,0.0390582,0.0117624,2.28229e-06
5186,39.0,33.0,0.000519982,  -978.289E-03,   64.4494E-03,   733.490E-03,0.0371812,0.0111985,-9.79089e-07
5187,38.0,33.0,0.000613566,  -969.442E-03,   64.4498E-03,   866.101E-03,0.0351601,0.0105939,-4.75405e-06
5192,37.0,33.0,0.0007135310000000001,  -959.330E-03,   64.4503E-03,       1.00783,0.0330028,0.00995109,-8.8562e-06
5195,36.0,33.0,0.000819482,  -947.954E-03,   64.4507E-03,       1.15811,0.0307172,0.00927247,-1.29068e-05
5196,35.0,33.0,0.0009310010000000001,  -935.335E-03,   64.4512E-03,       1.31633,0.0283112,0.00855991,-1.65256e-05
5201,34.0,33.0,0.00104765,  -921.513E-03,   64.4517E-03,       1.48189,0.0257933,0.00781512,-1.93299e-05
5202,33.0,33.0,0.00116898,  -906.546E-03,   64.4522E-03,       1.65411,0.023172,0.0070397,-2.10536e-05
5207,32.0,33.0,0.00129451,  -890.511E-03,   64.4526E-03,       1.83233,0.0204565,0.00623543,-2.15235e-05
5210,31.0,33.0,0.00142375,  -873.501E-03,   64.4530E-03,       2.01584,0.0176568,0.00540436,-2.06964e-05
5211,30.0,33.0,0.00155619,  -855.624E-03,   64.4533E-03,       2.20393,0.0147833,0.00454897,-1.86176e-05
5216,29.0,33.0,0.00169132,  -837.003E-03,   64.4536E-03,       2.39585,0.0118472,0.00367223,-1.54183e-05
5217,28.0,33.0,0.00182862,  -817.771E-03,   64.4538E-03,       2.59087,0.00886045,0.0027776,-1.12815e-05
5222,27.0,33.0,0.00196753,  -798.074E-03,   64.4539E-03,       2.78821,0.00583558,0.00186897,-6.43441e-06
5225,26.0,33.0,0.00210753,  -778.061E-03,   64.4540E-03,       2.98711,0.00278558,0.00095061,-1.13206e-06
5226,25.0,33.0,0.00224806,  -757.889E-03,   64.4540E-03,       3.18679,-0.000276267,2.701e-05,4.34769e-06
5231,24.0,33.0,0.00238856,  -737.717E-03,   64.4539E-03,       3.38648,-0.00333659,-0.000897246,9.71379e-06
5232,23.0,33.0,0.0025285,  -717.703E-03,   64.4538E-03,       3.58538,-0.00638217,-0.00181762,1.4672e-05
5237,22.0,33.0,0.00266732,  -698.004E-03,   64.4536E-03,       3.78273,-0.00940014,-0.00272975,1.8941e-05
5240,21.0,33.0,0.00280448,  -678.771E-03,   64.4534E-03,       3.97775,-0.0123782,-0.00362951,2.2273e-05
5241,20.0,33.0,0.00293943,  -660.148E-03,   64.4531E-03,       4.16969,-0.0153045,-0.00451311,2.44763e-05
5246,19.0,33.0,0.00307164,  -642.269E-03,   64.4528E-03,       4.35779,-0.0181681,-0.00537704,2.54373e-05
5247,18.0,33.0,0.00320061,  -625.256E-03,   64.4524E-03,       4.54132,-0.0209586,-0.0062181,2.51362e-05
5252,17.0,33.0,0.00332581,  -609.217E-03,   64.4520E-03,       4.71955,-0.0236661,-0.00703336,2.36535e-05
5255,16.0,33.0,0.00344676,  -594.247E-03,   64.4515E-03,       4.89180,-0.0262812,-0.00782003,2.11644e-05
5256,15.0,33.0,0.00356297,  -580.422E-03,   64.4511E-03,       5.05737,-0.0287948,-0.00857547,1.79209e-05
5261,14.0,33.0,0.003674,  -567.800E-03,   64.4506E-03,       5.21561,-0.031198,-0.00929708,1.42241e-05
5262,13.0,33.0,0.0037794,  -556.422E-03,   64.4502E-03,       5.36591,-0.033482,-0.00998234,1.03902e-05
5267,12.0,33.0,0.00387876,  -546.308E-03,   64.4497E-03,       5.50765,-0.0356383,-0.0106287,6.71568e-06
5270,11.0,33.0,0.00397168,  -537.458E-03,   64.4494E-03,       5.64028,-0.0376583,-0.0112337,3.44703e-06
5271,10.0,33.0,0.00405781,  -529.853E-03,   64.4491E-03,       5.76326,-0.0395338,-0.0117949,7.58612e-07
5276,9.0,33.0,0.00413679,  -523.454E-03,   64.4489E-03,       5.87609,-0.0412568,-0.0123099,-1.25757e-06
5277,8.0,33.0,0.00420832,  -518.204E-03,   64.4488E-03,       5.97833,-0.0428197,-0.0127766,-2.59021e-06
5282,7.0,33.0,0.00427211,  -514.026E-03,   64.4488E-03,       6.06954,-0.0442157,-0.0131931,-3.29608e-06
5285,6.0,33.0,0.00432792,  -510.827E-03,   64.4488E-03,       6.14937,-0.0454384,-0.0135574,-3.47981e-06
5286,5.0,33.0,0.00437552,  -508.498E-03,   64.4489E-03,       6.21748,-0.0464823,-0.0138682,-3.2698e-06
5291,4.0,33.0,0.00441473,  -506.916E-03,   64.4490E-03,       6.27359,-0.0473428,-0.0141241,-2.79493e-06
5292,3.0,33.0,0.00444538,  -505.948E-03,   64.4492E-03,       6.31747,-0.048016,-0.0143242,-2.16568e-06
5297,2.0,33.0,0.00446736,  -505.448E-03,   64.4493E-03,       6.34895,-0.048499,-0.0144676,-1.46271e-06
5300,1.0,33.0,0.00448059,  -505.265E-03,   64.4493E-03,       6.36789,-0.0487896,-0.0145539,-7.33948e-07
5301,0.0,33.0,0.004485,  -505.241E-03,   64.4493E-03,       6.37421,-0.0488866,-0.0145827,0.0
5306,-1.0,33.0,0.00448059,  -505.217E-03,   64.4493E-03,       6.36789,-0.0487896,-0.0145539,7.33948e-07
5307,-2.0,33.0,0.00446736,  -505.034E-03,   64.4493E-03,       6.34895,-0.048499,-0.0144676,1.46271e-06
5312,-3.0,33.0,0.00444538,  -504.534E-03,   64.4492E-03,       6.31747,-0.048016,-0.0143242,2.16568e-06
5315,-4.0,33.0,0.00441473,  -503.565E-03,   64.4490E-03,       6.27359,-0.0473428,-0.0141241,2.79493e-06
5316,-5.0,33.0,0.00437552,  -501.984E-03,   64.4489E-03,       6.21748,-0.0464823,-0.0138682,3.2698e-06
5321,-6.0,33.0,0.00432792,  -499.655E-03,   64.4488E-03,       6.14937,-0.0454384,-0.0135574,3.47981e-06
5322,-7.0,33.0,0.00427211,  -496.456E-03,   64.4488E-03,       6.06954,-0.0442157,-0.0131931,3.29608e-06
5327,-8.0,33.0,0.00420832,  -492.278E-03,   64.4488E-03,       5.97833,-0.0428197,-0.0127766,2.59021e-06
5330,-9.0,33.0,0.00413679,  -487.027E-03,   64.4489E-03,       5.87609,-0.0412568,-0.0123099,1.25757e-06
5331,-10.0,33.0,0.00405781,  -480.629E-03,   64.4491E-03,       5.76326,-0.0395338,-0.0117949,-7.58612e-07
5336,-11.0,33.0,0.00397168,  -473.024E-03,   64.4494E-03,       5.64028,-0.0376583,-0.0112337,-3.44703e-06
5337,-12.0,33.0,0.00387876,  -464.174E-03,   64.4497E-03,       5.50765,-0.0356383,-0.0106287,-6.71568e-06
5342,-13.0,33.0,0.0037794,  -454.060E-03,   64.4502E-03,       5.36591,-0.033482,-0.00998234,-1.03902e-05
5345,-14.0,33.0,0.003674,  -442.681E-03,   64.4506E-03,       5.21561,-0.031198,-0.00929708,-1.42241e-05
5346,-15.0,33.0,0.00356297,  -430.060E-03,   64.4511E-03,       5.05737,-0.0287948,-0.00857547,-1.79209e-05
5351,-16.0,33.0,0.00344676,  -416.235E-03,   64.4515E-03,       4.89180,-0.0262812,-0.00782003,-2.11644e-05
5352,-17.0,33.0,0.00332581,  -401.264E-03,   64.4520E-03,       4.71955,-0.0236661,-0.00703336,-2.36535e-05
5357,-18.0,33.0,0.00320061,  -385.226E-03,   64.4524E-03,       4.54132,-0.0209586,-0.0062181,-2.51362e-05
5360,-19.0,33.0,0.00307164,  -368.213E-03,   64.4528E-03,       4.35779,-0.0181681,-0.00537704,-2.54373e-05
5361,-20.0,33.0,0.00293943,  -350.334E-03,   64.4531E-03,       4.16969,-0.0153045,-0.00451311,-2.44763e-05
5366,-21.0,33.0,0.00280448,  -331.710E-03,   64.4534E-03,       3.97775,-0.0123782,-0.00362951,-2.2273e-05
5367,-22.0,33.0,0.00266732,  -312.477E-03,   64.4536E-03,       3.78273,-0.00940014,-0.00272975,-1.8941e-05
5372,-23.0,33.0,0.0025285,  -292.778E-03,   64.4538E-03,       3.58538,-0.00638217,-0.00181762,-1.4672e-05
5375,-24.0,33.0,0.00238856,  -272.765E-03,   64.4539E-03,       3.38648,-0.00333659,-0.000897246,-9.71379e-06
5376,-25.0,33.0,0.00224806,  -252.593E-03,   64.4540E-03,       3.18679,-0.000276267,2.701e-05,-4.34769e-06
5381,-26.0,33.0,0.00210753,  -232.421E-03,   64.4540E-03,       2.98711,0.00278558,0.00095061,1.13206e-06
5382,-27.0,33.0,0.00196753,  -212.408E-03,   64.4539E-03,       2.78821,0.00583558,0.00186897,6.43441e-06
5387,-28.0,33.0,0.00182862,  -192.710E-03,   64.4538E-03,       2.59087,0.00886045,0.0027776,1.12815e-05
5390,-29.0,33.0,0.00169132,  -173.479E-03,   64.4536E-03,       2.39585,0.0118472,0.00367223,1.54183e-05
5391,-30.0,33.0,0.00155619,  -154.858E-03,   64.4533E-03,       2.20393,0.0147833,0.00454897,1.86176e-05
5396,-31.0,33.0,0.00142375,  -136.981E-03,   64.4530E-03,       2.01584,0.0176568,0.00540436,2.06964e-05
5397,-32.0,33.0,0.00129451,  -119.971E-03,   64.4526E-03,       1.83233,0.0204565,0.00623543,2.15235e-05
5402,-33.0,33.0,0.00116898,  -103.936E-03,   64.4522E-03,       1.65411,0.023172,0.0070397,2.10536e-05
5405,-34.0,33.0,0.00104765,  -88.9686E-03,   64.4517E-03,       1.48189,0.0257933,0.00781512,1.93299e-05
5406,-35.0,33.0,0.0009310010000000001,  -75.1465E-03,   64.4512E-03,       1.31633,0.0283112,0.00855991,1.65256e-05
5411,-36.0,33.0,0.000819482,  -62.5277E-03,   64.4507E-03,       1.15811,0.0307172,0.00927247,1.29068e-05
5412,-37.0,33.0,0.0007135310000000001,  -51.1522E-03,   64.4503E-03,       1.00783,0.0330028,0.00995109,8.8562e-06
5417,-38.0,33.0,0.000613566,  -41.0403E-03,   64.4498E-03,   866.101E-03,0.0351601,0.0105939,4.75405e-06
5420,-39.0,33.0,0.000519982,  -32.1925E-03,   64.4494E-03,   733.490E-03,0.0371812,0.0111985,9.79088e-07
5421,-40.0,33.0,0.000433151,  -24.5899E-03,   64.4490E-03,   610.529E-03,0.0390582,0.0117624,-2.28229e-06
5426,-41.0,33.0,0.000353422,  -18.1935E-03,   64.4487E-03,   497.715E-03,0.0407829,0.0122823,-4.98313e-06
5427,-42.0,33.0,0.000281118,  -12.9457E-03,   64.4484E-03,   395.508E-03,0.0423472,0.0127552,-7.3629e-06
5432,-43.0,33.0,0.00021653700000000002,  -8.77041E-03,   64.4482E-03,   304.326E-03,0.0437425,0.0131778,-9.7105e-06
5435,-44.0,33.0,0.000159954,  -5.57441E-03,   64.4481E-03,   224.542E-03,0.0449603,0.0135472,-1.23277e-05
5436,-45.0,33.0,0.000111611,  -3.24876E-03,   64.4480E-03,   156.484E-03,0.0459924,0.0138612,-1.51465e-05
5441,-46.0,33.0,7.17251e-05,  -1.67053E-03,   64.4480E-03,   100.432E-03,0.0468317,0.0141178,-1.76015e-05
5442,-47.0,33.0,4.04837e-05,  -704.683E-06,   64.4481E-03,   56.6109E-03,0.0474723,0.0143155,-1.8562e-05
5447,-48.0,33.0,1.80412e-05,  -206.482E-06,   64.4482E-03,   25.1950E-03,0.0479108,0.0144527,-1.64824e-05
5450,-49.0,33.0,4.51851e-06,  -23.8326E-06,   64.4483E-03,   6.30331E-03,0.0481456,0.0145274,-1.01197e-05
5451,-50.0,33.0,0.0,  -13.6346E-42,   64.4484E-03,           -0.,0.0482119,0.0145488,-5.69302e-06
5456,50.0,32.0,0.0,      -1.01048,   64.4472E-03,           -0.,0.0482247,0.0145498,4.64905e-06
5457,49.0,32.0,4.48778e-06,      -1.01046,   64.4471E-03,   6.30461E-03,0.0481549,0.0145274,8.21114e-06
5462,48.0,32.0,1.79224e-05,      -1.01028,   64.4470E-03,   25.1994E-03,0.0479141,0.0144517,1.33725e-05
5465,47.0,32.0,4.02272e-05,      -1.00978,   64.4470E-03,   56.6188E-03,0.0474711,0.0143144,1.49235e-05
5466,46.0,32.0,7.12884e-05,      -1.00881,   64.4469E-03,   100.442E-03,0.0468276,0.0141169,1.39133e-05
5471,45.0,32.0,0.00011095799999999999,      -1.00723,   64.4470E-03,   156.496E-03,0.0459873,0.0138609,1.14682e-05
5472,44.0,32.0,0.00015905299999999998,      -1.00491,   64.4471E-03,   224.553E-03,0.0449554,0.0135479,8.59679e-06
5477,43.0,32.0,0.000215363,      -1.00171,   64.4473E-03,   304.334E-03,0.0437385,0.01318,5.90701e-06
5480,42.0,32.0,0.000279645,  -997.536E-03,   64.4475E-03,   395.514E-03,0.0423443,0.0127592,3.59684e-06
5481,41.0,32.0,0.00035163,  -992.289E-03,   64.4479E-03,   497.718E-03,0.0407809,0.0122881,1.6034e-06
5486,40.0,32.0,0.00043102099999999996,  -985.893E-03,   64.4482E-03,   610.528E-03,0.0390565,0.0117694,-3.10338e-07
5487,39.0,32.0,0.000517494,  -978.290E-03,   64.4486E-03,   733.487E-03,0.0371796,0.0112062,-2.31287e-06
5492,38.0,32.0,0.000610703,  -969.443E-03,   64.4490E-03,   866.096E-03,0.0351581,0.0106012,-4.51692e-06
5495,37.0,32.0,0.000710275,  -959.331E-03,   64.4495E-03,       1.00782,0.0330002,0.00995708,-6.8583e-06
5496,36.0,32.0,0.000815816,  -947.956E-03,   64.4499E-03,       1.15810,0.0307141,0.0092763,-9.20988e-06
5501,35.0,32.0,0.000926909,  -935.337E-03,   64.4503E-03,       1.31633,0.0283077,0.00856099,-1.13575e-05
5502,34.0,32.0,0.00104312,  -921.515E-03,   64.4507E-03,       1.48188,0.0257896,0.0078131,-1.31136e-05
5507,33.0,32.0,0.00116399,  -906.547E-03,   64.4511E-03,       1.65411,0.0231686,0.00703461,-1.43056e-05
5510,32.0,32.0,0.00128904,  -890.512E-03,   64.4514E-03,       1.83233,0.0204537,0.0062276,-1.48313e-05
5511,31.0,32.0,0.00141779,  -873.501E-03,   64.4517E-03,       2.01584,0.017655,0.0053944,-1.4631e-05
5516,30.0,32.0,0.00154974,  -855.624E-03,   64.4520E-03,       2.20393,0.0147828,0.0045377,-1.36973e-05
5517,29.0,32.0,0.00168436,  -837.003E-03,   64.4522E-03,       2.39586,0.0118483,0.00366055,-1.20478e-05
5522,28.0,32.0,0.00182113,  -817.772E-03,   64.4523E-03,       2.59087,0.00886328,0.00276645,-9.72599e-06
5525,27.0,32.0,0.00195952,  -798.074E-03,   64.4524E-03,       2.78822,0.00584008,0.00185921,-6.79176e-06
5526,26.0,32.0,0.00209899,  -778.061E-03,   64.4524E-03,       2.98712,0.00279155,0.000942933,-3.3308e-06
5531,25.0,32.0,0.00223897,  -757.890E-03,   64.4524E-03,       3.18680,-0.000269183,2.18957e-05,5.40129e-07
5532,24.0,32.0,0.00237894,  -737.717E-03,   64.4524E-03,       3.38648,-0.00332889,-0.000899573,4.66412e-06
5537,23.0,32.0,0.00251834,  -717.704E-03,   64.4523E-03,       3.58539,-0.00637443,-0.00181719,8.84304e-06
5540,22.0,32.0,0.00265662,  -698.005E-03,   64.4521E-03,       3.78274,-0.00939297,-0.00272683,1.28441e-05
5541,21.0,32.0,0.00279324,  -678.772E-03,   64.4519E-03,       3.97777,-0.0123721,-0.00362454,1.64168e-05
5546,20.0,32.0,0.00292766,  -660.149E-03,   64.4517E-03,       4.16970,-0.0153,-0.00450664,1.93173e-05
5547,19.0,32.0,0.00305936,  -642.269E-03,   64.4514E-03,       4.35781,-0.0181655,-0.00536971,2.13376e-05
5552,18.0,32.0,0.00318781,  -625.256E-03,   64.4511E-03,       4.54133,-0.020958,-0.00621052,2.23337e-05
5555,17.0,32.0,0.00331252,  -609.217E-03,   64.4508E-03,       4.71957,-0.0236673,-0.00702606,2.22465e-05
5556,16.0,32.0,0.00343299,  -594.247E-03,   64.4504E-03,       4.89181,-0.026284,-0.00781348,2.11128e-05
5561,15.0,32.0,0.00354874,  -580.422E-03,   64.4500E-03,       5.05738,-0.0287988,-0.00857,1.90625e-05
5562,14.0,32.0,0.00365932,  -567.800E-03,   64.4496E-03,       5.21563,-0.0312027,-0.00929293,1.6303e-05
5567,13.0,32.0,0.0037643,  -556.422E-03,   64.4493E-03,       5.36592,-0.0334871,-0.00997962,1.30936e-05
5570,12.0,32.0,0.00386326,  -546.308E-03,   64.4489E-03,       5.50767,-0.0356433,-0.0106274,9.71362e-06
5571,11.0,32.0,0.00395581,  -537.458E-03,   64.4486E-03,       5.64029,-0.037663,-0.0112338,6.42945e-06
5576,10.0,32.0,0.00404159,  -529.853E-03,   64.4483E-03,       5.76327,-0.0395379,-0.0117964,3.46674e-06
5577,9.0,32.0,0.00412025,  -523.455E-03,   64.4482E-03,       5.87611,-0.0412603,-0.0123126,9.90285e-07
5582,8.0,32.0,0.00419149,  -518.204E-03,   64.4480E-03,       5.97834,-0.0428228,-0.0127805,-9.05175e-07
5585,7.0,32.0,0.00425502,  -514.026E-03,   64.4480E-03,       6.06956,-0.0442183,-0.0131979,-2.19358e-06
5586,6.0,32.0,0.0043106,  -510.827E-03,   64.4480E-03,       6.14938,-0.0454408,-0.0135631,-2.90692e-06
5591,5.0,32.0,0.00435801,  -508.498E-03,   64.4480E-03,       6.21749,-0.0464847,-0.0138745,-3.11876e-06
5592,4.0,32.0,0.00439706,  -506.916E-03,   64.4480E-03,       6.27361,-0.0473452,-0.0141311,-2.92544e-06
5597,3.0,32.0,0.00442759,  -505.948E-03,   64.4481E-03,       6.31749,-0.0480186,-0.0143316,-2.42887e-06
5600,2.0,32.0,0.00444948,  -505.448E-03,   64.4482E-03,       6.34897,-0.0485017,-0.0144753,-1.72386e-06
5601,1.0,32.0,0.00446265,  -505.265E-03,   64.4482E-03,       6.36791,-0.0487924,-0.0145618,-8.91671e-07
5606,0.0,32.0,0.00446705,  -505.241E-03,   64.4482E-03,       6.37423,-0.0488894,-0.0145906,4.26326e-14
5607,-1.0,32.0,0.00446265,  -505.217E-03,   64.4482E-03,       6.36791,-0.0487924,-0.0145618,8.91671e-07
5612,-2.0,32.0,0.00444948,  -505.034E-03,   64.4482E-03,       6.34897,-0.0485017,-0.0144753,1.72386e-06
5615,-3.0,32.0,0.00442759,  -504.534E-03,   64.4481E-03,       6.31749,-0.0480186,-0.0143316,2.42887e-06
5616,-4.0,32.0,0.00439706,  -503.565E-03,   64.4480E-03,       6.27361,-0.0473452,-0.0141311,2.92544e-06
5621,-5.0,32.0,0.00435801,  -501.984E-03,   64.4480E-03,       6.21749,-0.0464847,-0.0138745,3.11876e-06
5622,-6.0,32.0,0.0043106,  -499.655E-03,   64.4480E-03,       6.14938,-0.0454408,-0.0135631,2.90692e-06
5627,-7.0,32.0,0.00425502,  -496.456E-03,   64.4480E-03,       6.06956,-0.0442183,-0.0131979,2.19358e-06
5630,-8.0,32.0,0.00419149,  -492.277E-03,   64.4480E-03,       5.97834,-0.0428228,-0.0127805,9.05175e-07
5631,-9.0,32.0,0.00412025,  -487.027E-03,   64.4482E-03,       5.87611,-0.0412603,-0.0123126,-9.90285e-07
5636,-10.0,32.0,0.00404159,  -480.629E-03,   64.4483E-03,       5.76327,-0.0395379,-0.0117964,-3.46674e-06
5637,-11.0,32.0,0.00395581,  -473.024E-03,   64.4486E-03,       5.64029,-0.037663,-0.0112338,-6.42945e-06
5642,-12.0,32.0,0.00386326,  -464.174E-03,   64.4489E-03,       5.50767,-0.0356433,-0.0106274,-9.71362e-06
5645,-13.0,32.0,0.0037643,  -454.060E-03,   64.4493E-03,       5.36592,-0.0334871,-0.00997962,-1.30936e-05
5646,-14.0,32.0,0.00365932,  -442.681E-03,   64.4496E-03,       5.21563,-0.0312027,-0.00929293,-1.6303e-05
5651,-15.0,32.0,0.00354874,  -430.060E-03,   64.4500E-03,       5.05738,-0.0287988,-0.00857,-1.90625e-05
5652,-16.0,32.0,0.00343299,  -416.235E-03,   64.4504E-03,       4.89181,-0.026284,-0.00781348,-2.11128e-05
5657,-17.0,32.0,0.00331252,  -401.264E-03,   64.4508E-03,       4.71957,-0.0236673,-0.00702606,-2.22465e-05
5660,-18.0,32.0,0.00318781,  -385.226E-03,   64.4511E-03,       4.54133,-0.020958,-0.00621052,-2.23337e-05
5661,-19.0,32.0,0.00305936,  -368.213E-03,   64.4514E-03,       4.35781,-0.0181655,-0.00536971,-2.13376e-05
5666,-20.0,32.0,0.00292766,  -350.333E-03,   64.4517E-03,       4.16970,-0.0153,-0.00450664,-1.93173e-05
5667,-21.0,32.0,0.00279324,  -331.710E-03,   64.4519E-03,       3.97777,-0.0123721,-0.00362454,-1.64168e-05
5672,-22.0,32.0,0.00265662,  -312.477E-03,   64.4521E-03,       3.78274,-0.00939297,-0.00272683,-1.28441e-05
5675,-23.0,32.0,0.00251834,  -292.778E-03,   64.4523E-03,       3.58539,-0.00637443,-0.00181719,-8.84304e-06
5676,-24.0,32.0,0.00237894,  -272.764E-03,   64.4524E-03,       3.38648,-0.00332889,-0.000899573,-4.66412e-06
5681,-25.0,32.0,0.00223897,  -252.592E-03,   64.4524E-03,       3.18680,-0.000269183,2.18957e-05,-5.40129e-07
5682,-26.0,32.0,0.00209899,  -232.420E-03,   64.4524E-03,       2.98712,0.00279155,0.000942933,3.3308e-06
5687,-27.0,32.0,0.00195952,  -212.407E-03,   64.4524E-03,       2.78822,0.00584008,0.00185921,6.79176e-06
5690,-28.0,32.0,0.00182113,  -192.710E-03,   64.4523E-03,       2.59087,0.00886328,0.00276645,9.72599e-06
5691,-29.0,32.0,0.00168436,  -173.479E-03,   64.4522E-03,       2.39586,0.0118483,0.00366055,1.20478e-05
5696,-30.0,32.0,0.00154974,  -154.857E-03,   64.4520E-03,       2.20393,0.0147828,0.0045377,1.36973e-05
5697,-31.0,32.0,0.00141779,  -136.980E-03,   64.4517E-03,       2.01584,0.017655,0.0053944,1.4631e-05
5702,-32.0,32.0,0.00128904,  -119.970E-03,   64.4514E-03,       1.83233,0.0204537,0.0062276,1.48313e-05
5705,-33.0,32.0,0.00116399,  -103.934E-03,   64.4511E-03,       1.65411,0.0231686,0.00703461,1.43056e-05
5706,-34.0,32.0,0.00104312,  -88.9673E-03,   64.4507E-03,       1.48188,0.0257896,0.0078131,1.31136e-05
5711,-35.0,32.0,0.000926909,  -75.1450E-03,   64.4503E-03,       1.31633,0.0283077,0.00856099,1.13575e-05
5712,-36.0,32.0,0.000815816,  -62.5262E-03,   64.4499E-03,       1.15810,0.0307141,0.0092763,9.20988e-06
5717,-37.0,32.0,0.000710275,  -51.1507E-03,   64.4495E-03,       1.00782,0.0330002,0.00995708,6.8583e-06
5720,-38.0,32.0,0.000610703,  -41.0388E-03,   64.4490E-03,   866.096E-03,0.0351581,0.0106012,4.51692e-06
5721,-39.0,32.0,0.000517494,  -32.1913E-03,   64.4486E-03,   733.487E-03,0.0371796,0.0112062,2.31287e-06
5726,-40.0,32.0,0.00043102099999999996,  -24.5889E-03,   64.4482E-03,   610.528E-03,0.0390565,0.0117694,3.10339e-07
5727,-41.0,32.0,0.00035163,  -18.1929E-03,   64.4479E-03,   497.718E-03,0.0407809,0.0122881,-1.6034e-06
5732,-42.0,32.0,0.000279645,  -12.9454E-03,   64.4475E-03,   395.514E-03,0.0423443,0.0127592,-3.59684e-06
5733,-43.0,32.0,0.000215363,  -8.77032E-03,   64.4473E-03,   304.334E-03,0.0437385,0.01318,-5.90701e-06
5738,-44.0,32.0,0.00015905299999999998,  -5.57448E-03,   64.4471E-03,   224.553E-03,0.0449554,0.0135479,-8.59679e-06
5739,-45.0,32.0,0.00011095799999999999,  -3.24891E-03,   64.4470E-03,   156.496E-03,0.0459873,0.0138609,-1.14682e-05
5744,-46.0,32.0,7.12884e-05,  -1.67064E-03,   64.4469E-03,   100.442E-03,0.0468276,0.0141169,-1.39133e-05
5747,-47.0,32.0,4.02272e-05,  -704.740E-06,   64.4470E-03,   56.6188E-03,0.0474711,0.0143144,-1.49235e-05
5748,-48.0,32.0,1.79224e-05,  -206.461E-06,   64.4470E-03,   25.1994E-03,0.0479141,0.0144517,-1.33725e-05
5753,-49.0,32.0,4.48778e-06,  -23.8008E-06,   64.4471E-03,   6.30461E-03,0.0481549,0.0145274,-8.21114e-06
5754,-50.0,32.0,0.0,  -13.5407E-42,   64.4472E-03,           -0.,0.0482247,0.0145498,-4.64905e-06
5759,50.0,31.0,0.0,      -1.01048,   64.4460E-03,           -0.,0.0482351,0.0145494,3.89883e-06
5762,49.0,31.0,4.45865e-06,      -1.01046,   64.4460E-03,   6.30573E-03,0.0481629,0.0145269,6.85049e-06
5763,48.0,31.0,1.78093e-05,      -1.01028,   64.4459E-03,   25.2031E-03,0.0479173,0.0144508,1.10183e-05
5768,47.0,31.0,3.9982e-05,      -1.00978,   64.4459E-03,   56.6252E-03,0.0474705,0.0143133,1.2123e-05
5769,46.0,31.0,7.086939999999999e-05,      -1.00881,   64.4459E-03,   100.451E-03,0.0468248,0.0141162,1.09759e-05
5774,45.0,31.0,0.000110329,      -1.00723,   64.4459E-03,   156.505E-03,0.0459836,0.0138608,8.55986e-06
5777,44.0,31.0,0.000158183,      -1.00491,   64.4461E-03,   224.561E-03,0.044952,0.013549,5.70183e-06
5778,43.0,31.0,0.000214225,      -1.00171,   64.4463E-03,   304.341E-03,0.0437361,0.0131824,3.00525e-06
5783,42.0,31.0,0.000278215,  -997.537E-03,   64.4466E-03,   395.517E-03,0.042343,0.0127632,7.65649e-07
5784,41.0,31.0,0.000349886,  -992.290E-03,   64.4470E-03,   497.718E-03,0.0407806,0.0122935,-9.90773e-07
5789,40.0,31.0,0.000428944,  -985.894E-03,   64.4474E-03,   610.526E-03,0.039057,0.0117761,-2.36878e-06
5792,39.0,31.0,0.000515067,  -978.292E-03,   64.4478E-03,   733.482E-03,0.0371802,0.0112135,-3.55399e-06
5793,38.0,31.0,0.000607908,  -969.445E-03,   64.4482E-03,   866.090E-03,0.0351585,0.0106084,-4.66764e-06
5798,37.0,31.0,0.000707096,  -959.333E-03,   64.4486E-03,       1.00782,0.0330001,0.00996336,-5.7936e-06
5799,36.0,31.0,0.0008122380000000001,  -947.957E-03,   64.4490E-03,       1.15809,0.0307132,0.00928093,-6.91556e-06
5804,35.0,31.0,0.000922917,  -935.338E-03,   64.4493E-03,       1.31632,0.0283062,0.0085634,-7.99166e-06
5807,34.0,31.0,0.0010387,  -921.516E-03,   64.4497E-03,       1.48188,0.0257875,0.00781298,-8.93722e-06
5808,33.0,31.0,0.00115913,  -906.548E-03,   64.4500E-03,       1.65411,0.023166,0.00703192,-9.68295e-06
5813,32.0,31.0,0.00128373,  -890.513E-03,   64.4502E-03,       1.83233,0.0204512,0.00622259,-1.01573e-05
5814,31.0,31.0,0.00141201,  -873.502E-03,   64.4505E-03,       2.01584,0.0176528,0.00538755,-1.03082e-05
5819,30.0,31.0,0.00154348,  -855.625E-03,   64.4507E-03,       2.20393,0.0147814,0.00452965,-1.00813e-05
5822,29.0,31.0,0.00167762,  -837.003E-03,   64.4508E-03,       2.39586,0.0118479,0.00365207,-9.42652e-06
5823,28.0,31.0,0.0018139,  -817.772E-03,   64.4509E-03,       2.59088,0.00886425,0.00275827,-8.28945e-06
5828,27.0,31.0,0.00195179,  -798.075E-03,   64.4510E-03,       2.78822,0.0058425,0.00185202,-6.62471e-06
5829,26.0,31.0,0.00209074,  -778.062E-03,   64.4510E-03,       2.98712,0.00279538,0.000937276,-4.40659e-06
5834,25.0,31.0,0.00223022,  -757.890E-03,   64.4510E-03,       3.18681,-0.000264156,1.81095e-05,-1.64908e-06
5837,24.0,31.0,0.00236968,  -737.718E-03,   64.4509E-03,       3.38649,-0.00332303,-0.000901354,1.57955e-06
5838,23.0,31.0,0.00250857,  -717.705E-03,   64.4508E-03,       3.58540,-0.00636822,-0.00181704,5.14681e-06
5843,22.0,31.0,0.00264634,  -698.006E-03,   64.4507E-03,       3.78275,-0.00938694,-0.00272498,8.85797e-06
5844,21.0,31.0,0.00278246,  -678.773E-03,   64.4505E-03,       3.97777,-0.0123668,-0.00362138,1.24699e-05
5849,20.0,31.0,0.00291639,  -660.149E-03,   64.4503E-03,       4.16971,-0.0152959,-0.00450262,1.57157e-05
5852,19.0,31.0,0.0030476,  -642.270E-03,   64.4501E-03,       4.35782,-0.0181629,-0.00536529,1.83365e-05
5853,18.0,31.0,0.00317558,  -625.256E-03,   64.4498E-03,       4.54134,-0.020957,-0.00620613,2.01156e-05
5858,17.0,31.0,0.00329982,  -609.218E-03,   64.4496E-03,       4.71958,-0.023668,-0.00702208,2.0908e-05
5859,16.0,31.0,0.00341984,  -594.247E-03,   64.4493E-03,       4.89182,-0.0262862,-0.00781016,2.06604e-05
5864,15.0,31.0,0.00353516,  -580.422E-03,   64.4489E-03,       5.05740,-0.0288021,-0.00856752,1.94187e-05
5867,14.0,31.0,0.00364532,  -567.800E-03,   64.4486E-03,       5.21564,-0.0312068,-0.00929137,1.73211e-05
5868,13.0,31.0,0.00374991,  -556.422E-03,   64.4483E-03,       5.36594,-0.0334915,-0.00997897,1.45794e-05
5873,12.0,31.0,0.00384849,  -546.308E-03,   64.4480E-03,       5.50768,-0.0356476,-0.0106277,1.14509e-05
5874,11.0,31.0,0.00394069,  -537.458E-03,   64.4477E-03,       5.64031,-0.0376668,-0.0112348,8.20621e-06
5879,10.0,31.0,0.00402614,  -529.853E-03,   64.4475E-03,       5.76329,-0.0395412,-0.011798,5.09853e-06
5882,9.0,31.0,0.00410451,  -523.454E-03,   64.4473E-03,       5.87612,-0.0412629,-0.0123149,2.33838e-06
5883,8.0,31.0,0.00417548,  -518.204E-03,   64.4472E-03,       5.97836,-0.0428246,-0.0127832,7.69593e-08
5888,7.0,31.0,0.00423877,  -514.026E-03,   64.4471E-03,       6.06957,-0.0442196,-0.0132011,-1.60031e-06
5889,6.0,31.0,0.00429414,  -510.827E-03,   64.4470E-03,       6.14940,-0.0454416,-0.0135667,-2.67098e-06
5894,5.0,31.0,0.00434137,  -508.498E-03,   64.4470E-03,       6.21751,-0.0464851,-0.0138785,-3.16543e-06
5897,4.0,31.0,0.00438026,  -506.916E-03,   64.4470E-03,       6.27362,-0.0473455,-0.0141353,-3.15271e-06
5898,3.0,31.0,0.00441068,  -505.948E-03,   64.4471E-03,       6.31751,-0.0480188,-0.014336,-2.72557e-06
5903,2.0,31.0,0.00443249,  -505.448E-03,   64.4471E-03,       6.34899,-0.0485019,-0.0144799,-1.98762e-06
5904,1.0,31.0,0.00444561,  -505.265E-03,   64.4471E-03,       6.36792,-0.0487926,-0.0145665,-1.04455e-06
5909,2.1325799999999998e-29,31.0,0.00444999,  -505.241E-03,   64.4471E-03,       6.37425,-0.0488897,-0.0145954,1.42109e-14
5912,-1.0,31.0,0.00444561,  -505.217E-03,   64.4471E-03,       6.36792,-0.0487926,-0.0145665,1.04455e-06
5913,-2.0,31.0,0.00443249,  -505.034E-03,   64.4471E-03,       6.34899,-0.0485019,-0.0144799,1.98762e-06
5918,-3.0,31.0,0.00441068,  -504.534E-03,   64.4471E-03,       6.31751,-0.0480188,-0.014336,2.72557e-06
5919,-4.0,31.0,0.00438026,  -503.565E-03,   64.4470E-03,       6.27362,-0.0473455,-0.0141353,3.15271e-06
5924,-5.0,31.0,0.00434137,  -501.984E-03,   64.4470E-03,       6.21751,-0.0464851,-0.0138785,3.16543e-06
5927,-6.0,31.0,0.00429414,  -499.655E-03,   64.4470E-03,       6.14940,-0.0454416,-0.0135667,2.67098e-06
5928,-7.0,31.0,0.00423877,  -496.456E-03,   64.4471E-03,       6.06957,-0.0442196,-0.0132011,1.60031e-06
5933,-8.0,31.0,0.00417548,  -492.278E-03,   64.4472E-03,       5.97836,-0.0428246,-0.0127832,-7.69593e-08
5934,-9.0,31.0,0.00410451,  -487.027E-03,   64.4473E-03,       5.87612,-0.0412629,-0.0123149,-2.33838e-06
5939,-10.0,31.0,0.00402614,  -480.629E-03,   64.4475E-03,       5.76329,-0.0395412,-0.011798,-5.09853e-06
5942,-11.0,31.0,0.00394069,  -473.024E-03,   64.4477E-03,       5.64031,-0.0376668,-0.0112348,-8.20621e-06
5943,-12.0,31.0,0.00384849,  -464.174E-03,   64.4480E-03,       5.50768,-0.0356476,-0.0106277,-1.14509e-05
5948,-13.0,31.0,0.00374991,  -454.060E-03,   64.4483E-03,       5.36594,-0.0334915,-0.00997897,-1.45794e-05
5949,-14.0,31.0,0.00364532,  -442.681E-03,   64.4486E-03,       5.21564,-0.0312068,-0.00929137,-1.73211e-05
5954,-15.0,31.0,0.00353516,  -430.060E-03,   64.4489E-03,       5.05740,-0.0288021,-0.00856752,-1.94187e-05
5957,-16.0,31.0,0.00341984,  -416.234E-03,   64.4493E-03,       4.89182,-0.0262862,-0.00781016,-2.06604e-05
5958,-17.0,31.0,0.00329982,  -401.264E-03,   64.4496E-03,       4.71958,-0.023668,-0.00702208,-2.0908e-05
5963,-18.0,31.0,0.00317558,  -385.225E-03,   64.4498E-03,       4.54134,-0.020957,-0.00620613,-2.01156e-05
5964,-19.0,31.0,0.0030476,  -368.212E-03,   64.4501E-03,       4.35782,-0.0181629,-0.00536529,-1.83365e-05
5969,-20.0,31.0,0.00291639,  -350.332E-03,   64.4503E-03,       4.16971,-0.0152959,-0.00450262,-1.57157e-05
5972,-21.0,31.0,0.00278246,  -331.709E-03,   64.4505E-03,       3.97777,-0.0123668,-0.00362138,-1.24699e-05
5973,-22.0,31.0,0.00264634,  -312.476E-03,   64.4507E-03,       3.78275,-0.00938694,-0.00272498,-8.85797e-06
5978,-23.0,31.0,0.00250857,  -292.777E-03,   64.4508E-03,       3.58540,-0.00636822,-0.00181704,-5.14681e-06
5979,-24.0,31.0,0.00236968,  -272.764E-03,   64.4509E-03,       3.38649,-0.00332303,-0.000901354,-1.57955e-06
5984,-25.0,31.0,0.00223022,  -252.592E-03,   64.4510E-03,       3.18681,-0.000264156,1.81095e-05,1.64908e-06
5987,-26.0,31.0,0.00209074,  -232.420E-03,   64.4510E-03,       2.98712,0.00279538,0.000937276,4.40659e-06
5988,-27.0,31.0,0.00195179,  -212.407E-03,   64.4510E-03,       2.78822,0.0058425,0.00185202,6.62471e-06
5993,-28.0,31.0,0.0018139,  -192.710E-03,   64.4509E-03,       2.59088,0.00886425,0.00275827,8.28945e-06
5994,-29.0,31.0,0.00167762,  -173.478E-03,   64.4508E-03,       2.39586,0.0118479,0.00365207,9.42652e-06
5999,-30.0,31.0,0.00154348,  -154.857E-03,   64.4507E-03,       2.20393,0.0147814,0.00452965,1.00813e-05
6002,-31.0,31.0,0.00141201,  -136.980E-03,   64.4505E-03,       2.01584,0.0176528,0.00538755,1.03082e-05
6003,-32.0,31.0,0.00128373,  -119.969E-03,   64.4502E-03,       1.83233,0.0204512,0.00622259,1.01573e-05
6008,-33.0,31.0,0.00115913,  -103.934E-03,   64.4500E-03,       1.65411,0.023166,0.00703192,9.68295e-06
6009,-34.0,31.0,0.0010387,  -88.9661E-03,   64.4497E-03,       1.48188,0.0257875,0.00781298,8.93722e-06
6014,-35.0,31.0,0.000922917,  -75.1436E-03,   64.4493E-03,       1.31632,0.0283062,0.0085634,7.99166e-06
6017,-36.0,31.0,0.0008122380000000001,  -62.5246E-03,   64.4490E-03,       1.15809,0.0307132,0.00928093,6.91556e-06
6018,-37.0,31.0,0.000707096,  -51.1490E-03,   64.4486E-03,       1.00782,0.0330001,0.00996336,5.7936e-06
6023,-38.0,31.0,0.000607908,  -41.0373E-03,   64.4482E-03,   866.090E-03,0.0351585,0.0106084,4.66764e-06
6024,-39.0,31.0,0.000515067,  -32.1899E-03,   64.4478E-03,   733.482E-03,0.0371802,0.0112135,3.55399e-06
6029,-40.0,31.0,0.000428944,  -24.5878E-03,   64.4474E-03,   610.526E-03,0.039057,0.0117761,2.36878e-06
6032,-41.0,31.0,0.000349886,  -18.1921E-03,   64.4470E-03,   497.718E-03,0.0407806,0.0122935,9.90773e-07
6033,-42.0,31.0,0.000278215,  -12.9449E-03,   64.4466E-03,   395.517E-03,0.042343,0.0127632,-7.65649e-07
6038,-43.0,31.0,0.000214225,  -8.77011E-03,   64.4463E-03,   304.341E-03,0.0437361,0.0131824,-3.00525e-06
6039,-44.0,31.0,0.000158183,  -5.57447E-03,   64.4461E-03,   224.561E-03,0.044952,0.013549,-5.70183e-06
6044,-45.0,31.0,0.000110329,  -3.24897E-03,   64.4459E-03,   156.505E-03,0.0459836,0.0138608,-8.55986e-06
6047,-46.0,31.0,7.086939999999999e-05,  -1.67072E-03,   64.4459E-03,   100.451E-03,0.0468248,0.0141162,-1.09759e-05
6048,-47.0,31.0,3.9982e-05,  -704.753E-06,   64.4459E-03,   56.6252E-03,0.0474705,0.0143133,-1.2123e-05
6053,-48.0,31.0,1.78093e-05,  -206.436E-06,   64.4459E-03,   25.2031E-03,0.0479173,0.0144508,-1.10183e-05
6054,-49.0,31.0,4.45865e-06,  -23.7646E-06,   64.4460E-03,   6.30573E-03,0.0481629,0.0145269,-6.85049e-06
6059,-50.0,31.0,0.0,  -13.4469E-42,   64.4460E-03,           -0.,0.0482351,0.0145494,-3.89883e-06
6062,50.0,30.0,0.0,      -1.01048,   64.4449E-03,           -0.,0.0482448,0.0145501,3.334e-06
6063,49.0,30.0,4.4311199999999995e-06,      -1.01046,   64.4449E-03,   6.30665E-03,0.0481699,0.0145267,5.81281e-06
6068,48.0,30.0,1.77021e-05,      -1.01028,   64.4448E-03,   25.2062E-03,0.04792,0.0144497,9.22641e-06
6069,47.0,30.0,3.97488e-05,      -1.00978,   64.4448E-03,   56.6306E-03,0.0474701,0.0143122,9.90906e-06
6074,46.0,30.0,7.046939999999999e-05,      -1.00881,   64.4448E-03,   100.458E-03,0.0468225,0.0141153,8.66091e-06
6077,45.0,30.0,0.000109726,      -1.00723,   64.4449E-03,   156.513E-03,0.0459807,0.0138606,6.2694e-06
6078,44.0,30.0,0.000157347,      -1.00491,   64.4451E-03,   224.568E-03,0.0449493,0.0135497,3.48715e-06
6083,43.0,30.0,0.00021312799999999998,      -1.00171,   64.4454E-03,   304.346E-03,0.0437344,0.0131843,8.59399e-07
6084,42.0,30.0,0.000276833,  -997.537E-03,   64.4457E-03,   395.520E-03,0.0423425,0.0127664,-1.28874e-06
6089,41.0,30.0,0.000348199,  -992.291E-03,   64.4461E-03,   497.718E-03,0.0407812,0.0122981,-2.84746e-06
6092,40.0,30.0,0.000426932,  -985.895E-03,   64.4465E-03,   610.523E-03,0.0390584,0.0117817,-3.88025e-06
6093,39.0,30.0,0.000512713,  -978.293E-03,   64.4469E-03,   733.477E-03,0.037182,0.0112197,-4.51662e-06
6098,38.0,30.0,0.000605195,  -969.446E-03,   64.4473E-03,   866.084E-03,0.0351603,0.0106146,-4.92581e-06
6099,37.0,30.0,0.00070401,  -959.334E-03,   64.4476E-03,       1.00781,0.0330015,0.00996901,-5.23e-06
6104,36.0,30.0,0.0008087639999999999,  -947.959E-03,   64.4480E-03,       1.15809,0.0307139,0.00928537,-5.52695e-06
6107,35.0,30.0,0.000919043,  -935.340E-03,   64.4483E-03,       1.31632,0.028306,0.00856615,-5.85315e-06
6108,34.0,30.0,0.00103441,  -921.517E-03,   64.4486E-03,       1.48188,0.0257865,0.00781375,-6.22458e-06
6113,33.0,30.0,0.00115441,  -906.549E-03,   64.4488E-03,       1.65410,0.0231644,0.00703066,-6.62033e-06
6114,32.0,30.0,0.00127858,  -890.513E-03,   64.4490E-03,       1.83233,0.0204491,0.00621946,-7.00826e-06
6119,31.0,30.0,0.00140642,  -873.502E-03,   64.4492E-03,       2.01584,0.0176507,0.00538292,-7.32975e-06
6122,30.0,30.0,0.00153743,  -855.625E-03,   64.4494E-03,       2.20394,0.0147796,0.00452403,-7.51009e-06
6123,29.0,30.0,0.0016711,  -837.003E-03,   64.4495E-03,       2.39587,0.0118469,0.00364603,-7.45106e-06
6128,28.0,30.0,0.00180691,  -817.772E-03,   64.4496E-03,       2.59088,0.00886417,0.0027524,-7.0435e-06
6129,27.0,30.0,0.00194433,  -798.075E-03,   64.4496E-03,       2.78823,0.00584363,0.00184682,-6.17724e-06
6134,26.0,30.0,0.0020828,  -778.062E-03,   64.4496E-03,       2.98713,0.00279779,0.00093314,-4.76336e-06
6137,25.0,30.0,0.0022218,  -757.891E-03,   64.4496E-03,       3.18681,-0.000260577,1.52837e-05,-2.75466e-06
6138,24.0,30.0,0.00236078,  -737.719E-03,   64.4495E-03,       3.38649,-0.00331853,-0.000902793,-1.66307e-07
6143,23.0,30.0,0.00249919,  -717.706E-03,   64.4494E-03,       3.58540,-0.00636319,-0.00181717,2.9125e-06
6144,22.0,30.0,0.00263649,  -698.007E-03,   64.4493E-03,       3.78275,-0.00938184,-0.002724,6.31715e-06
6149,21.0,30.0,0.00277213,  -678.774E-03,   64.4492E-03,       3.97778,-0.0123621,-0.00361959,9.81937e-06
6152,20.0,30.0,0.00290559,  -660.151E-03,   64.4490E-03,       4.16972,-0.0152921,-0.00450035,1.31507e-05
6153,19.0,30.0,0.00303635,  -642.271E-03,   64.4488E-03,       4.35782,-0.0181603,-0.00536285,1.60343e-05
6158,18.0,30.0,0.00316388,  -625.257E-03,   64.4486E-03,       4.54135,-0.0209558,-0.00620383,1.82199e-05
6159,17.0,30.0,0.00328768,  -609.218E-03,   64.4483E-03,       4.71959,-0.0236682,-0.00702012,1.95167e-05
6164,16.0,30.0,0.00340728,  -594.248E-03,   64.4481E-03,       4.89184,-0.0262877,-0.00780869,1.98183e-05
6167,15.0,30.0,0.0035222,  -580.422E-03,   64.4478E-03,       5.05741,-0.0288046,-0.00856661,1.91154e-05
6168,14.0,30.0,0.00363198,  -567.800E-03,   64.4476E-03,       5.21566,-0.03121,-0.009291,1.74956e-05
6173,13.0,30.0,0.00373619,  -556.422E-03,   64.4473E-03,       5.36596,-0.033495,-0.0099791,1.51301e-05
6174,12.0,30.0,0.00383443,  -546.307E-03,   64.4471E-03,       5.50770,-0.0356511,-0.0106282,1.22501e-05
6179,11.0,30.0,0.0039263,  -537.457E-03,   64.4468E-03,       5.64033,-0.03767,-0.0112357,9.11704e-06
6182,10.0,30.0,0.00401145,  -529.853E-03,   64.4466E-03,       5.76331,-0.0395438,-0.0117992,5.99227e-06
6183,9.0,30.0,0.00408954,  -523.454E-03,   64.4465E-03,       5.87614,-0.0412648,-0.0123162,3.10925e-06
6188,8.0,30.0,0.00416025,  -518.204E-03,   64.4463E-03,       5.97837,-0.0428258,-0.0127847,6.53113e-07
6189,7.0,30.0,0.00422332,  -514.026E-03,   64.4462E-03,       6.06959,-0.04422,-0.0132027,-1.25132e-06
6194,6.0,30.0,0.00427849,  -510.827E-03,   64.4461E-03,       6.14941,-0.0454415,-0.0135684,-2.54251e-06
6197,5.0,30.0,0.00432555,  -508.498E-03,   64.4461E-03,       6.21752,-0.0464846,-0.0138803,-3.21763e-06
6198,4.0,30.0,0.00436431,  -506.916E-03,   64.4461E-03,       6.27364,-0.0473447,-0.0141372,-3.32266e-06
6203,3.0,30.0,0.00439461,  -505.948E-03,   64.4461E-03,       6.31752,-0.0480178,-0.0143381,-2.94009e-06
6204,2.0,30.0,0.00441634,  -505.448E-03,   64.4461E-03,       6.34900,-0.0485008,-0.0144821,-2.1768e-06
6209,1.0,30.0,0.00442942,  -505.265E-03,   64.4461E-03,       6.36794,-0.0487915,-0.0145687,-1.15398e-06
6212,-1.91377e-29,30.0,0.00443378,  -505.241E-03,   64.4461E-03,       6.37426,-0.0488885,-0.0145976,-2.84217e-14
6213,-1.0,30.0,0.00442942,  -505.217E-03,   64.4461E-03,       6.36794,-0.0487915,-0.0145687,1.15398e-06
6218,-2.0,30.0,0.00441634,  -505.034E-03,   64.4461E-03,       6.34900,-0.0485008,-0.0144821,2.1768e-06
6219,-3.0,30.0,0.00439461,  -504.534E-03,   64.4461E-03,       6.31752,-0.0480178,-0.0143381,2.94009e-06
6224,-4.0,30.0,0.00436431,  -503.566E-03,   64.4461E-03,       6.27364,-0.0473447,-0.0141372,3.32266e-06
6227,-5.0,30.0,0.00432555,  -501.984E-03,   64.4461E-03,       6.21752,-0.0464846,-0.0138803,3.21763e-06
6228,-6.0,30.0,0.00427849,  -499.655E-03,   64.4461E-03,       6.14941,-0.0454415,-0.0135684,2.54251e-06
6233,-7.0,30.0,0.00422332,  -496.456E-03,   64.4462E-03,       6.06959,-0.04422,-0.0132027,1.25132e-06
6234,-8.0,30.0,0.00416025,  -492.278E-03,   64.4463E-03,       5.97837,-0.0428258,-0.0127847,-6.53113e-07
6239,-9.0,30.0,0.00408954,  -487.028E-03,   64.4465E-03,       5.87614,-0.0412648,-0.0123162,-3.10925e-06
6242,-10.0,30.0,0.00401145,  -480.629E-03,   64.4466E-03,       5.76331,-0.0395438,-0.0117992,-5.99227e-06
6243,-11.0,30.0,0.0039263,  -473.024E-03,   64.4468E-03,       5.64033,-0.03767,-0.0112357,-9.11704e-06
6248,-12.0,30.0,0.00383443,  -464.174E-03,   64.4471E-03,       5.50770,-0.0356511,-0.0106282,-1.22501e-05
6249,-13.0,30.0,0.00373619,  -454.060E-03,   64.4473E-03,       5.36596,-0.033495,-0.0099791,-1.51301e-05
6254,-14.0,30.0,0.00363198,  -442.681E-03,   64.4476E-03,       5.21566,-0.03121,-0.009291,-1.74956e-05
6257,-15.0,30.0,0.0035222,  -430.060E-03,   64.4478E-03,       5.05741,-0.0288046,-0.00856661,-1.91154e-05
6258,-16.0,30.0,0.00340728,  -416.234E-03,   64.4481E-03,       4.89184,-0.0262877,-0.00780869,-1.98183e-05
6263,-17.0,30.0,0.00328768,  -401.263E-03,   64.4483E-03,       4.71959,-0.0236682,-0.00702012,-1.95167e-05
6264,-18.0,30.0,0.00316388,  -385.224E-03,   64.4486E-03,       4.54135,-0.0209558,-0.00620383,-1.82199e-05
6269,-19.0,30.0,0.00303635,  -368.211E-03,   64.4488E-03,       4.35782,-0.0181603,-0.00536285,-1.60343e-05
6272,-20.0,30.0,0.00290559,  -350.331E-03,   64.4490E-03,       4.16972,-0.0152921,-0.00450035,-1.31507e-05
6273,-21.0,30.0,0.00277213,  -331.708E-03,   64.4492E-03,       3.97778,-0.0123621,-0.00361959,-9.81937e-06
6278,-22.0,30.0,0.00263649,  -312.475E-03,   64.4493E-03,       3.78275,-0.00938184,-0.002724,-6.31715e-06
6279,-23.0,30.0,0.00249919,  -292.776E-03,   64.4494E-03,       3.58540,-0.00636319,-0.00181717,-2.9125e-06
6284,-24.0,30.0,0.00236078,  -272.763E-03,   64.4495E-03,       3.38649,-0.00331853,-0.000902793,1.66307e-07
6287,-25.0,30.0,0.0022218,  -252.591E-03,   64.4496E-03,       3.18681,-0.000260577,1.52837e-05,2.75466e-06
6288,-26.0,30.0,0.0020828,  -232.420E-03,   64.4496E-03,       2.98713,0.00279779,0.00093314,4.76336e-06
6293,-27.0,30.0,0.00194433,  -212.407E-03,   64.4496E-03,       2.78823,0.00584363,0.00184682,6.17724e-06
6294,-28.0,30.0,0.00180691,  -192.710E-03,   64.4496E-03,       2.59088,0.00886417,0.0027524,7.0435e-06
6299,-29.0,30.0,0.0016711,  -173.479E-03,   64.4495E-03,       2.39587,0.0118469,0.00364603,7.45106e-06
6302,-30.0,30.0,0.00153743,  -154.857E-03,   64.4494E-03,       2.20394,0.0147796,0.00452403,7.51009e-06
6303,-31.0,30.0,0.00140642,  -136.980E-03,   64.4492E-03,       2.01584,0.0176507,0.00538292,7.32975e-06
6308,-32.0,30.0,0.00127858,  -119.969E-03,   64.4490E-03,       1.83233,0.0204491,0.00621946,7.00826e-06
6309,-33.0,30.0,0.00115441,  -103.933E-03,   64.4488E-03,       1.65410,0.0231644,0.00703066,6.62033e-06
6314,-34.0,30.0,0.00103441,  -88.9650E-03,   64.4486E-03,       1.48188,0.0257865,0.00781375,6.22458e-06
6317,-35.0,30.0,0.000919043,  -75.1422E-03,   64.4483E-03,       1.31632,0.028306,0.00856615,5.85315e-06
6318,-36.0,30.0,0.0008087639999999999,  -62.5231E-03,   64.4480E-03,       1.15809,0.0307139,0.00928537,5.52695e-06
6323,-37.0,30.0,0.00070401,  -51.1474E-03,   64.4476E-03,       1.00781,0.0330015,0.00996901,5.23e-06
6324,-38.0,30.0,0.000605195,  -41.0357E-03,   64.4473E-03,   866.084E-03,0.0351603,0.0106146,4.92581e-06
6329,-39.0,30.0,0.000512713,  -32.1885E-03,   64.4469E-03,   733.477E-03,0.037182,0.0112197,4.51662e-06
6332,-40.0,30.0,0.000426932,  -24.5866E-03,   64.4465E-03,   610.523E-03,0.0390584,0.0117817,3.88025e-06
6333,-41.0,30.0,0.000348199,  -18.1913E-03,   64.4461E-03,   497.718E-03,0.0407812,0.0122981,2.84746e-06
6338,-42.0,30.0,0.000276833,  -12.9444E-03,   64.4457E-03,   395.520E-03,0.0423425,0.0127664,1.28874e-06
6339,-43.0,30.0,0.00021312799999999998,  -8.76987E-03,   64.4454E-03,   304.346E-03,0.0437344,0.0131843,-8.59399e-07
6344,-44.0,30.0,0.000157347,  -5.57439E-03,   64.4451E-03,   224.568E-03,0.0449493,0.0135497,-3.48715e-06
6347,-45.0,30.0,0.000109726,  -3.24900E-03,   64.4449E-03,   156.513E-03,0.0459807,0.0138606,-6.2694e-06
6348,-46.0,30.0,7.046939999999999e-05,  -1.67074E-03,   64.4448E-03,   100.458E-03,0.0468225,0.0141153,-8.66091e-06
6353,-47.0,30.0,3.97488e-05,  -704.757E-06,   64.4448E-03,   56.6306E-03,0.0474701,0.0143122,-9.90906e-06
6354,-48.0,30.0,1.77021e-05,  -206.402E-06,   64.4448E-03,   25.2062E-03,0.04792,0.0144497,-9.22641e-06
6359,-49.0,30.0,4.4311199999999995e-06,  -23.7320E-06,   64.4449E-03,   6.30665E-03,0.0481699,0.0145267,-5.81281e-06
6362,-50.0,30.0,0.0,  -13.3516E-42,   64.4449E-03,           -0.,0.0482448,0.0145501,-3.33399e-06
6363,50.0,29.0,0.0,      -1.01048,   64.4438E-03,           -0.,0.0482532,0.0145499,2.89364e-06
6368,49.0,29.0,4.4052e-06,      -1.01046,   64.4438E-03,   6.30751E-03,0.0481762,0.0145264,4.98296e-06
6369,48.0,29.0,1.76009e-05,      -1.01028,   64.4438E-03,   25.2090E-03,0.0479224,0.0144488,7.77632e-06
6374,47.0,29.0,3.9527800000000005e-05,      -1.00978,   64.4438E-03,   56.6354E-03,0.0474697,0.014311,8.14531e-06
6377,46.0,29.0,7.008909999999999e-05,      -1.00881,   64.4438E-03,   100.464E-03,0.0468205,0.0141143,6.80001e-06
6378,45.0,29.0,0.000109152,      -1.00723,   64.4439E-03,   156.519E-03,0.0459781,0.0138601,4.4778e-06
6383,44.0,29.0,0.000156548,      -1.00491,   64.4441E-03,   224.574E-03,0.044947,0.01355,1.80782e-06
6384,43.0,29.0,0.00021207599999999998,      -1.00171,   64.4444E-03,   304.350E-03,0.0437329,0.0131856,-6.94705e-07
6389,42.0,29.0,0.00027550599999999996,  -997.538E-03,   64.4447E-03,   395.521E-03,0.0423422,0.0127688,-2.71087e-06
6392,41.0,29.0,0.00034657599999999997,  -992.291E-03,   64.4451E-03,   497.717E-03,0.0407821,0.0123016,-4.10386e-06
6393,40.0,29.0,0.00042499300000000003,  -985.896E-03,   64.4455E-03,   610.519E-03,0.0390602,0.0117861,-4.88426e-06
6398,39.0,29.0,0.0005104409999999999,  -978.295E-03,   64.4459E-03,   733.472E-03,0.0371843,0.0112246,-5.17368e-06
6399,38.0,29.0,0.000602576,  -969.448E-03,   64.4463E-03,   866.077E-03,0.0351627,0.0106196,-5.12732e-06
6404,37.0,29.0,0.000701028,  -959.336E-03,   64.4466E-03,       1.00780,0.0330036,0.00997366,-4.91753e-06
6407,36.0,29.0,0.000805407,  -947.960E-03,   64.4469E-03,       1.15808,0.0307154,0.00928916,-4.67928e-06
6408,35.0,29.0,0.0009152969999999999,  -935.341E-03,   64.4472E-03,       1.31631,0.0283067,0.00856869,-4.52202e-06
6413,34.0,29.0,0.00103027,  -921.518E-03,   64.4475E-03,       1.48187,0.0257863,0.00781481,-4.50426e-06
6414,33.0,29.0,0.00114986,  -906.550E-03,   64.4477E-03,       1.65410,0.0231634,0.00703018,-4.65212e-06
6419,32.0,29.0,0.0012736,  -890.513E-03,   64.4478E-03,       1.83233,0.0204476,0.00621755,-4.94613e-06
6422,31.0,29.0,0.00140101,  -873.502E-03,   64.4480E-03,       2.01585,0.0176489,0.00537984,-5.33333e-06
6423,30.0,29.0,0.00153159,  -855.625E-03,   64.4481E-03,       2.20394,0.0147778,0.00452015,-5.72121e-06
6428,29.0,29.0,0.00166482,  -837.003E-03,   64.4482E-03,       2.39587,0.0118455,0.00364179,-5.98961e-06
6429,28.0,29.0,0.00180019,  -817.772E-03,   64.4482E-03,       2.59089,0.00886357,0.00274822,-5.99787e-06
6434,27.0,29.0,0.00193715,  -798.075E-03,   64.4483E-03,       2.78823,0.00584403,0.00184308,-5.60502e-06
6437,26.0,29.0,0.00207517,  -778.063E-03,   64.4483E-03,       2.98714,0.00279929,0.00093012,-4.68977e-06
6438,25.0,29.0,0.00221372,  -757.891E-03,   64.4482E-03,       3.18682,-0.000257989,1.31472e-05,-3.17472e-06
6443,24.0,29.0,0.00235224,  -737.720E-03,   64.4482E-03,       3.38650,-0.00331503,-0.000904002,-1.04569e-06
6444,23.0,29.0,0.0024902,  -717.707E-03,   64.4481E-03,       3.58540,-0.00635907,-0.00181752,1.63521e-06
6449,22.0,29.0,0.00262704,  -698.009E-03,   64.4480E-03,       3.78275,-0.00937749,-0.00272365,4.72768e-06
6452,21.0,29.0,0.00276224,  -678.776E-03,   64.4478E-03,       3.97778,-0.012358,-0.00361874,8.02315e-06
6453,20.0,29.0,0.00289527,  -660.152E-03,   64.4477E-03,       4.16972,-0.0152885,-0.00449922,1.12661e-05
6458,19.0,29.0,0.00302559,  -642.272E-03,   64.4475E-03,       4.35783,-0.0181576,-0.00536168,1.41836e-05
6459,18.0,29.0,0.0031527,  -625.258E-03,   64.4473E-03,       4.54136,-0.0209542,-0.00620277,1.6519e-05
6464,17.0,29.0,0.0032761,  -609.219E-03,   64.4471E-03,       4.71960,-0.0236679,-0.00701931,1.80643e-05
6467,16.0,29.0,0.0033953,  -594.248E-03,   64.4469E-03,       4.89185,-0.0262885,-0.00780818,1.86856e-05
6468,15.0,29.0,0.00350984,  -580.422E-03,   64.4467E-03,       5.05742,-0.0288065,-0.0085664,1.83398e-05
6473,14.0,29.0,0.00361926,  -567.800E-03,   64.4465E-03,       5.21567,-0.0312126,-0.00929106,1.70775e-05
6474,13.0,29.0,0.00372312,  -556.422E-03,   64.4463E-03,       5.36597,-0.0334979,-0.00997935,1.50349e-05
6479,12.0,29.0,0.00382104,  -546.307E-03,   64.4461E-03,       5.50772,-0.0356541,-0.0106286,1.24143e-05
6482,11.0,29.0,0.0039126,  -537.457E-03,   64.4459E-03,       5.64035,-0.0376727,-0.0112361,9.45877e-06
6483,10.0,29.0,0.00399747,  -529.852E-03,   64.4457E-03,       5.76333,-0.039546,-0.0117996,6.42304e-06
6488,9.0,29.0,0.00407529,  -523.454E-03,   64.4456E-03,       5.87616,-0.0412663,-0.0123166,3.5464e-06
6489,8.0,29.0,0.00414578,  -518.203E-03,   64.4454E-03,       5.97839,-0.0428266,-0.0127851,1.03029e-06
6494,7.0,29.0,0.00420863,  -514.025E-03,   64.4453E-03,       6.06961,-0.0442203,-0.013203,-9.76876e-07
6497,6.0,29.0,0.00426362,  -510.826E-03,   64.4452E-03,       6.14943,-0.0454411,-0.0135687,-2.38707e-06
6498,5.0,29.0,0.00431052,  -508.497E-03,   64.4451E-03,       6.21754,-0.0464837,-0.0138807,-3.17247e-06
6503,4.0,29.0,0.00434915,  -506.916E-03,   64.4451E-03,       6.27365,-0.0473434,-0.0141376,-3.35957e-06
6504,3.0,29.0,0.00437935,  -505.948E-03,   64.4450E-03,       6.31754,-0.0480163,-0.0143385,-3.01973e-06
6509,2.0,29.0,0.00440101,  -505.448E-03,   64.4450E-03,       6.34902,-0.0484991,-0.0144826,-2.25829e-06
6512,1.0,29.0,0.00441404,  -505.265E-03,   64.4450E-03,       6.36796,-0.0487897,-0.0145692,-1.20402e-06
6513,0.0,29.0,0.00441839,  -505.241E-03,   64.4450E-03,       6.37428,-0.0488868,-0.0145982,0.0
6518,-1.0,29.0,0.00441404,  -505.217E-03,   64.4450E-03,       6.36796,-0.0487897,-0.0145692,1.20402e-06
6519,-2.0,29.0,0.00440101,  -505.034E-03,   64.4450E-03,       6.34902,-0.0484991,-0.0144826,2.25829e-06
6524,-3.0,29.0,0.00437935,  -504.534E-03,   64.4450E-03,       6.31754,-0.0480163,-0.0143385,3.01973e-06
6527,-4.0,29.0,0.00434915,  -503.566E-03,   64.4451E-03,       6.27365,-0.0473434,-0.0141376,3.35957e-06
6528,-5.0,29.0,0.00431052,  -501.984E-03,   64.4451E-03,       6.21754,-0.0464837,-0.0138807,3.17247e-06
6533,-6.0,29.0,0.00426362,  -499.655E-03,   64.4452E-03,       6.14943,-0.0454411,-0.0135687,2.38707e-06
6534,-7.0,29.0,0.00420863,  -496.456E-03,   64.4453E-03,       6.06961,-0.0442203,-0.013203,9.76876e-07
6539,-8.0,29.0,0.00414578,  -492.278E-03,   64.4454E-03,       5.97839,-0.0428266,-0.0127851,-1.03029e-06
6542,-9.0,29.0,0.00407529,  -487.028E-03,   64.4456E-03,       5.87616,-0.0412663,-0.0123166,-3.5464e-06
6543,-10.0,29.0,0.00399747,  -480.630E-03,   64.4457E-03,       5.76333,-0.039546,-0.0117996,-6.42304e-06
6548,-11.0,29.0,0.0039126,  -473.025E-03,   64.4459E-03,       5.64035,-0.0376727,-0.0112361,-9.45877e-06
6549,-12.0,29.0,0.00382104,  -464.175E-03,   64.4461E-03,       5.50772,-0.0356541,-0.0106286,-1.24143e-05
6554,-13.0,29.0,0.00372312,  -454.060E-03,   64.4463E-03,       5.36597,-0.0334979,-0.00997935,-1.50349e-05
6557,-14.0,29.0,0.00361926,  -442.682E-03,   64.4465E-03,       5.21567,-0.0312126,-0.00929106,-1.70775e-05
6558,-15.0,29.0,0.00350984,  -430.059E-03,   64.4467E-03,       5.05742,-0.0288065,-0.0085664,-1.83398e-05
6563,-16.0,29.0,0.0033953,  -416.233E-03,   64.4469E-03,       4.89185,-0.0262885,-0.00780818,-1.86856e-05
6564,-17.0,29.0,0.0032761,  -401.263E-03,   64.4471E-03,       4.71960,-0.0236679,-0.00701931,-1.80643e-05
6569,-18.0,29.0,0.0031527,  -385.223E-03,   64.4473E-03,       4.54136,-0.0209542,-0.00620277,-1.6519e-05
6572,-19.0,29.0,0.00302559,  -368.209E-03,   64.4475E-03,       4.35783,-0.0181576,-0.00536168,-1.41836e-05
6573,-20.0,29.0,0.00289527,  -350.330E-03,   64.4477E-03,       4.16972,-0.0152885,-0.00449922,-1.12661e-05
6578,-21.0,29.0,0.00276224,  -331.706E-03,   64.4478E-03,       3.97778,-0.012358,-0.00361874,-8.02315e-06
6579,-22.0,29.0,0.00262704,  -312.473E-03,   64.4480E-03,       3.78275,-0.00937749,-0.00272365,-4.72768e-06
6584,-23.0,29.0,0.0024902,  -292.775E-03,   64.4481E-03,       3.58540,-0.00635907,-0.00181752,-1.63521e-06
6587,-24.0,29.0,0.00235224,  -272.762E-03,   64.4482E-03,       3.38650,-0.00331503,-0.000904002,1.04569e-06
6588,-25.0,29.0,0.00221372,  -252.590E-03,   64.4482E-03,       3.18682,-0.000257989,1.31472e-05,3.17472e-06
6593,-26.0,29.0,0.00207517,  -232.419E-03,   64.4483E-03,       2.98714,0.00279929,0.00093012,4.68977e-06
6594,-27.0,29.0,0.00193715,  -212.407E-03,   64.4483E-03,       2.78823,0.00584403,0.00184308,5.60502e-06
6599,-28.0,29.0,0.00180019,  -192.710E-03,   64.4482E-03,       2.59089,0.00886357,0.00274822,5.99787e-06
6602,-29.0,29.0,0.00166482,  -173.479E-03,   64.4482E-03,       2.39587,0.0118455,0.00364179,5.98961e-06
6603,-30.0,29.0,0.00153159,  -154.857E-03,   64.4481E-03,       2.20394,0.0147778,0.00452015,5.72121e-06
6608,-31.0,29.0,0.00140101,  -136.980E-03,   64.4480E-03,       2.01585,0.0176489,0.00537984,5.33333e-06
6609,-32.0,29.0,0.0012736,  -119.968E-03,   64.4478E-03,       1.83233,0.0204476,0.00621755,4.94613e-06
6614,-33.0,29.0,0.00114986,  -103.932E-03,   64.4477E-03,       1.65410,0.0231634,0.00703018,4.65212e-06
6617,-34.0,29.0,0.00103027,  -88.9639E-03,   64.4475E-03,       1.48187,0.0257863,0.00781481,4.50426e-06
6618,-35.0,29.0,0.0009152969999999999,  -75.1409E-03,   64.4472E-03,       1.31631,0.0283067,0.00856869,4.52202e-06
6623,-36.0,29.0,0.000805407,  -62.5215E-03,   64.4469E-03,       1.15808,0.0307154,0.00928916,4.67928e-06
6624,-37.0,29.0,0.000701028,  -51.1458E-03,   64.4466E-03,       1.00780,0.0330036,0.00997366,4.91753e-06
6629,-38.0,29.0,0.000602576,  -41.0342E-03,   64.4463E-03,   866.077E-03,0.0351627,0.0106196,5.12732e-06
6632,-39.0,29.0,0.0005104409999999999,  -32.1871E-03,   64.4459E-03,   733.472E-03,0.0371843,0.0112246,5.17368e-06
6633,-40.0,29.0,0.00042499300000000003,  -24.5855E-03,   64.4455E-03,   610.519E-03,0.0390602,0.0117861,4.88426e-06
6638,-41.0,29.0,0.00034657599999999997,  -18.1904E-03,   64.4451E-03,   497.717E-03,0.0407821,0.0123016,4.10386e-06
6639,-42.0,29.0,0.00027550599999999996,  -12.9439E-03,   64.4447E-03,   395.521E-03,0.0423422,0.0127688,2.71088e-06
6644,-43.0,29.0,0.00021207599999999998,  -8.76961E-03,   64.4444E-03,   304.350E-03,0.0437329,0.0131856,6.94706e-07
6647,-44.0,29.0,0.000156548,  -5.57432E-03,   64.4441E-03,   224.574E-03,0.044947,0.01355,-1.80782e-06
6648,-45.0,29.0,0.000109152,  -3.24900E-03,   64.4439E-03,   156.519E-03,0.0459781,0.0138601,-4.4778e-06
6653,-46.0,29.0,7.008909999999999e-05,  -1.67077E-03,   64.4438E-03,   100.464E-03,0.0468205,0.0141143,-6.80001e-06
6654,-47.0,29.0,3.9527800000000005e-05,  -704.750E-06,   64.4438E-03,   56.6354E-03,0.0474697,0.014311,-8.14531e-06
6659,-48.0,29.0,1.76009e-05,  -206.372E-06,   64.4438E-03,   25.2090E-03,0.0479224,0.0144488,-7.77632e-06
6662,-49.0,29.0,4.4052e-06,  -23.6999E-06,   64.4438E-03,   6.30751E-03,0.0481762,0.0145264,-4.98296e-06
6663,-50.0,29.0,0.0,  -13.2647E-42,   64.4438E-03,           -0.,0.0482532,0.0145499,-2.89364e-06
6668,50.0,28.0,0.0,      -1.01048,   64.4428E-03,           -0.,0.048261,0.0145507,2.4959e-06
6669,49.0,28.0,4.38083e-06,      -1.01046,   64.4427E-03,   6.30826E-03,0.0481818,0.0145264,4.27885e-06
6674,48.0,28.0,1.75055e-05,      -1.01028,   64.4427E-03,   25.2115E-03,0.0479244,0.0144479,6.57193e-06
6677,47.0,28.0,3.93191e-05,      -1.00978,   64.4428E-03,   56.6397E-03,0.0474693,0.0143099,6.68244e-06
6678,46.0,28.0,6.97289e-05,      -1.00881,   64.4428E-03,   100.469E-03,0.0468186,0.0141133,5.30232e-06
6683,45.0,28.0,0.00010860600000000001,      -1.00723,   64.4430E-03,   156.525E-03,0.0459757,0.0138595,3.0628e-06
6684,44.0,28.0,0.00015578600000000002,      -1.00491,   64.4432E-03,   224.579E-03,0.0449449,0.01355,5.48679e-07
6689,43.0,28.0,0.000211073,      -1.00171,   64.4434E-03,   304.353E-03,0.0437316,0.0131864,-1.79307e-06
6690,42.0,28.0,0.000274237,  -997.538E-03,   64.4438E-03,   395.523E-03,0.042342,0.0127705,-3.65298e-06
6695,41.0,28.0,0.00034502,  -992.292E-03,   64.4441E-03,   497.716E-03,0.0407829,0.0123041,-4.88477e-06
6696,40.0,28.0,0.00042313199999999995,  -985.897E-03,   64.4445E-03,   610.516E-03,0.0390619,0.0117893,-5.48356e-06
6701,39.0,28.0,0.000508258,  -978.296E-03,   64.4449E-03,   733.467E-03,0.0371867,0.0112283,-5.54289e-06
6704,38.0,28.0,0.000600056,  -969.449E-03,   64.4453E-03,   866.071E-03,0.0351653,0.0106235,-5.22484e-06
6705,37.0,28.0,0.000698158,  -959.337E-03,   64.4456E-03,       1.00780,0.033006,0.00997726,-4.70307e-06
6710,36.0,28.0,0.0008021739999999999,  -947.962E-03,   64.4459E-03,       1.15808,0.0307173,0.00929216,-4.14912e-06
6711,35.0,28.0,0.00091169,  -935.342E-03,   64.4461E-03,       1.31631,0.0283079,0.00857079,-3.69514e-06
6716,34.0,28.0,0.00102627,  -921.519E-03,   64.4463E-03,       1.48187,0.0257867,0.00781583,-3.43692e-06
6719,33.0,28.0,0.00114547,  -906.551E-03,   64.4465E-03,       1.65410,0.023163,0.00703005,-3.41613e-06
6720,32.0,28.0,0.00126881,  -890.514E-03,   64.4467E-03,       1.83233,0.0204465,0.00621636,-3.62888e-06
6725,31.0,28.0,0.00139582,  -873.502E-03,   64.4468E-03,       2.01585,0.0176473,0.00537778,-4.01967e-06
6726,30.0,28.0,0.00152598,  -855.625E-03,   64.4469E-03,       2.20395,0.0147762,0.00451749,-4.49209e-06
6731,29.0,28.0,0.00165879,  -837.003E-03,   64.4469E-03,       2.39588,0.0118442,0.00363883,-4.91397e-06
6734,28.0,28.0,0.00179373,  -817.772E-03,   64.4470E-03,       2.59090,0.00886278,0.00274527,-5.13446e-06
6735,27.0,28.0,0.00193026,  -798.075E-03,   64.4470E-03,       2.78824,0.00584404,0.0018404,-5.00096e-06
6740,26.0,28.0,0.00206785,  -778.063E-03,   64.4470E-03,       2.98714,0.00280025,0.000927902,-4.38214e-06
6741,25.0,28.0,0.00220597,  -757.892E-03,   64.4469E-03,       3.18682,-0.00025606,1.1507e-05,-3.18921e-06
6746,24.0,28.0,0.00234406,  -737.721E-03,   64.4469E-03,       3.38650,-0.00331224,-0.00090504,-1.39477e-06
6749,23.0,28.0,0.00248159,  -717.708E-03,   64.4468E-03,       3.58540,-0.00635564,-0.001818,9.55775e-07
6750,22.0,28.0,0.00261801,  -698.010E-03,   64.4467E-03,       3.78275,-0.00937374,-0.00272369,3.74208e-06
6755,21.0,28.0,0.00275279,  -678.777E-03,   64.4465E-03,       3.97778,-0.0123542,-0.00361848,6.7775e-06
6756,20.0,28.0,0.0028854,  -660.154E-03,   64.4464E-03,       4.16972,-0.0152852,-0.00449881,9.82786e-06
6761,19.0,28.0,0.00301532,  -642.274E-03,   64.4462E-03,       4.35783,-0.018155,-0.00536124,1.26378e-05
6764,18.0,28.0,0.00314204,  -625.260E-03,   64.4461E-03,       4.54137,-0.0209525,-0.00620241,1.49611e-05
6765,17.0,28.0,0.00326505,  -609.220E-03,   64.4459E-03,       4.71961,-0.0236672,-0.00701908,1.65904e-05
6770,16.0,28.0,0.00338388,  -594.249E-03,   64.4457E-03,       4.89186,-0.0262889,-0.00780811,1.73823e-05
6771,15.0,28.0,0.00349806,  -580.423E-03,   64.4456E-03,       5.05744,-0.0288077,-0.00856645,1.72743e-05
6776,14.0,28.0,0.00360714,  -567.800E-03,   64.4454E-03,       5.21569,-0.0312145,-0.00929119,1.62902e-05
6779,13.0,28.0,0.00371068,  -556.421E-03,   64.4453E-03,       5.36599,-0.0335003,-0.0099795,1.45358e-05
6780,12.0,28.0,0.00380829,  -546.307E-03,   64.4451E-03,       5.50773,-0.0356566,-0.0106287,1.21843e-05
6785,11.0,28.0,0.00389957,  -537.457E-03,   64.4449E-03,       5.64036,-0.0376751,-0.0112361,9.45443e-06
6786,10.0,28.0,0.00398417,  -529.852E-03,   64.4448E-03,       5.76334,-0.039548,-0.0117995,6.58472e-06
6791,9.0,28.0,0.00406175,  -523.453E-03,   64.4446E-03,       5.87618,-0.0412678,-0.0123164,3.80824e-06
6794,8.0,28.0,0.00413201,  -518.203E-03,   64.4445E-03,       5.97841,-0.0428275,-0.0127847,1.32996e-06
6795,7.0,28.0,0.00419468,  -514.025E-03,   64.4444E-03,       6.06962,-0.0442205,-0.0132026,-6.90197e-07
6800,6.0,28.0,0.00424949,  -510.826E-03,   64.4443E-03,       6.14945,-0.0454408,-0.0135682,-2.14753e-06
6801,5.0,28.0,0.00429624,  -508.497E-03,   64.4442E-03,       6.21756,-0.0464829,-0.0138802,-2.99608e-06
6806,4.0,28.0,0.00433475,  -506.916E-03,   64.4441E-03,       6.27367,-0.0473422,-0.0141372,-3.24612e-06
6809,3.0,28.0,0.00436486,  -505.948E-03,   64.4440E-03,       6.31755,-0.0480147,-0.0143381,-2.95753e-06
6810,2.0,28.0,0.00438645,  -505.448E-03,   64.4440E-03,       6.34903,-0.0484974,-0.0144822,-2.2304e-06
6815,1.0,28.0,0.00439944,  -505.265E-03,   64.4440E-03,       6.36797,-0.0487879,-0.0145689,-1.19473e-06
6816,-1.15439e-29,28.0,0.00440377,  -505.241E-03,   64.4440E-03,       6.37429,-0.0488849,-0.0145978,1.42109e-14
6821,-1.0,28.0,0.00439944,  -505.217E-03,   64.4440E-03,       6.36797,-0.0487879,-0.0145689,1.19473e-06
6824,-2.0,28.0,0.00438645,  -505.034E-03,   64.4440E-03,       6.34903,-0.0484974,-0.0144822,2.2304e-06
6825,-3.0,28.0,0.00436486,  -504.534E-03,   64.4440E-03,       6.31755,-0.0480147,-0.0143381,2.95753e-06
6830,-4.0,28.0,0.00433475,  -503.566E-03,   64.4441E-03,       6.27367,-0.0473422,-0.0141372,3.24612e-06
6831,-5.0,28.0,0.00429624,  -501.985E-03,   64.4442E-03,       6.21756,-0.0464829,-0.0138802,2.99608e-06
6836,-6.0,28.0,0.00424949,  -499.656E-03,   64.4443E-03,       6.14945,-0.0454408,-0.0135682,2.14753e-06
6839,-7.0,28.0,0.00419468,  -496.457E-03,   64.4444E-03,       6.06962,-0.0442205,-0.0132026,6.90197e-07
6840,-8.0,28.0,0.00413201,  -492.279E-03,   64.4445E-03,       5.97841,-0.0428275,-0.0127847,-1.32996e-06
6845,-9.0,28.0,0.00406175,  -487.029E-03,   64.4446E-03,       5.87618,-0.0412678,-0.0123164,-3.80824e-06
6846,-10.0,28.0,0.00398417,  -480.630E-03,   64.4448E-03,       5.76334,-0.039548,-0.0117995,-6.58472e-06
6851,-11.0,28.0,0.00389957,  -473.025E-03,   64.4449E-03,       5.64036,-0.0376751,-0.0112361,-9.45443e-06
6854,-12.0,28.0,0.00380829,  -464.175E-03,   64.4451E-03,       5.50773,-0.0356566,-0.0106287,-1.21843e-05
6855,-13.0,28.0,0.00371068,  -454.060E-03,   64.4453E-03,       5.36599,-0.0335003,-0.0099795,-1.45358e-05
6860,-14.0,28.0,0.00360714,  -442.682E-03,   64.4454E-03,       5.21569,-0.0312145,-0.00929119,-1.62902e-05
6861,-15.0,28.0,0.00349806,  -430.059E-03,   64.4456E-03,       5.05744,-0.0288077,-0.00856645,-1.72743e-05
6866,-16.0,28.0,0.00338388,  -416.233E-03,   64.4457E-03,       4.89186,-0.0262889,-0.00780811,-1.73823e-05
6869,-17.0,28.0,0.00326505,  -401.262E-03,   64.4459E-03,       4.71961,-0.0236672,-0.00701908,-1.65904e-05
6870,-18.0,28.0,0.00314204,  -385.222E-03,   64.4461E-03,       4.54137,-0.0209525,-0.00620241,-1.49611e-05
6875,-19.0,28.0,0.00301532,  -368.208E-03,   64.4462E-03,       4.35783,-0.018155,-0.00536124,-1.26378e-05
6876,-20.0,28.0,0.0028854,  -350.328E-03,   64.4464E-03,       4.16972,-0.0152852,-0.00449881,-9.82786e-06
6881,-21.0,28.0,0.00275279,  -331.705E-03,   64.4465E-03,       3.97778,-0.0123542,-0.00361848,-6.7775e-06
6884,-22.0,28.0,0.00261801,  -312.472E-03,   64.4467E-03,       3.78275,-0.00937374,-0.00272369,-3.74208e-06
6885,-23.0,28.0,0.00248159,  -292.773E-03,   64.4468E-03,       3.58540,-0.00635564,-0.001818,-9.55775e-07
6890,-24.0,28.0,0.00234406,  -272.761E-03,   64.4469E-03,       3.38650,-0.00331224,-0.00090504,1.39477e-06
6891,-25.0,28.0,0.00220597,  -252.590E-03,   64.4469E-03,       3.18682,-0.00025606,1.1507e-05,3.18921e-06
6896,-26.0,28.0,0.00206785,  -232.419E-03,   64.4470E-03,       2.98714,0.00280025,0.000927902,4.38214e-06
6899,-27.0,28.0,0.00193026,  -212.407E-03,   64.4470E-03,       2.78824,0.00584404,0.0018404,5.00096e-06
6900,-28.0,28.0,0.00179373,  -192.710E-03,   64.4470E-03,       2.59090,0.00886278,0.00274527,5.13446e-06
6905,-29.0,28.0,0.00165879,  -173.479E-03,   64.4469E-03,       2.39588,0.0118442,0.00363883,4.91397e-06
6906,-30.0,28.0,0.00152598,  -154.857E-03,   64.4469E-03,       2.20395,0.0147762,0.00451749,4.49209e-06
6911,-31.0,28.0,0.00139582,  -136.980E-03,   64.4468E-03,       2.01585,0.0176473,0.00537778,4.01967e-06
6914,-32.0,28.0,0.00126881,  -119.968E-03,   64.4467E-03,       1.83233,0.0204465,0.00621636,3.62888e-06
6915,-33.0,28.0,0.00114547,  -103.931E-03,   64.4465E-03,       1.65410,0.023163,0.00703005,3.41613e-06
6920,-34.0,28.0,0.00102627,  -88.9629E-03,   64.4463E-03,       1.48187,0.0257867,0.00781583,3.43692e-06
6921,-35.0,28.0,0.00091169,  -75.1396E-03,   64.4461E-03,       1.31631,0.0283079,0.00857079,3.69514e-06
6926,-36.0,28.0,0.0008021739999999999,  -62.5201E-03,   64.4459E-03,       1.15808,0.0307173,0.00929216,4.14912e-06
6929,-37.0,28.0,0.000698158,  -51.1443E-03,   64.4456E-03,       1.00780,0.033006,0.00997726,4.70307e-06
6930,-38.0,28.0,0.000600056,  -41.0327E-03,   64.4453E-03,   866.071E-03,0.0351653,0.0106235,5.22484e-06
6935,-39.0,28.0,0.000508258,  -32.1859E-03,   64.4449E-03,   733.467E-03,0.0371867,0.0112283,5.54289e-06
6936,-40.0,28.0,0.00042313199999999995,  -24.5845E-03,   64.4445E-03,   610.516E-03,0.0390619,0.0117893,5.48356e-06
6941,-41.0,28.0,0.00034502,  -18.1897E-03,   64.4441E-03,   497.716E-03,0.0407829,0.0123041,4.88477e-06
6944,-42.0,28.0,0.000274237,  -12.9434E-03,   64.4438E-03,   395.523E-03,0.042342,0.0127705,3.65298e-06
6945,-43.0,28.0,0.000211073,  -8.76938E-03,   64.4434E-03,   304.353E-03,0.0437316,0.0131864,1.79307e-06
6950,-44.0,28.0,0.00015578600000000002,  -5.57423E-03,   64.4432E-03,   224.579E-03,0.0449449,0.01355,-5.48679e-07
6951,-45.0,28.0,0.00010860600000000001,  -3.24900E-03,   64.4430E-03,   156.525E-03,0.0459757,0.0138595,-3.0628e-06
6956,-46.0,28.0,6.97289e-05,  -1.67078E-03,   64.4428E-03,   100.469E-03,0.0468186,0.0141133,-5.30232e-06
6959,-47.0,28.0,3.93191e-05,  -704.748E-06,   64.4428E-03,   56.6397E-03,0.0474693,0.0143099,-6.68244e-06
6960,-48.0,28.0,1.75055e-05,  -206.344E-06,   64.4427E-03,   25.2115E-03,0.0479244,0.0144479,-6.57193e-06
6965,-49.0,28.0,4.38083e-06,  -23.6728E-06,   64.4427E-03,   6.30826E-03,0.0481818,0.0145264,-4.27885e-06
6966,-50.0,28.0,0.0,  -13.1834E-42,   64.4428E-03,           -0.,0.048261,0.0145507,-2.4959e-06
6971,50.0,27.0,0.0,      -1.01048,   64.4417E-03,           -0.,0.0482678,0.0145511,2.15983e-06
6974,49.0,27.0,4.3580000000000005e-06,      -1.01046,   64.4417E-03,   6.30896E-03,0.0481868,0.0145265,3.65516e-06
6975,48.0,27.0,1.7416e-05,      -1.01028,   64.4417E-03,   25.2137E-03,0.0479262,0.0144473,5.52702e-06
6980,47.0,27.0,3.91225e-05,      -1.00978,   64.4418E-03,   56.6436E-03,0.0474688,0.0143089,5.4587e-06
6981,46.0,27.0,6.93887e-05,      -1.00881,   64.4418E-03,   100.474E-03,0.0468169,0.0141123,4.06885e-06
6986,45.0,27.0,0.000108089,      -1.00723,   64.4420E-03,   156.530E-03,0.0459735,0.0138588,1.95189e-06
6989,44.0,27.0,0.000155064,      -1.00491,   64.4422E-03,   224.583E-03,0.0449429,0.0135498,-3.91694e-07
6990,43.0,27.0,0.000210118,      -1.00171,   64.4425E-03,   304.356E-03,0.0437303,0.0131868,-2.54597e-06
6995,42.0,27.0,0.000273028,  -997.539E-03,   64.4428E-03,   395.524E-03,0.0423416,0.0127716,-4.23562e-06
6996,41.0,27.0,0.000343534,  -992.293E-03,   64.4432E-03,   497.715E-03,0.0407836,0.0123058,-5.31619e-06
7001,40.0,27.0,0.000421353,  -985.898E-03,   64.4435E-03,   610.513E-03,0.0390634,0.0117916,-5.77111e-06
7004,39.0,27.0,0.000506169,  -978.297E-03,   64.4439E-03,   733.462E-03,0.0371888,0.011231,-5.68647e-06
7005,38.0,27.0,0.000597642,  -969.450E-03,   64.4442E-03,   866.066E-03,0.0351677,0.0106263,-5.20919e-06
7010,37.0,27.0,0.0006954060000000001,  -959.339E-03,   64.4445E-03,       1.00779,0.0330084,0.00997991,-4.52058e-06
7011,36.0,27.0,0.000799072,  -947.963E-03,   64.4448E-03,       1.15807,0.0307193,0.00929439,-3.79358e-06
7016,35.0,27.0,0.0009082280000000001,  -935.343E-03,   64.4450E-03,       1.31630,0.0283092,0.00857239,-3.1794e-06
7019,34.0,27.0,0.00102244,  -921.520E-03,   64.4452E-03,       1.48187,0.0257872,0.00781666,-2.78172e-06
7020,33.0,27.0,0.00114126,  -906.551E-03,   64.4454E-03,       1.65410,0.0231628,0.00703007,-2.6562e-06
7025,32.0,27.0,0.00126422,  -890.514E-03,   64.4455E-03,       1.83233,0.0204457,0.0062156,-2.801e-06
7026,31.0,27.0,0.00139083,  -873.502E-03,   64.4456E-03,       2.01585,0.0176461,0.00537638,-3.16419e-06
7031,30.0,27.0,0.00152059,  -855.625E-03,   64.4456E-03,       2.20395,0.0147748,0.00451564,-3.64675e-06
7034,29.0,27.0,0.001653,  -837.003E-03,   64.4457E-03,       2.39588,0.0118429,0.00363675,-4.11676e-06
7035,28.0,27.0,0.00178753,  -817.772E-03,   64.4457E-03,       2.59090,0.00886197,0.00274317,-4.42312e-06
7040,27.0,27.0,0.00192366,  -798.075E-03,   64.4457E-03,       2.78824,0.00584389,0.00183846,-4.41572e-06
7041,26.0,27.0,0.00206084,  -778.063E-03,   64.4457E-03,       2.98714,0.0028009,0.000926256,-3.96528e-06
7046,25.0,27.0,0.00219855,  -757.893E-03,   64.4456E-03,       3.18682,-0.000254564,1.02283e-05,-2.98351e-06
7049,24.0,27.0,0.00233623,  -737.722E-03,   64.4456E-03,       3.38650,-0.00330996,-0.000905935,-1.43901e-06
7050,23.0,27.0,0.00247335,  -717.710E-03,   64.4455E-03,       3.58541,-0.00635275,-0.00181855,6.3286e-07
7055,22.0,27.0,0.00260937,  -698.012E-03,   64.4454E-03,       3.78276,-0.00937048,-0.00272396,3.12845e-06
7056,21.0,27.0,0.00274376,  -678.779E-03,   64.4452E-03,       3.97778,-0.0123509,-0.00361855,5.88341e-06
7061,20.0,27.0,0.00287598,  -660.155E-03,   64.4451E-03,       4.16973,-0.0152821,-0.00449879,8.68869e-06
7064,19.0,27.0,0.00300552,  -642.275E-03,   64.4450E-03,       4.35783,-0.0181524,-0.0053612,1.13134e-05
7065,18.0,27.0,0.00313187,  -625.261E-03,   64.4448E-03,       4.54137,-0.0209507,-0.0062024,1.35308e-05
7070,17.0,27.0,0.00325452,  -609.221E-03,   64.4447E-03,       4.71961,-0.0236663,-0.00701912,1.51453e-05
7071,16.0,27.0,0.003373,  -594.250E-03,   64.4446E-03,       4.89187,-0.0262888,-0.00780819,1.60147e-05
7076,15.0,27.0,0.00348685,  -580.423E-03,   64.4445E-03,       5.05745,-0.0288085,-0.00856655,1.60666e-05
7079,14.0,27.0,0.0035956,  -567.800E-03,   64.4443E-03,       5.21570,-0.031216,-0.00929125,1.53057e-05
7080,13.0,27.0,0.00369885,  -556.421E-03,   64.4442E-03,       5.36600,-0.0335023,-0.00997948,1.38123e-05
7085,12.0,27.0,0.00379617,  -546.306E-03,   64.4441E-03,       5.50775,-0.0356588,-0.0106285,1.17313e-05
7086,11.0,27.0,0.00388718,  -537.456E-03,   64.4439E-03,       5.64038,-0.0376773,-0.0112359,9.25448e-06
7091,10.0,27.0,0.00397153,  -529.851E-03,   64.4438E-03,       5.76336,-0.0395499,-0.011799,6.59904e-06
7094,9.0,27.0,0.00404889,  -523.453E-03,   64.4437E-03,       5.87619,-0.0412694,-0.0123158,3.9841e-06
7095,8.0,27.0,0.00411894,  -518.203E-03,   64.4435E-03,       5.97843,-0.0428285,-0.012784,1.60933e-06
7100,7.0,27.0,0.00418142,  -514.025E-03,   64.4434E-03,       6.06964,-0.044221,-0.0132018,-3.62532e-07
7101,6.0,27.0,0.00423607,  -510.826E-03,   64.4433E-03,       6.14946,-0.0454407,-0.0135674,-1.81783e-06
7106,5.0,27.0,0.00428269,  -508.497E-03,   64.4432E-03,       6.21757,-0.0464823,-0.0138793,-2.69806e-06
7109,4.0,27.0,0.00432108,  -506.916E-03,   64.4431E-03,       6.27368,-0.0473411,-0.0141363,-3.00038e-06
7110,3.0,27.0,0.0043511,  -505.948E-03,   64.4430E-03,       6.31757,-0.0480133,-0.0143373,-2.77342e-06
7115,2.0,27.0,0.00437263,  -505.448E-03,   64.4430E-03,       6.34904,-0.0484957,-0.0144815,-2.10959e-06
7116,1.0,27.0,0.00438558,  -505.265E-03,   64.4430E-03,       6.36798,-0.0487861,-0.0145682,-1.1353e-06
7121,-1.5240099999999998e-29,27.0,0.0043899,  -505.241E-03,   64.4430E-03,       6.37430,-0.048883,-0.0145971,0.0
7124,-1.0,27.0,0.00438558,  -505.217E-03,   64.4430E-03,       6.36798,-0.0487861,-0.0145682,1.1353e-06
7125,-2.0,27.0,0.00437263,  -505.034E-03,   64.4430E-03,       6.34904,-0.0484957,-0.0144815,2.10959e-06
7130,-3.0,27.0,0.0043511,  -504.534E-03,   64.4430E-03,       6.31757,-0.0480133,-0.0143373,2.77342e-06
7131,-4.0,27.0,0.00432108,  -503.566E-03,   64.4431E-03,       6.27368,-0.0473411,-0.0141363,3.00038e-06
7136,-5.0,27.0,0.00428269,  -501.985E-03,   64.4432E-03,       6.21757,-0.0464823,-0.0138793,2.69806e-06
7139,-6.0,27.0,0.00423607,  -499.656E-03,   64.4433E-03,       6.14946,-0.0454407,-0.0135674,1.81783e-06
7140,-7.0,27.0,0.00418142,  -496.457E-03,   64.4434E-03,       6.06964,-0.044221,-0.0132018,3.62532e-07
7145,-8.0,27.0,0.00411894,  -492.279E-03,   64.4435E-03,       5.97843,-0.0428285,-0.012784,-1.60933e-06
7146,-9.0,27.0,0.00404889,  -487.029E-03,   64.4437E-03,       5.87619,-0.0412694,-0.0123158,-3.9841e-06
7151,-10.0,27.0,0.00397153,  -480.631E-03,   64.4438E-03,       5.76336,-0.0395499,-0.011799,-6.59904e-06
7154,-11.0,27.0,0.00388718,  -473.026E-03,   64.4439E-03,       5.64038,-0.0376773,-0.0112359,-9.25448e-06
7155,-12.0,27.0,0.00379617,  -464.175E-03,   64.4441E-03,       5.50775,-0.0356588,-0.0106285,-1.17313e-05
7160,-13.0,27.0,0.00369885,  -454.061E-03,   64.4442E-03,       5.36600,-0.0335023,-0.00997948,-1.38123e-05
7161,-14.0,27.0,0.0035956,  -442.682E-03,   64.4443E-03,       5.21570,-0.031216,-0.00929125,-1.53057e-05
7166,-15.0,27.0,0.00348685,  -430.059E-03,   64.4445E-03,       5.05745,-0.0288085,-0.00856655,-1.60666e-05
7167,-16.0,27.0,0.003373,  -416.232E-03,   64.4446E-03,       4.89187,-0.0262888,-0.00780819,-1.60147e-05
7172,-17.0,27.0,0.00325452,  -401.261E-03,   64.4447E-03,       4.71961,-0.0236663,-0.00701912,-1.51453e-05
7173,-18.0,27.0,0.00313187,  -385.221E-03,   64.4448E-03,       4.54137,-0.0209507,-0.0062024,-1.35308e-05
7178,-19.0,27.0,0.00300552,  -368.207E-03,   64.4450E-03,       4.35783,-0.0181524,-0.0053612,-1.13134e-05
7181,-20.0,27.0,0.00287598,  -350.326E-03,   64.4451E-03,       4.16973,-0.0152821,-0.00449879,-8.68869e-06
7182,-21.0,27.0,0.00274376,  -331.703E-03,   64.4452E-03,       3.97778,-0.0123509,-0.00361855,-5.88341e-06
7187,-22.0,27.0,0.00260937,  -312.470E-03,   64.4454E-03,       3.78276,-0.00937048,-0.00272396,-3.12845e-06
7188,-23.0,27.0,0.00247335,  -292.772E-03,   64.4455E-03,       3.58541,-0.00635275,-0.00181855,-6.3286e-07
7193,-24.0,27.0,0.00233623,  -272.760E-03,   64.4456E-03,       3.38650,-0.00330996,-0.000905935,1.43901e-06
7196,-25.0,27.0,0.00219855,  -252.589E-03,   64.4456E-03,       3.18682,-0.000254564,1.02283e-05,2.98351e-06
7197,-26.0,27.0,0.00206084,  -232.418E-03,   64.4457E-03,       2.98714,0.0028009,0.000926256,3.96528e-06
7202,-27.0,27.0,0.00192366,  -212.407E-03,   64.4457E-03,       2.78824,0.00584389,0.00183846,4.41572e-06
7203,-28.0,27.0,0.00178753,  -192.710E-03,   64.4457E-03,       2.59090,0.00886197,0.00274317,4.42312e-06
7208,-29.0,27.0,0.001653,  -173.479E-03,   64.4457E-03,       2.39588,0.0118429,0.00363675,4.11676e-06
7211,-30.0,27.0,0.00152059,  -154.857E-03,   64.4456E-03,       2.20395,0.0147748,0.00451564,3.64675e-06
7212,-31.0,27.0,0.00139083,  -136.979E-03,   64.4456E-03,       2.01585,0.0176461,0.00537638,3.16419e-06
7217,-32.0,27.0,0.00126422,  -119.968E-03,   64.4455E-03,       1.83233,0.0204457,0.0062156,2.801e-06
7218,-33.0,27.0,0.00114126,  -103.931E-03,   64.4454E-03,       1.65410,0.0231628,0.00703007,2.6562e-06
7223,-34.0,27.0,0.00102244,  -88.9620E-03,   64.4452E-03,       1.48187,0.0257872,0.00781666,2.78172e-06
7226,-35.0,27.0,0.0009082280000000001,  -75.1384E-03,   64.4450E-03,       1.31630,0.0283092,0.00857239,3.1794e-06
7227,-36.0,27.0,0.000799072,  -62.5188E-03,   64.4448E-03,       1.15807,0.0307193,0.00929439,3.79358e-06
7232,-37.0,27.0,0.0006954060000000001,  -51.1430E-03,   64.4445E-03,       1.00779,0.0330084,0.00997991,4.52058e-06
7233,-38.0,27.0,0.000597642,  -41.0314E-03,   64.4442E-03,   866.066E-03,0.0351677,0.0106263,5.20919e-06
7238,-39.0,27.0,0.000506169,  -32.1847E-03,   64.4439E-03,   733.462E-03,0.0371888,0.011231,5.68647e-06
7241,-40.0,27.0,0.000421353,  -24.5836E-03,   64.4435E-03,   610.513E-03,0.0390634,0.0117916,5.77111e-06
7242,-41.0,27.0,0.000343534,  -18.1891E-03,   64.4432E-03,   497.715E-03,0.0407836,0.0123058,5.31619e-06
7247,-42.0,27.0,0.000273028,  -12.9430E-03,   64.4428E-03,   395.524E-03,0.0423416,0.0127716,4.23562e-06
7248,-43.0,27.0,0.000210118,  -8.76917E-03,   64.4425E-03,   304.356E-03,0.0437303,0.0131868,2.54597e-06
7253,-44.0,27.0,0.000155064,  -5.57417E-03,   64.4422E-03,   224.583E-03,0.0449429,0.0135498,3.91694e-07
7256,-45.0,27.0,0.000108089,  -3.24901E-03,   64.4420E-03,   156.530E-03,0.0459735,0.0138588,-1.95189e-06
7257,-46.0,27.0,6.93887e-05,  -1.67080E-03,   64.4418E-03,   100.474E-03,0.0468169,0.0141123,-4.06885e-06
7262,-47.0,27.0,3.91225e-05,  -704.746E-06,   64.4418E-03,   56.6436E-03,0.0474688,0.0143089,-5.4587e-06
7263,-48.0,27.0,1.7416e-05,  -206.322E-06,   64.4417E-03,   25.2137E-03,0.0479262,0.0144473,-5.52702e-06
7268,-49.0,27.0,4.3580000000000005e-06,  -23.6486E-06,   64.4417E-03,   6.30896E-03,0.0481868,0.0145265,-3.65516e-06
7271,-50.0,27.0,0.0,  -13.1134E-42,   64.4417E-03,           -0.,0.0482678,0.0145511,-2.15983e-06
7272,50.0,26.0,0.0,      -1.01048,   64.4407E-03,           -0.,0.0482741,0.014552,1.83453e-06
7277,49.0,26.0,4.3366300000000005e-06,      -1.01046,   64.4407E-03,   6.30956E-03,0.0481913,0.0145268,3.09891e-06
7278,48.0,26.0,1.7332e-05,      -1.01028,   64.4407E-03,   25.2158E-03,0.0479277,0.0144468,4.61349e-06
7283,47.0,26.0,3.8937800000000005e-05,      -1.00978,   64.4408E-03,   56.6470E-03,0.0474683,0.0143081,4.40911e-06
7286,46.0,26.0,6.90682e-05,      -1.00881,   64.4409E-03,   100.479E-03,0.0468152,0.0141115,3.05653e-06
7287,45.0,26.0,0.000107601,      -1.00723,   64.4410E-03,   156.535E-03,0.0459714,0.0138582,1.07191e-06
7292,44.0,26.0,0.00015438,      -1.00491,   64.4412E-03,   224.587E-03,0.044941,0.0135495,-1.08036e-06
7293,43.0,26.0,0.000209213,      -1.00171,   64.4415E-03,   304.359E-03,0.043729,0.013187,-3.0419e-06
7298,42.0,26.0,0.000271878,  -997.539E-03,   64.4418E-03,   395.525E-03,0.0423412,0.0127723,-4.55683e-06
7301,41.0,26.0,0.00034212099999999997,  -992.293E-03,   64.4422E-03,   497.714E-03,0.040784,0.012307,-5.49515e-06
7302,40.0,26.0,0.000419657,  -985.899E-03,   64.4425E-03,   610.511E-03,0.0390647,0.0117932,-5.83857e-06
7307,39.0,26.0,0.000504175,  -978.298E-03,   64.4429E-03,   733.458E-03,0.0371907,0.0112329,-5.66137e-06
7308,38.0,26.0,0.000595336,  -969.452E-03,   64.4432E-03,   866.061E-03,0.0351698,0.0106283,-5.10476e-06
7313,37.0,26.0,0.000692775,  -959.340E-03,   64.4435E-03,       1.00779,0.0330105,0.00998178,-4.33845e-06
7316,36.0,26.0,0.000796105,  -947.964E-03,   64.4437E-03,       1.15807,0.0307211,0.00929598,-3.5373e-06
7317,35.0,26.0,0.000904915,  -935.344E-03,   64.4439E-03,       1.31630,0.0283105,0.00857354,-2.8491e-06
7322,34.0,26.0,0.00101877,  -921.521E-03,   64.4441E-03,       1.48187,0.0257879,0.00781726,-2.38331e-06
7323,33.0,26.0,0.00113723,  -906.552E-03,   64.4442E-03,       1.65410,0.0231628,0.0070301,-2.19509e-06
7328,32.0,26.0,0.00125982,  -890.515E-03,   64.4443E-03,       1.83233,0.0204451,0.00621509,-2.28652e-06
7331,31.0,26.0,0.00138605,  -873.503E-03,   64.4444E-03,       2.01586,0.0176452,0.00537542,-2.60577e-06
7332,30.0,26.0,0.00151544,  -855.625E-03,   64.4444E-03,       2.20395,0.0147737,0.00451435,-3.05778e-06
7337,29.0,26.0,0.00164746,  -837.003E-03,   64.4445E-03,       2.39589,0.0118419,0.00363528,-3.51484e-06
7338,28.0,26.0,0.00178161,  -817.772E-03,   64.4445E-03,       2.59090,0.00886124,0.00274166,-3.83387e-06
7343,27.0,26.0,0.00191734,  -798.075E-03,   64.4445E-03,       2.78825,0.0058437,0.00183704,-3.87374e-06
7346,26.0,26.0,0.00205414,  -778.064E-03,   64.4444E-03,       2.98715,0.00280138,0.000925018,-3.51448e-06
7347,25.0,26.0,0.00219146,  -757.894E-03,   64.4444E-03,       3.18683,-0.000253352,9.21787e-06,-2.67415e-06
7352,24.0,26.0,0.00232875,  -737.723E-03,   64.4443E-03,       3.38650,-0.00330806,-0.000906705,-1.32247e-06
7353,23.0,26.0,0.00246549,  -717.711E-03,   64.4442E-03,       3.58541,-0.00635028,-0.0018191,5.11434e-07
7358,22.0,26.0,0.00260113,  -698.013E-03,   64.4441E-03,       3.78276,-0.00936764,-0.00272433,2.7381e-06
7361,21.0,26.0,0.00273515,  -678.780E-03,   64.4440E-03,       3.97778,-0.012348,-0.0036188,5.21437e-06
7362,20.0,26.0,0.002867,  -660.157E-03,   64.4439E-03,       4.16973,-0.0152793,-0.00449896,7.75704e-06
7367,19.0,26.0,0.00299618,  -642.277E-03,   64.4438E-03,       4.35784,-0.01815,-0.00536134,1.01619e-05
7368,18.0,26.0,0.00312218,  -625.262E-03,   64.4436E-03,       4.54137,-0.0209489,-0.00620253,1.22262e-05
7373,17.0,26.0,0.00324449,  -609.222E-03,   64.4435E-03,       4.71962,-0.0236652,-0.00701925,1.37708e-05
7376,16.0,26.0,0.00336265,  -594.250E-03,   64.4434E-03,       4.89187,-0.0262886,-0.0078083,1.46611e-05
7377,15.0,26.0,0.00347618,  -580.423E-03,   64.4433E-03,       5.05746,-0.0288091,-0.00856661,1.48213e-05
7382,14.0,26.0,0.00358463,  -567.800E-03,   64.4432E-03,       5.21571,-0.0312172,-0.00929124,1.42429e-05
7383,13.0,26.0,0.00368759,  -556.421E-03,   64.4431E-03,       5.36602,-0.033504,-0.00997935,1.29847e-05
7388,12.0,26.0,0.00378464,  -546.306E-03,   64.4430E-03,       5.50777,-0.0356607,-0.0106283,1.11657e-05
7391,11.0,26.0,0.0038754,  -537.456E-03,   64.4429E-03,       5.64040,-0.0376793,-0.0112354,8.95118e-06
7392,10.0,26.0,0.00395952,  -529.851E-03,   64.4428E-03,       5.76338,-0.0395518,-0.0117984,6.53431e-06
7397,9.0,26.0,0.00403666,  -523.452E-03,   64.4427E-03,       5.87621,-0.041271,-0.012315,4.11605e-06
7398,8.0,26.0,0.00410652,  -518.202E-03,   64.4426E-03,       5.97844,-0.0428297,-0.0127831,1.88523e-06
7403,7.0,26.0,0.00416883,  -514.024E-03,   64.4425E-03,       6.06965,-0.0442216,-0.0132008,1.20959e-09
7406,6.0,26.0,0.00422333,  -510.826E-03,   64.4423E-03,       6.14948,-0.0454408,-0.0135664,-1.41915e-06
7407,5.0,26.0,0.00426982,  -508.497E-03,   64.4422E-03,       6.21758,-0.0464819,-0.0138784,-2.3095e-06
7412,4.0,26.0,0.0043081,  -506.916E-03,   64.4421E-03,       6.27369,-0.0473403,-0.0141354,-2.65678e-06
7413,3.0,26.0,0.00433804,  -505.947E-03,   64.4420E-03,       6.31758,-0.0480121,-0.0143364,-2.49915e-06
7418,2.0,26.0,0.00435951,  -505.448E-03,   64.4420E-03,       6.34905,-0.0484943,-0.0144806,-1.91995e-06
7421,1.0,26.0,0.00437242,  -505.265E-03,   64.4419E-03,       6.36799,-0.0487844,-0.0145674,-1.03869e-06
7422,1.36796e-29,26.0,0.00437673,  -505.241E-03,   64.4419E-03,       6.37431,-0.0488813,-0.0145963,0.0
7427,-1.0,26.0,0.00437242,  -505.217E-03,   64.4419E-03,       6.36799,-0.0487844,-0.0145674,1.03869e-06
7428,-2.0,26.0,0.00435951,  -505.034E-03,   64.4420E-03,       6.34905,-0.0484943,-0.0144806,1.91995e-06
7433,-3.0,26.0,0.00433804,  -504.534E-03,   64.4420E-03,       6.31758,-0.0480121,-0.0143364,2.49915e-06
7436,-4.0,26.0,0.0043081,  -503.566E-03,   64.4421E-03,       6.27369,-0.0473403,-0.0141354,2.65678e-06
7437,-5.0,26.0,0.00426982,  -501.985E-03,   64.4422E-03,       6.21758,-0.0464819,-0.0138784,2.3095e-06
7442,-6.0,26.0,0.00422333,  -499.656E-03,   64.4423E-03,       6.14948,-0.0454408,-0.0135664,1.41915e-06
7443,-7.0,26.0,0.00416883,  -496.457E-03,   64.4425E-03,       6.06965,-0.0442216,-0.0132008,-1.20956e-09
7448,-8.0,26.0,0.00410652,  -492.279E-03,   64.4426E-03,       5.97844,-0.0428297,-0.0127831,-1.88523e-06
7451,-9.0,26.0,0.00403666,  -487.029E-03,   64.4427E-03,       5.87621,-0.041271,-0.012315,-4.11605e-06
7452,-10.0,26.0,0.00395952,  -480.631E-03,   64.4428E-03,       5.76338,-0.0395518,-0.0117984,-6.53431e-06
7457,-11.0,26.0,0.0038754,  -473.026E-03,   64.4429E-03,       5.64040,-0.0376793,-0.0112354,-8.95118e-06
7458,-12.0,26.0,0.00378464,  -464.176E-03,   64.4430E-03,       5.50777,-0.0356607,-0.0106283,-1.11657e-05
7463,-13.0,26.0,0.00368759,  -454.061E-03,   64.4431E-03,       5.36602,-0.033504,-0.00997935,-1.29847e-05
7466,-14.0,26.0,0.00358463,  -442.681E-03,   64.4432E-03,       5.21571,-0.0312172,-0.00929124,-1.42429e-05
7467,-15.0,26.0,0.00347618,  -430.058E-03,   64.4433E-03,       5.05746,-0.0288091,-0.00856661,-1.48213e-05
7472,-16.0,26.0,0.00336265,  -416.232E-03,   64.4434E-03,       4.89187,-0.0262886,-0.0078083,-1.46611e-05
7473,-17.0,26.0,0.00324449,  -401.260E-03,   64.4435E-03,       4.71962,-0.0236652,-0.00701925,-1.37708e-05
7478,-18.0,26.0,0.00312218,  -385.220E-03,   64.4436E-03,       4.54137,-0.0209489,-0.00620253,-1.22262e-05
7481,-19.0,26.0,0.00299618,  -368.205E-03,   64.4438E-03,       4.35784,-0.01815,-0.00536134,-1.01619e-05
7482,-20.0,26.0,0.002867,  -350.325E-03,   64.4439E-03,       4.16973,-0.0152793,-0.00449896,-7.75704e-06
7487,-21.0,26.0,0.00273515,  -331.701E-03,   64.4440E-03,       3.97778,-0.012348,-0.0036188,-5.21437e-06
7488,-22.0,26.0,0.00260113,  -312.469E-03,   64.4441E-03,       3.78276,-0.00936764,-0.00272433,-2.7381e-06
7493,-23.0,26.0,0.00246549,  -292.771E-03,   64.4442E-03,       3.58541,-0.00635028,-0.0018191,-5.11434e-07
7496,-24.0,26.0,0.00232875,  -272.759E-03,   64.4443E-03,       3.38650,-0.00330806,-0.000906705,1.32247e-06
7497,-25.0,26.0,0.00219146,  -252.588E-03,   64.4444E-03,       3.18683,-0.000253352,9.21787e-06,2.67415e-06
7502,-26.0,26.0,0.00205414,  -232.418E-03,   64.4444E-03,       2.98715,0.00280138,0.000925018,3.51448e-06
7503,-27.0,26.0,0.00191734,  -212.406E-03,   64.4445E-03,       2.78825,0.0058437,0.00183704,3.87374e-06
7508,-28.0,26.0,0.00178161,  -192.710E-03,   64.4445E-03,       2.59090,0.00886124,0.00274166,3.83387e-06
7511,-29.0,26.0,0.00164746,  -173.479E-03,   64.4445E-03,       2.39589,0.0118419,0.00363528,3.51484e-06
7512,-30.0,26.0,0.00151544,  -154.857E-03,   64.4444E-03,       2.20395,0.0147737,0.00451435,3.05778e-06
7517,-31.0,26.0,0.00138605,  -136.979E-03,   64.4444E-03,       2.01586,0.0176452,0.00537542,2.60577e-06
7518,-32.0,26.0,0.00125982,  -119.967E-03,   64.4443E-03,       1.83233,0.0204451,0.00621509,2.28652e-06
7523,-33.0,26.0,0.00113723,  -103.930E-03,   64.4442E-03,       1.65410,0.0231628,0.0070301,2.19509e-06
7526,-34.0,26.0,0.00101877,  -88.9611E-03,   64.4441E-03,       1.48187,0.0257879,0.00781726,2.38331e-06
7527,-35.0,26.0,0.000904915,  -75.1373E-03,   64.4439E-03,       1.31630,0.0283105,0.00857354,2.8491e-06
7532,-36.0,26.0,0.000796105,  -62.5176E-03,   64.4437E-03,       1.15807,0.0307211,0.00929598,3.5373e-06
7533,-37.0,26.0,0.000692775,  -51.1417E-03,   64.4435E-03,       1.00779,0.0330105,0.00998178,4.33845e-06
7538,-38.0,26.0,0.000595336,  -41.0303E-03,   64.4432E-03,   866.061E-03,0.0351698,0.0106283,5.10476e-06
7541,-39.0,26.0,0.000504175,  -32.1837E-03,   64.4429E-03,   733.458E-03,0.0371907,0.0112329,5.66137e-06
7542,-40.0,26.0,0.000419657,  -24.5828E-03,   64.4425E-03,   610.511E-03,0.0390647,0.0117932,5.83857e-06
7547,-41.0,26.0,0.00034212099999999997,  -18.1885E-03,   64.4422E-03,   497.714E-03,0.040784,0.012307,5.49515e-06
7548,-42.0,26.0,0.000271878,  -12.9427E-03,   64.4418E-03,   395.525E-03,0.0423412,0.0127723,4.55683e-06
7553,-43.0,26.0,0.000209213,  -8.76901E-03,   64.4415E-03,   304.359E-03,0.043729,0.013187,3.0419e-06
7556,-44.0,26.0,0.00015438,  -5.57412E-03,   64.4412E-03,   224.587E-03,0.044941,0.0135495,1.08036e-06
7557,-45.0,26.0,0.000107601,  -3.24902E-03,   64.4410E-03,   156.535E-03,0.0459714,0.0138582,-1.07191e-06
7562,-46.0,26.0,6.90682e-05,  -1.67082E-03,   64.4409E-03,   100.479E-03,0.0468152,0.0141115,-3.05653e-06
7563,-47.0,26.0,3.8937800000000005e-05,  -704.752E-06,   64.4408E-03,   56.6470E-03,0.0474683,0.0143081,-4.40911e-06
7568,-48.0,26.0,1.7332e-05,  -206.304E-06,   64.4407E-03,   25.2158E-03,0.0479277,0.0144468,-4.61349e-06
7571,-49.0,26.0,4.3366300000000005e-06,  -23.6291E-06,   64.4407E-03,   6.30956E-03,0.0481913,0.0145268,-3.09891e-06
7572,-50.0,26.0,0.0,  -13.0517E-42,   64.4407E-03,           -0.,0.0482741,0.014552,-1.83453e-06
7577,50.0,25.0,0.0,      -1.01048,   64.4397E-03,           -0.,0.0482795,0.0145527,1.55586e-06
7578,49.0,25.0,4.31667e-06,      -1.01046,   64.4397E-03,   6.31012E-03,0.0481953,0.0145272,2.59568e-06
7583,48.0,25.0,1.72534e-05,      -1.01028,   64.4397E-03,   25.2176E-03,0.047929,0.0144466,3.80621e-06
7586,47.0,25.0,3.87645e-05,      -1.00978,   64.4398E-03,   56.6501E-03,0.0474679,0.0143075,3.5137e-06
7587,46.0,25.0,6.8767e-05,      -1.00881,   64.4399E-03,   100.483E-03,0.0468137,0.0141108,2.21521e-06
7592,45.0,25.0,0.00010714200000000001,      -1.00723,   64.4400E-03,   156.539E-03,0.0459695,0.0138576,3.84627e-07
7593,44.0,25.0,0.000153735,      -1.00491,   64.4402E-03,   224.591E-03,0.0449392,0.0135493,-1.57803e-06
7598,43.0,25.0,0.00020835799999999999,      -1.00171,   64.4405E-03,   304.362E-03,0.0437277,0.0131871,-3.34349e-06
7601,42.0,25.0,0.00027079,  -997.539E-03,   64.4408E-03,   395.527E-03,0.0423406,0.0127727,-4.69064e-06
7602,41.0,25.0,0.00034078,  -992.294E-03,   64.4411E-03,   497.714E-03,0.0407843,0.0123078,-5.49962e-06
7607,40.0,25.0,0.000418046,  -985.900E-03,   64.4415E-03,   610.509E-03,0.0390657,0.0117943,-5.75431e-06
7608,39.0,25.0,0.000502279,  -978.299E-03,   64.4418E-03,   733.455E-03,0.0371922,0.0112341,-5.5237e-06
7613,38.0,25.0,0.00059314,  -969.453E-03,   64.4421E-03,   866.057E-03,0.0351717,0.0106296,-4.93578e-06
7616,37.0,25.0,0.0006902680000000001,  -959.341E-03,   64.4424E-03,       1.00778,0.0330123,0.00998306,-4.15239e-06
7617,36.0,25.0,0.000793275,  -947.965E-03,   64.4426E-03,       1.15806,0.0307227,0.00929706,-3.33619e-06
7622,35.0,25.0,0.0009017539999999999,  -935.345E-03,   64.4428E-03,       1.31630,0.0283117,0.00857431,-2.63122e-06
7623,34.0,25.0,0.00101527,  -921.522E-03,   64.4429E-03,       1.48186,0.0257886,0.00781766,-2.14039e-06
7628,33.0,25.0,0.00113338,  -906.553E-03,   64.4430E-03,       1.65410,0.0231629,0.0070301,-1.91871e-06
7631,32.0,25.0,0.00125562,  -890.515E-03,   64.4431E-03,       1.83233,0.0204447,0.00621472,-1.96675e-06
7632,31.0,25.0,0.00138149,  -873.503E-03,   64.4432E-03,       2.01586,0.0176444,0.00537472,-2.23613e-06
7637,30.0,25.0,0.00151051,  -855.625E-03,   64.4432E-03,       2.20396,0.0147728,0.00451343,-2.63628e-06
7638,29.0,25.0,0.00164217,  -837.003E-03,   64.4433E-03,       2.39589,0.011841,0.00363422,-3.04847e-06
7643,28.0,25.0,0.00177595,  -817.773E-03,   64.4433E-03,       2.59091,0.00886063,0.00274057,-3.34052e-06
7644,27.0,25.0,0.00191132,  -798.076E-03,   64.4432E-03,       2.78825,0.00584352,0.00183599,-3.38425e-06
7649,26.0,25.0,0.00204774,  -778.065E-03,   64.4432E-03,       2.98715,0.00280178,0.000924072,-3.07173e-06
7650,25.0,25.0,0.00218469,  -757.895E-03,   64.4431E-03,       3.18683,-0.000252327,8.41088e-06,-2.33004e-06
7655,24.0,25.0,0.00232162,  -737.724E-03,   64.4431E-03,       3.38651,-0.00330642,-0.000907363,-1.13224e-06
7658,23.0,25.0,0.002458,  -717.712E-03,   64.4430E-03,       3.58541,-0.00634813,-0.00181962,4.96652e-07
7659,22.0,25.0,0.00259328,  -698.015E-03,   64.4429E-03,       3.78276,-0.00936514,-0.00272473,2.47932e-06
7664,21.0,25.0,0.00272694,  -678.782E-03,   64.4428E-03,       3.97778,-0.0123453,-0.00361911,4.69206e-06
7665,20.0,25.0,0.00285845,  -660.158E-03,   64.4426E-03,       4.16973,-0.0152767,-0.00449921,6.97614e-06
7670,19.0,25.0,0.00298729,  -642.278E-03,   64.4425E-03,       4.35784,-0.0181478,-0.00536154,9.15368e-06
7673,18.0,25.0,0.00311296,  -625.263E-03,   64.4424E-03,       4.54138,-0.0209472,-0.00620271,1.10462e-05
7674,17.0,25.0,0.00323496,  -609.223E-03,   64.4424E-03,       4.71962,-0.0236641,-0.00701939,1.24935e-05
7679,16.0,25.0,0.0033528,  -594.251E-03,   64.4423E-03,       4.89188,-0.0262882,-0.00780839,1.33714e-05
7680,15.0,25.0,0.00346604,  -580.424E-03,   64.4422E-03,       5.05747,-0.0288094,-0.00856664,1.36048e-05
7685,14.0,25.0,0.00357421,  -567.800E-03,   64.4421E-03,       5.21572,-0.0312182,-0.00929117,1.31761e-05
7688,13.0,25.0,0.0036769,  -556.421E-03,   64.4421E-03,       5.36603,-0.0335054,-0.00997917,1.21271e-05
7689,12.0,25.0,0.0037737,  -546.306E-03,   64.4420E-03,       5.50778,-0.0356625,-0.010628,1.05538e-05
7694,11.0,25.0,0.00386422,  -537.455E-03,   64.4419E-03,       5.64041,-0.0376812,-0.011235,8.59654e-06
7695,10.0,25.0,0.00394812,  -529.850E-03,   64.4418E-03,       5.76339,-0.0395537,-0.0117979,6.4245e-06
7700,9.0,25.0,0.00402506,  -523.452E-03,   64.4417E-03,       5.87623,-0.0412726,-0.0123143,4.21866e-06
7703,8.0,25.0,0.00409474,  -518.202E-03,   64.4416E-03,       5.97846,-0.042831,-0.0127823,2.15367e-06
7704,7.0,25.0,0.00415688,  -514.024E-03,   64.4415E-03,       6.06967,-0.0442224,-0.0132,3.81401e-07
7709,6.0,25.0,0.00421125,  -510.825E-03,   64.4414E-03,       6.14949,-0.0454411,-0.0135655,-9.82429e-07
7710,5.0,25.0,0.00425761,  -508.497E-03,   64.4412E-03,       6.21760,-0.0464817,-0.0138775,-1.86744e-06
7715,4.0,25.0,0.0042958,  -506.916E-03,   64.4411E-03,       6.27371,-0.0473397,-0.0141345,-2.25303e-06
7718,3.0,25.0,0.00432566,  -505.947E-03,   64.4411E-03,       6.31759,-0.0480111,-0.0143356,-2.16803e-06
7719,2.0,25.0,0.00434707,  -505.448E-03,   64.4410E-03,       6.34906,-0.0484929,-0.0144798,-1.6862e-06
7724,1.0,25.0,0.00435995,  -505.265E-03,   64.4409E-03,       6.36800,-0.048783,-0.0145666,-9.18039e-07
7725,1.93644e-30,25.0,0.00436425,  -505.241E-03,   64.4409E-03,       6.37432,-0.0488798,-0.0145956,0.0
7730,-1.0,25.0,0.00435995,  -505.217E-03,   64.4409E-03,       6.36800,-0.048783,-0.0145666,9.18039e-07
7733,-2.0,25.0,0.00434707,  -505.034E-03,   64.4410E-03,       6.34906,-0.0484929,-0.0144798,1.6862e-06
7734,-3.0,25.0,0.00432566,  -504.534E-03,   64.4411E-03,       6.31759,-0.0480111,-0.0143356,2.16803e-06
7739,-4.0,25.0,0.0042958,  -503.566E-03,   64.4411E-03,       6.27371,-0.0473397,-0.0141345,2.25303e-06
7740,-5.0,25.0,0.00425761,  -501.985E-03,   64.4412E-03,       6.21760,-0.0464817,-0.0138775,1.86744e-06
7745,-6.0,25.0,0.00421125,  -499.656E-03,   64.4414E-03,       6.14949,-0.0454411,-0.0135655,9.82429e-07
7748,-7.0,25.0,0.00415688,  -496.458E-03,   64.4415E-03,       6.06967,-0.0442224,-0.0132,-3.81401e-07
7749,-8.0,25.0,0.00409474,  -492.280E-03,   64.4416E-03,       5.97846,-0.042831,-0.0127823,-2.15367e-06
7754,-9.0,25.0,0.00402506,  -487.030E-03,   64.4417E-03,       5.87623,-0.0412726,-0.0123143,-4.21866e-06
7755,-10.0,25.0,0.00394812,  -480.631E-03,   64.4418E-03,       5.76339,-0.0395537,-0.0117979,-6.4245e-06
7760,-11.0,25.0,0.00386422,  -473.026E-03,   64.4419E-03,       5.64041,-0.0376812,-0.011235,-8.59654e-06
7763,-12.0,25.0,0.0037737,  -464.176E-03,   64.4420E-03,       5.50778,-0.0356625,-0.010628,-1.05538e-05
7764,-13.0,25.0,0.0036769,  -454.061E-03,   64.4421E-03,       5.36603,-0.0335054,-0.00997917,-1.21271e-05
7769,-14.0,25.0,0.00357421,  -442.681E-03,   64.4421E-03,       5.21572,-0.0312182,-0.00929117,-1.31761e-05
7770,-15.0,25.0,0.00346604,  -430.058E-03,   64.4422E-03,       5.05747,-0.0288094,-0.00856664,-1.36048e-05
7775,-16.0,25.0,0.0033528,  -416.231E-03,   64.4423E-03,       4.89188,-0.0262882,-0.00780839,-1.33714e-05
7778,-17.0,25.0,0.00323496,  -401.259E-03,   64.4424E-03,       4.71962,-0.0236641,-0.00701939,-1.24935e-05
7779,-18.0,25.0,0.00311296,  -385.219E-03,   64.4424E-03,       4.54138,-0.0209472,-0.00620271,-1.10462e-05
7784,-19.0,25.0,0.00298729,  -368.204E-03,   64.4425E-03,       4.35784,-0.0181478,-0.00536154,-9.15368e-06
7785,-20.0,25.0,0.00285845,  -350.323E-03,   64.4426E-03,       4.16973,-0.0152767,-0.00449921,-6.97614e-06
7790,-21.0,25.0,0.00272694,  -331.700E-03,   64.4428E-03,       3.97778,-0.0123453,-0.00361911,-4.69206e-06
7793,-22.0,25.0,0.00259328,  -312.467E-03,   64.4429E-03,       3.78276,-0.00936514,-0.00272473,-2.47932e-06
7794,-23.0,25.0,0.002458,  -292.769E-03,   64.4430E-03,       3.58541,-0.00634813,-0.00181962,-4.96652e-07
7799,-24.0,25.0,0.00232162,  -272.757E-03,   64.4431E-03,       3.38651,-0.00330642,-0.000907363,1.13224e-06
7800,-25.0,25.0,0.00218469,  -252.587E-03,   64.4431E-03,       3.18683,-0.000252327,8.41088e-06,2.33004e-06
7805,-26.0,25.0,0.00204774,  -232.417E-03,   64.4432E-03,       2.98715,0.00280178,0.000924072,3.07173e-06
7808,-27.0,25.0,0.00191132,  -212.406E-03,   64.4432E-03,       2.78825,0.00584352,0.00183599,3.38425e-06
7809,-28.0,25.0,0.00177595,  -192.709E-03,   64.4433E-03,       2.59091,0.00886063,0.00274057,3.34052e-06
7814,-29.0,25.0,0.00164217,  -173.478E-03,   64.4433E-03,       2.39589,0.011841,0.00363422,3.04847e-06
7815,-30.0,25.0,0.00151051,  -154.857E-03,   64.4432E-03,       2.20396,0.0147728,0.00451343,2.63628e-06
7820,-31.0,25.0,0.00138149,  -136.979E-03,   64.4432E-03,       2.01586,0.0176444,0.00537472,2.23613e-06
7823,-32.0,25.0,0.00125562,  -119.967E-03,   64.4431E-03,       1.83233,0.0204447,0.00621472,1.96675e-06
7824,-33.0,25.0,0.00113338,  -103.929E-03,   64.4430E-03,       1.65410,0.0231629,0.0070301,1.91871e-06
7829,-34.0,25.0,0.00101527,  -88.9602E-03,   64.4429E-03,       1.48186,0.0257886,0.00781766,2.14039e-06
7830,-35.0,25.0,0.0009017539999999999,  -75.1363E-03,   64.4428E-03,       1.31630,0.0283117,0.00857431,2.63122e-06
7835,-36.0,25.0,0.000793275,  -62.5165E-03,   64.4426E-03,       1.15806,0.0307227,0.00929706,3.33619e-06
7838,-37.0,25.0,0.0006902680000000001,  -51.1406E-03,   64.4424E-03,       1.00778,0.0330123,0.00998306,4.15239e-06
7839,-38.0,25.0,0.00059314,  -41.0292E-03,   64.4421E-03,   866.057E-03,0.0351717,0.0106296,4.93578e-06
7844,-39.0,25.0,0.000502279,  -32.1829E-03,   64.4418E-03,   733.455E-03,0.0371922,0.0112341,5.5237e-06
7845,-40.0,25.0,0.000418046,  -24.5821E-03,   64.4415E-03,   610.509E-03,0.0390657,0.0117943,5.75431e-06
7850,-41.0,25.0,0.00034078,  -18.1880E-03,   64.4411E-03,   497.714E-03,0.0407843,0.0123078,5.49962e-06
7853,-42.0,25.0,0.00027079,  -12.9424E-03,   64.4408E-03,   395.527E-03,0.0423406,0.0127727,4.69064e-06
7854,-43.0,25.0,0.00020835799999999999,  -8.76887E-03,   64.4405E-03,   304.362E-03,0.0437277,0.0131871,3.34349e-06
7859,-44.0,25.0,0.000153735,  -5.57410E-03,   64.4402E-03,   224.591E-03,0.0449392,0.0135493,1.57803e-06
7860,-45.0,25.0,0.00010714200000000001,  -3.24904E-03,   64.4400E-03,   156.539E-03,0.0459695,0.0138576,-3.84627e-07
7865,-46.0,25.0,6.8767e-05,  -1.67085E-03,   64.4399E-03,   100.483E-03,0.0468137,0.0141108,-2.21521e-06
7868,-47.0,25.0,3.87645e-05,  -704.760E-06,   64.4398E-03,   56.6501E-03,0.0474679,0.0143075,-3.5137e-06
7869,-48.0,25.0,1.72534e-05,  -206.293E-06,   64.4397E-03,   25.2176E-03,0.047929,0.0144466,-3.80621e-06
7874,-49.0,25.0,4.31667e-06,  -23.6126E-06,   64.4397E-03,   6.31012E-03,0.0481953,0.0145272,-2.59568e-06
7875,-50.0,25.0,0.0,  -12.9998E-42,   64.4397E-03,           -0.,0.0482795,0.0145527,-1.55586e-06
7880,50.0,24.0,0.0,      -1.01048,   64.4387E-03,           -0.,0.0482843,0.0145537,1.29094e-06
7883,49.0,24.0,4.2980400000000004e-06,      -1.01046,   64.4387E-03,   6.31060E-03,0.0481987,0.0145278,2.15018e-06
7884,48.0,24.0,1.71799e-05,      -1.01028,   64.4388E-03,   25.2192E-03,0.0479302,0.0144466,3.09945e-06
7889,47.0,24.0,3.86022e-05,      -1.00978,   64.4388E-03,   56.6529E-03,0.0474675,0.0143072,2.74489e-06
7890,46.0,24.0,6.848439999999999e-05,      -1.00881,   64.4389E-03,   100.486E-03,0.0468124,0.0141104,1.52526e-06
7895,45.0,24.0,0.00010671,      -1.00723,   64.4391E-03,   156.543E-03,0.0459678,0.0138573,-1.51937e-07
7898,44.0,24.0,0.000153127,      -1.00491,   64.4393E-03,   224.595E-03,0.0449376,0.0135491,-1.92203e-06
7899,43.0,24.0,0.00020755,      -1.00171,   64.4395E-03,   304.365E-03,0.0437265,0.0131871,-3.50203e-06
7904,42.0,24.0,0.000269761,  -997.540E-03,   64.4398E-03,   395.528E-03,0.0423401,0.012773,-4.69076e-06
7905,41.0,24.0,0.00033951099999999997,  -992.294E-03,   64.4401E-03,   497.714E-03,0.0407845,0.0123084,-5.38557e-06
7910,40.0,24.0,0.00041652,  -985.900E-03,   64.4404E-03,   610.507E-03,0.0390665,0.011795,-5.57231e-06
7913,39.0,24.0,0.00050048,  -978.300E-03,   64.4407E-03,   733.453E-03,0.0371934,0.011235,-5.31365e-06
7914,38.0,24.0,0.000591055,  -969.453E-03,   64.4410E-03,   866.054E-03,0.0351732,0.0106305,-4.72824e-06
7919,37.0,24.0,0.000687885,  -959.342E-03,   64.4413E-03,       1.00778,0.0330139,0.0099839,-3.96284e-06
7920,36.0,24.0,0.000790584,  -947.966E-03,   64.4415E-03,       1.15806,0.0307241,0.00929776,-3.1697e-06
7925,35.0,24.0,0.000898745,  -935.346E-03,   64.4416E-03,       1.31630,0.0283127,0.0085748,-2.48038e-06
7928,34.0,24.0,0.00101194,  -921.522E-03,   64.4418E-03,       1.48186,0.0257892,0.00781789,-1.99189e-06
7929,33.0,24.0,0.00112972,  -906.553E-03,   64.4419E-03,       1.65410,0.023163,0.00703006,-1.75362e-06
7934,32.0,24.0,0.00125161,  -890.516E-03,   64.4420E-03,       1.83233,0.0204444,0.00621442,-1.76645e-06
7935,31.0,24.0,0.00137715,  -873.503E-03,   64.4420E-03,       2.01586,0.0176438,0.00537421,-1.98427e-06
7940,30.0,24.0,0.00150582,  -855.625E-03,   64.4420E-03,       2.20396,0.014772,0.00451275,-2.32384e-06
7943,29.0,24.0,0.00163713,  -837.004E-03,   64.4421E-03,       2.39589,0.0118403,0.00363345,-2.67635e-06
7944,28.0,24.0,0.00177056,  -817.773E-03,   64.4421E-03,       2.59091,0.00886013,0.00273976,-2.92267e-06
7949,27.0,24.0,0.00190557,  -798.077E-03,   64.4420E-03,       2.78825,0.0058434,0.0018352,-2.94835e-06
7950,26.0,24.0,0.00204165,  -778.065E-03,   64.4420E-03,       2.98715,0.00280213,0.000923339,-2.65839e-06
7955,25.0,24.0,0.00217825,  -757.896E-03,   64.4419E-03,       3.18683,-0.000251433,7.76134e-06,-1.98934e-06
7958,24.0,24.0,0.00231483,  -737.726E-03,   64.4419E-03,       3.38651,-0.003305,-0.000907919,-9.18235e-07
7959,23.0,24.0,0.00245087,  -717.714E-03,   64.4418E-03,       3.58541,-0.00634625,-0.00182008,5.32878e-07
7964,22.0,24.0,0.00258581,  -698.016E-03,   64.4417E-03,       3.78276,-0.00936294,-0.00272512,2.29721e-06
7965,21.0,24.0,0.00271914,  -678.784E-03,   64.4416E-03,       3.97778,-0.012343,-0.00361943,4.26831e-06
7970,20.0,24.0,0.00285032,  -660.160E-03,   64.4414E-03,       4.16973,-0.0152744,-0.00449947,6.30964e-06
7973,19.0,24.0,0.00297884,  -642.279E-03,   64.4414E-03,       4.35784,-0.0181457,-0.00536176,8.26758e-06
7974,18.0,24.0,0.0031042,  -625.264E-03,   64.4413E-03,       4.54138,-0.0209455,-0.00620288,9.98671e-06
7979,17.0,24.0,0.00322589,  -609.224E-03,   64.4412E-03,       4.71963,-0.023663,-0.00701952,1.13256e-05
7980,16.0,24.0,0.00334345,  -594.252E-03,   64.4411E-03,       4.89189,-0.0262877,-0.00780846,1.21718e-05
7985,15.0,24.0,0.0034564,  -580.424E-03,   64.4411E-03,       5.05747,-0.0288096,-0.00856664,1.24533e-05
7988,14.0,24.0,0.00356431,  -567.801E-03,   64.4410E-03,       5.21573,-0.0312189,-0.00929108,1.2147e-05
7989,13.0,24.0,0.00366675,  -556.421E-03,   64.4410E-03,       5.36604,-0.0335067,-0.00997898,1.12809e-05
7994,12.0,24.0,0.00376331,  -546.306E-03,   64.4409E-03,       5.50779,-0.0356642,-0.0106277,9.93188e-06
7995,11.0,24.0,0.00385362,  -537.455E-03,   64.4409E-03,       5.64043,-0.037683,-0.0112346,8.21754e-06
8000,10.0,24.0,0.00393731,  -529.850E-03,   64.4408E-03,       5.76341,-0.0395555,-0.0117973,6.28448e-06
8003,9.0,24.0,0.00401406,  -523.452E-03,   64.4407E-03,       5.87624,-0.0412742,-0.0123137,4.2934e-06
8004,8.0,24.0,0.00408357,  -518.202E-03,   64.4406E-03,       5.97847,-0.0428323,-0.0127816,2.40322e-06
8009,7.0,24.0,0.00414556,  -514.024E-03,   64.4405E-03,       6.06968,-0.0442234,-0.0131992,7.55694e-07
8010,6.0,24.0,0.00419979,  -510.825E-03,   64.4404E-03,       6.14950,-0.0454416,-0.0135648,-5.37778e-07
8015,5.0,24.0,0.00424604,  -508.497E-03,   64.4403E-03,       6.21761,-0.0464817,-0.0138767,-1.40584e-06
8018,4.0,24.0,0.00428414,  -506.916E-03,   64.4401E-03,       6.27372,-0.0473392,-0.0141338,-1.82274e-06
8019,3.0,24.0,0.00431392,  -505.947E-03,   64.4401E-03,       6.31760,-0.0480102,-0.0143348,-1.80938e-06
8024,2.0,24.0,0.00433528,  -505.448E-03,   64.4400E-03,       6.34907,-0.0484918,-0.0144791,-1.42996e-06
8025,1.0,24.0,0.00434813,  -505.265E-03,   64.4399E-03,       6.36801,-0.0487816,-0.0145659,-7.84787e-07
8030,-1.35363e-29,24.0,0.00435242,  -505.241E-03,   64.4399E-03,       6.37433,-0.0488784,-0.0145949,-7.10543e-15
8033,-1.0,24.0,0.00434813,  -505.217E-03,   64.4399E-03,       6.36801,-0.0487816,-0.0145659,7.84787e-07
8034,-2.0,24.0,0.00433528,  -505.034E-03,   64.4400E-03,       6.34907,-0.0484918,-0.0144791,1.42996e-06
8039,-3.0,24.0,0.00431392,  -504.534E-03,   64.4401E-03,       6.31760,-0.0480102,-0.0143348,1.80938e-06
8040,-4.0,24.0,0.00428414,  -503.566E-03,   64.4401E-03,       6.27372,-0.0473392,-0.0141338,1.82274e-06
8045,-5.0,24.0,0.00424604,  -501.985E-03,   64.4403E-03,       6.21761,-0.0464817,-0.0138767,1.40584e-06
8048,-6.0,24.0,0.00419979,  -499.657E-03,   64.4404E-03,       6.14950,-0.0454416,-0.0135648,5.37778e-07
8049,-7.0,24.0,0.00414556,  -496.458E-03,   64.4405E-03,       6.06968,-0.0442234,-0.0131992,-7.55694e-07
8054,-8.0,24.0,0.00408357,  -492.280E-03,   64.4406E-03,       5.97847,-0.0428323,-0.0127816,-2.40322e-06
8055,-9.0,24.0,0.00401406,  -487.030E-03,   64.4407E-03,       5.87624,-0.0412742,-0.0123137,-4.2934e-06
8060,-10.0,24.0,0.00393731,  -480.632E-03,   64.4408E-03,       5.76341,-0.0395555,-0.0117973,-6.28448e-06
8063,-11.0,24.0,0.00385362,  -473.027E-03,   64.4409E-03,       5.64043,-0.037683,-0.0112346,-8.21754e-06
8064,-12.0,24.0,0.00376331,  -464.176E-03,   64.4409E-03,       5.50779,-0.0356642,-0.0106277,-9.93188e-06
8069,-13.0,24.0,0.00366675,  -454.061E-03,   64.4410E-03,       5.36604,-0.0335067,-0.00997898,-1.12809e-05
8070,-14.0,24.0,0.00356431,  -442.681E-03,   64.4410E-03,       5.21573,-0.0312189,-0.00929108,-1.2147e-05
8075,-15.0,24.0,0.0034564,  -430.058E-03,   64.4411E-03,       5.05747,-0.0288096,-0.00856664,-1.24533e-05
8078,-16.0,24.0,0.00334345,  -416.230E-03,   64.4411E-03,       4.89189,-0.0262877,-0.00780846,-1.21718e-05
8079,-17.0,24.0,0.00322589,  -401.258E-03,   64.4412E-03,       4.71963,-0.023663,-0.00701952,-1.13256e-05
8084,-18.0,24.0,0.0031042,  -385.217E-03,   64.4413E-03,       4.54138,-0.0209455,-0.00620288,-9.98671e-06
8085,-19.0,24.0,0.00297884,  -368.202E-03,   64.4414E-03,       4.35784,-0.0181457,-0.00536176,-8.26758e-06
8090,-20.0,24.0,0.00285032,  -350.322E-03,   64.4414E-03,       4.16973,-0.0152744,-0.00449947,-6.30964e-06
8093,-21.0,24.0,0.00271914,  -331.698E-03,   64.4416E-03,       3.97778,-0.012343,-0.00361943,-4.26831e-06
8094,-22.0,24.0,0.00258581,  -312.466E-03,   64.4417E-03,       3.78276,-0.00936294,-0.00272512,-2.29721e-06
8099,-23.0,24.0,0.00245087,  -292.768E-03,   64.4418E-03,       3.58541,-0.00634625,-0.00182008,-5.32878e-07
8100,-24.0,24.0,0.00231483,  -272.756E-03,   64.4419E-03,       3.38651,-0.003305,-0.000907919,9.18235e-07
8105,-25.0,24.0,0.00217825,  -252.586E-03,   64.4419E-03,       3.18683,-0.000251433,7.76134e-06,1.98934e-06
8108,-26.0,24.0,0.00204165,  -232.416E-03,   64.4420E-03,       2.98715,0.00280213,0.000923339,2.65839e-06
8109,-27.0,24.0,0.00190557,  -212.405E-03,   64.4420E-03,       2.78825,0.0058434,0.0018352,2.94835e-06
8114,-28.0,24.0,0.00177056,  -192.709E-03,   64.4421E-03,       2.59091,0.00886013,0.00273976,2.92267e-06
8115,-29.0,24.0,0.00163713,  -173.478E-03,   64.4421E-03,       2.39589,0.0118403,0.00363345,2.67635e-06
8120,-30.0,24.0,0.00150582,  -154.856E-03,   64.4420E-03,       2.20396,0.014772,0.00451275,2.32384e-06
8123,-31.0,24.0,0.00137715,  -136.978E-03,   64.4420E-03,       2.01586,0.0176438,0.00537421,1.98427e-06
8124,-32.0,24.0,0.00125161,  -119.966E-03,   64.4420E-03,       1.83233,0.0204444,0.00621442,1.76645e-06
8129,-33.0,24.0,0.00112972,  -103.929E-03,   64.4419E-03,       1.65410,0.023163,0.00703006,1.75362e-06
8130,-34.0,24.0,0.00101194,  -88.9594E-03,   64.4418E-03,       1.48186,0.0257892,0.00781789,1.99189e-06
8135,-35.0,24.0,0.000898745,  -75.1354E-03,   64.4416E-03,       1.31630,0.0283127,0.0085748,2.48038e-06
8138,-36.0,24.0,0.000790584,  -62.5155E-03,   64.4415E-03,       1.15806,0.0307241,0.00929776,3.1697e-06
8139,-37.0,24.0,0.000687885,  -51.1397E-03,   64.4413E-03,       1.00778,0.0330139,0.0099839,3.96284e-06
8144,-38.0,24.0,0.000591055,  -41.0284E-03,   64.4410E-03,   866.054E-03,0.0351732,0.0106305,4.72824e-06
8145,-39.0,24.0,0.00050048,  -32.1821E-03,   64.4407E-03,   733.453E-03,0.0371934,0.011235,5.31365e-06
8150,-40.0,24.0,0.00041652,  -24.5815E-03,   64.4404E-03,   610.507E-03,0.0390665,0.011795,5.57231e-06
8153,-41.0,24.0,0.00033951099999999997,  -18.1876E-03,   64.4401E-03,   497.714E-03,0.0407845,0.0123084,5.38557e-06
8154,-42.0,24.0,0.000269761,  -12.9421E-03,   64.4398E-03,   395.528E-03,0.0423401,0.012773,4.69076e-06
8159,-43.0,24.0,0.00020755,  -8.76877E-03,   64.4395E-03,   304.365E-03,0.0437265,0.0131871,3.50203e-06
8160,-44.0,24.0,0.000153127,  -5.57408E-03,   64.4393E-03,   224.595E-03,0.0449376,0.0135491,1.92203e-06
8165,-45.0,24.0,0.00010671,  -3.24907E-03,   64.4391E-03,   156.543E-03,0.0459678,0.0138573,1.51937e-07
8168,-46.0,24.0,6.848439999999999e-05,  -1.67088E-03,   64.4389E-03,   100.486E-03,0.0468124,0.0141104,-1.52526e-06
8169,-47.0,24.0,3.86022e-05,  -704.773E-06,   64.4388E-03,   56.6529E-03,0.0474675,0.0143072,-2.74489e-06
8174,-48.0,24.0,1.71799e-05,  -206.284E-06,   64.4388E-03,   25.2192E-03,0.0479302,0.0144466,-3.09945e-06
8175,-49.0,24.0,4.2980400000000004e-06,  -23.5999E-06,   64.4387E-03,   6.31060E-03,0.0481987,0.0145278,-2.15018e-06
8180,-50.0,24.0,0.0,  -12.9550E-42,   64.4387E-03,           -0.,0.0482843,0.0145537,-1.29094e-06
8183,50.0,23.0,0.0,      -1.01048,   64.4378E-03,           -0.,0.0482884,0.0145546,1.06777e-06
8184,49.0,23.0,4.2806999999999995e-06,      -1.01046,   64.4378E-03,   6.31103E-03,0.0482018,0.0145284,1.7554e-06
8189,48.0,23.0,1.71114e-05,      -1.01028,   64.4378E-03,   25.2206E-03,0.0479312,0.0144467,2.48439e-06
8190,47.0,23.0,3.84506e-05,      -1.00978,   64.4378E-03,   56.6553E-03,0.0474671,0.014307,2.09465e-06
8195,46.0,23.0,6.82198e-05,      -1.00881,   64.4379E-03,   100.490E-03,0.0468112,0.0141101,9.58826e-07
8198,45.0,23.0,0.000106305,      -1.00723,   64.4381E-03,   156.546E-03,0.0459663,0.013857,-5.59636e-07
8199,44.0,23.0,0.000152556,      -1.00491,   64.4383E-03,   224.598E-03,0.0449362,0.0135489,-2.14849e-06
8204,43.0,23.0,0.00020679,      -1.00171,   64.4385E-03,   304.367E-03,0.0437255,0.0131871,-3.55193e-06
8205,42.0,23.0,0.000268792,  -997.540E-03,   64.4388E-03,   395.529E-03,0.0423395,0.0127732,-4.59766e-06
8210,41.0,23.0,0.00033831400000000004,  -992.295E-03,   64.4391E-03,   497.714E-03,0.0407845,0.0123087,-5.19348e-06
8213,40.0,23.0,0.00041507699999999997,  -985.901E-03,   64.4394E-03,   610.506E-03,0.0390671,0.0117955,-5.32917e-06
8214,39.0,23.0,0.0004987769999999999,  -978.300E-03,   64.4397E-03,   733.451E-03,0.0371944,0.0112355,-5.06231e-06
8219,38.0,23.0,0.00058908,  -969.454E-03,   64.4399E-03,   866.051E-03,0.0351744,0.0106311,-4.49943e-06
8220,37.0,23.0,0.000685626,  -959.343E-03,   64.4402E-03,       1.00777,0.0330151,0.00998442,-3.77482e-06
8225,36.0,23.0,0.000788031,  -947.967E-03,   64.4404E-03,       1.15806,0.0307252,0.00929817,-3.02512e-06
8228,35.0,23.0,0.0008958880000000001,  -935.347E-03,   64.4405E-03,       1.31629,0.0283136,0.00857507,-2.37104e-06
8229,34.0,23.0,0.00100877,  -921.523E-03,   64.4406E-03,       1.48186,0.0257897,0.00781799,-1.8993e-06
8234,33.0,23.0,0.00112623,  -906.554E-03,   64.4407E-03,       1.65410,0.0231632,0.00702997,-1.65516e-06
8235,32.0,23.0,0.00124781,  -890.516E-03,   64.4408E-03,       1.83233,0.0204442,0.00621416,-1.638e-06
8240,31.0,23.0,0.00137301,  -873.504E-03,   64.4408E-03,       2.01586,0.0176433,0.00537381,-1.80586e-06
8243,30.0,23.0,0.00150136,  -855.626E-03,   64.4409E-03,       2.20396,0.0147714,0.00451224,-2.08278e-06
8244,29.0,23.0,0.00163234,  -837.004E-03,   64.4409E-03,       2.39589,0.0118397,0.00363287,-2.37118e-06
8249,28.0,23.0,0.00176543,  -817.773E-03,   64.4409E-03,       2.59091,0.00885975,0.00273915,-2.5649e-06
8250,27.0,23.0,0.00190011,  -798.077E-03,   64.4408E-03,       2.78826,0.00584332,0.00183459,-2.56327e-06
8255,26.0,23.0,0.00203586,  -778.066E-03,   64.4408E-03,       2.98715,0.00280247,0.000922764,-2.28353e-06
8258,25.0,23.0,0.00217212,  -757.897E-03,   64.4407E-03,       3.18683,-0.000250632,7.23558e-06,-1.67121e-06
8259,24.0,23.0,0.00230838,  -737.727E-03,   64.4406E-03,       3.38651,-0.00330374,-0.000908385,-7.07166e-07
8264,23.0,23.0,0.00244409,  -717.715E-03,   64.4406E-03,       3.58541,-0.0063446,-0.00182049,5.89023e-07
8265,22.0,23.0,0.00257871,  -698.018E-03,   64.4405E-03,       3.78276,-0.009361,-0.00272546,2.15964e-06
8270,21.0,23.0,0.00271172,  -678.785E-03,   64.4404E-03,       3.97778,-0.0123409,-0.00361972,3.91332e-06
8273,20.0,23.0,0.00284259,  -660.161E-03,   64.4403E-03,       4.16973,-0.0152723,-0.00449971,5.73301e-06
8274,19.0,23.0,0.00297082,  -642.281E-03,   64.4402E-03,       4.35784,-0.0181438,-0.00536196,7.48667e-06
8279,18.0,23.0,0.00309588,  -625.266E-03,   64.4401E-03,       4.54138,-0.020944,-0.00620303,9.03977e-06
8280,17.0,23.0,0.00321729,  -609.225E-03,   64.4400E-03,       4.71963,-0.023662,-0.00701962,1.02685e-05
8285,16.0,23.0,0.00333458,  -594.252E-03,   64.4400E-03,       4.89189,-0.0262872,-0.00780852,1.1072e-05
8288,15.0,23.0,0.00344727,  -580.425E-03,   64.4399E-03,       5.05748,-0.0288096,-0.00856663,1.13832e-05
8289,14.0,23.0,0.00355493,  -567.801E-03,   64.4399E-03,       5.21574,-0.0312196,-0.00929101,1.11757e-05
8294,13.0,23.0,0.00365713,  -556.421E-03,   64.4399E-03,       5.36605,-0.0335078,-0.00997883,1.04671e-05
8295,12.0,23.0,0.00375347,  -546.305E-03,   64.4398E-03,       5.50781,-0.0356656,-0.0106274,9.31833e-06
8300,11.0,23.0,0.00384356,  -537.455E-03,   64.4398E-03,       5.64044,-0.0376847,-0.0112342,7.82735e-06
8303,10.0,23.0,0.00392707,  -529.850E-03,   64.4397E-03,       5.76342,-0.0395572,-0.0117969,6.11999e-06
8304,9.0,23.0,0.00400364,  -523.451E-03,   64.4397E-03,       5.87626,-0.0412759,-0.0123132,4.3375e-06
8309,8.0,23.0,0.00407299,  -518.201E-03,   64.4396E-03,       5.97849,-0.0428337,-0.0127811,2.62258e-06
8310,7.0,23.0,0.00413484,  -514.024E-03,   64.4395E-03,       6.06970,-0.0442244,-0.0131986,1.10531e-06
8315,6.0,23.0,0.00418894,  -510.825E-03,   64.4394E-03,       6.14952,-0.0454421,-0.0135641,-1.0939e-07
8318,5.0,23.0,0.00423509,  -508.497E-03,   64.4393E-03,       6.21762,-0.0464818,-0.013876,-9.51568e-07
8319,4.0,23.0,0.0042731,  -506.916E-03,   64.4391E-03,       6.27373,-0.0473388,-0.0141331,-1.39242e-06
8324,3.0,23.0,0.00430281,  -505.947E-03,   64.4391E-03,       6.31761,-0.0480095,-0.0143342,-1.44627e-06
8325,2.0,23.0,0.00432412,  -505.448E-03,   64.4390E-03,       6.34908,-0.0484907,-0.0144784,-1.16824e-06
8330,1.0,23.0,0.00433694,  -505.265E-03,   64.4389E-03,       6.36802,-0.0487804,-0.0145652,-6.47955e-07
8333,1.3812799999999998e-30,23.0,0.00434122,  -505.241E-03,   64.4389E-03,       6.37434,-0.0488771,-0.0145942,-2.84217e-14
8334,-1.0,23.0,0.00433694,  -505.217E-03,   64.4389E-03,       6.36802,-0.0487804,-0.0145652,6.47955e-07
8339,-2.0,23.0,0.00432412,  -505.034E-03,   64.4390E-03,       6.34908,-0.0484907,-0.0144784,1.16824e-06
8340,-3.0,23.0,0.00430281,  -504.534E-03,   64.4391E-03,       6.31761,-0.0480095,-0.0143342,1.44627e-06
8345,-4.0,23.0,0.0042731,  -503.566E-03,   64.4391E-03,       6.27373,-0.0473388,-0.0141331,1.39242e-06
8348,-5.0,23.0,0.00423509,  -501.985E-03,   64.4393E-03,       6.21762,-0.0464818,-0.013876,9.51568e-07
8349,-6.0,23.0,0.00418894,  -499.657E-03,   64.4394E-03,       6.14952,-0.0454421,-0.0135641,1.0939e-07
8354,-7.0,23.0,0.00413484,  -496.458E-03,   64.4395E-03,       6.06970,-0.0442244,-0.0131986,-1.10531e-06
8355,-8.0,23.0,0.00407299,  -492.280E-03,   64.4396E-03,       5.97849,-0.0428337,-0.0127811,-2.62258e-06
8360,-9.0,23.0,0.00400364,  -487.031E-03,   64.4397E-03,       5.87626,-0.0412759,-0.0123132,-4.3375e-06
8363,-10.0,23.0,0.00392707,  -480.632E-03,   64.4397E-03,       5.76342,-0.0395572,-0.0117969,-6.11999e-06
8364,-11.0,23.0,0.00384356,  -473.027E-03,   64.4398E-03,       5.64044,-0.0376847,-0.0112342,-7.82735e-06
8369,-12.0,23.0,0.00375347,  -464.176E-03,   64.4398E-03,       5.50781,-0.0356656,-0.0106274,-9.31833e-06
8370,-13.0,23.0,0.00365713,  -454.061E-03,   64.4399E-03,       5.36605,-0.0335078,-0.00997883,-1.04671e-05
8375,-14.0,23.0,0.00355493,  -442.681E-03,   64.4399E-03,       5.21574,-0.0312196,-0.00929101,-1.11757e-05
8378,-15.0,23.0,0.00344727,  -430.057E-03,   64.4399E-03,       5.05748,-0.0288096,-0.00856663,-1.13832e-05
8379,-16.0,23.0,0.00333458,  -416.230E-03,   64.4400E-03,       4.89189,-0.0262872,-0.00780852,-1.1072e-05
8384,-17.0,23.0,0.00321729,  -401.257E-03,   64.4400E-03,       4.71963,-0.023662,-0.00701962,-1.02685e-05
8385,-18.0,23.0,0.00309588,  -385.216E-03,   64.4401E-03,       4.54138,-0.020944,-0.00620303,-9.03977e-06
8390,-19.0,23.0,0.00297082,  -368.201E-03,   64.4402E-03,       4.35784,-0.0181438,-0.00536196,-7.48667e-06
8393,-20.0,23.0,0.00284259,  -350.320E-03,   64.4403E-03,       4.16973,-0.0152723,-0.00449971,-5.73301e-06
8394,-21.0,23.0,0.00271172,  -331.697E-03,   64.4404E-03,       3.97778,-0.0123409,-0.00361972,-3.91332e-06
8399,-22.0,23.0,0.00257871,  -312.464E-03,   64.4405E-03,       3.78276,-0.009361,-0.00272546,-2.15964e-06
8400,-23.0,23.0,0.00244409,  -292.767E-03,   64.4406E-03,       3.58541,-0.0063446,-0.00182049,-5.89023e-07
8405,-24.0,23.0,0.00230838,  -272.755E-03,   64.4406E-03,       3.38651,-0.00330374,-0.000908385,7.07166e-07
8408,-25.0,23.0,0.00217212,  -252.585E-03,   64.4407E-03,       3.18683,-0.000250632,7.23558e-06,1.67121e-06
8409,-26.0,23.0,0.00203586,  -232.416E-03,   64.4408E-03,       2.98715,0.00280247,0.000922764,2.28353e-06
8414,-27.0,23.0,0.00190011,  -212.405E-03,   64.4408E-03,       2.78826,0.00584332,0.00183459,2.56327e-06
8415,-28.0,23.0,0.00176543,  -192.708E-03,   64.4409E-03,       2.59091,0.00885975,0.00273915,2.5649e-06
8420,-29.0,23.0,0.00163234,  -173.478E-03,   64.4409E-03,       2.39589,0.0118397,0.00363287,2.37118e-06
8423,-30.0,23.0,0.00150136,  -154.856E-03,   64.4409E-03,       2.20396,0.0147714,0.00451224,2.08278e-06
8424,-31.0,23.0,0.00137301,  -136.978E-03,   64.4408E-03,       2.01586,0.0176433,0.00537381,1.80586e-06
8429,-32.0,23.0,0.00124781,  -119.966E-03,   64.4408E-03,       1.83233,0.0204442,0.00621416,1.638e-06
8430,-33.0,23.0,0.00112623,  -103.928E-03,   64.4407E-03,       1.65410,0.0231632,0.00702997,1.65516e-06
8435,-34.0,23.0,0.00100877,  -88.9587E-03,   64.4406E-03,       1.48186,0.0257897,0.00781799,1.8993e-06
8438,-35.0,23.0,0.0008958880000000001,  -75.1346E-03,   64.4405E-03,       1.31629,0.0283136,0.00857507,2.37104e-06
8439,-36.0,23.0,0.000788031,  -62.5147E-03,   64.4404E-03,       1.15806,0.0307252,0.00929817,3.02512e-06
8444,-37.0,23.0,0.000685626,  -51.1389E-03,   64.4402E-03,       1.00777,0.0330151,0.00998442,3.77482e-06
8445,-38.0,23.0,0.00058908,  -41.0276E-03,   64.4399E-03,   866.051E-03,0.0351744,0.0106311,4.49943e-06
8450,-39.0,23.0,0.0004987769999999999,  -32.1815E-03,   64.4397E-03,   733.451E-03,0.0371944,0.0112355,5.06231e-06
8453,-40.0,23.0,0.00041507699999999997,  -24.5810E-03,   64.4394E-03,   610.506E-03,0.0390671,0.0117955,5.32917e-06
8454,-41.0,23.0,0.00033831400000000004,  -18.1873E-03,   64.4391E-03,   497.714E-03,0.0407845,0.0123087,5.19348e-06
8459,-42.0,23.0,0.000268792,  -12.9419E-03,   64.4388E-03,   395.529E-03,0.0423395,0.0127732,4.59766e-06
8460,-43.0,23.0,0.00020679,  -8.76869E-03,   64.4385E-03,   304.367E-03,0.0437255,0.0131871,3.55193e-06
8465,-44.0,23.0,0.000152556,  -5.57408E-03,   64.4383E-03,   224.598E-03,0.0449362,0.0135489,2.14849e-06
8468,-45.0,23.0,0.000106305,  -3.24911E-03,   64.4381E-03,   156.546E-03,0.0459663,0.013857,5.59636e-07
8469,-46.0,23.0,6.82198e-05,  -1.67092E-03,   64.4379E-03,   100.490E-03,0.0468112,0.0141101,-9.58826e-07
8474,-47.0,23.0,3.84506e-05,  -704.786E-06,   64.4378E-03,   56.6553E-03,0.0474671,0.014307,-2.09465e-06
8475,-48.0,23.0,1.71114e-05,  -206.280E-06,   64.4378E-03,   25.2206E-03,0.0479312,0.0144467,-2.48439e-06
8480,-49.0,23.0,4.2806999999999995e-06,  -23.5894E-06,   64.4378E-03,   6.31103E-03,0.0482018,0.0145284,-1.7554e-06
8483,-50.0,23.0,0.0,  -12.9186E-42,   64.4378E-03,           -0.,0.0482884,0.0145546,-1.06777e-06
8484,50.0,22.0,0.0,      -1.01048,   64.4368E-03,           -0.,0.048292,0.0145556,8.63698e-07
8489,49.0,22.0,4.2645599999999995e-06,      -1.01046,   64.4368E-03,   6.31140E-03,0.0482044,0.014529,1.41456e-06
8490,48.0,22.0,1.70476e-05,      -1.01028,   64.4368E-03,   25.2218E-03,0.0479321,0.014447,1.95695e-06
8495,47.0,22.0,3.8309099999999995e-05,      -1.00978,   64.4369E-03,   56.6575E-03,0.0474668,0.014307,1.54671e-06
8498,46.0,22.0,6.79725e-05,      -1.00881,   64.4370E-03,   100.492E-03,0.0468102,0.01411,5.03531e-07
8499,45.0,22.0,0.000105925,      -1.00723,   64.4371E-03,   156.550E-03,0.045965,0.0138569,-8.64763e-07
8504,44.0,22.0,0.00015202100000000001,      -1.00491,   64.4373E-03,   224.601E-03,0.0449349,0.0135489,-2.27969e-06
8505,43.0,22.0,0.000206077,      -1.00171,   64.4375E-03,   304.369E-03,0.0437245,0.0131872,-3.52268e-06
8510,42.0,22.0,0.00026788,  -997.540E-03,   64.4378E-03,   395.531E-03,0.042339,0.0127733,-4.43935e-06
8513,41.0,22.0,0.000337186,  -992.295E-03,   64.4380E-03,   497.714E-03,0.0407845,0.0123089,-4.95161e-06
8514,40.0,22.0,0.00041371699999999997,  -985.901E-03,   64.4383E-03,   610.506E-03,0.0390675,0.0117958,-5.05086e-06
8519,39.0,22.0,0.000497171,  -978.301E-03,   64.4386E-03,   733.449E-03,0.0371952,0.0112359,-4.78911e-06
8520,38.0,22.0,0.000587214,  -969.455E-03,   64.4388E-03,   866.049E-03,0.0351754,0.0106314,-4.26258e-06
8525,37.0,22.0,0.0006834889999999999,  -959.344E-03,   64.4390E-03,       1.00777,0.0330162,0.0099847,-3.5905e-06
8528,36.0,22.0,0.0007856139999999999,  -947.968E-03,   64.4392E-03,       1.15805,0.0307262,0.00929838,-2.89616e-06
8529,35.0,22.0,0.000893183,  -935.348E-03,   64.4394E-03,       1.31629,0.0283143,0.00857518,-2.28651e-06
8534,34.0,22.0,0.00100577,  -921.524E-03,   64.4395E-03,       1.48186,0.0257901,0.00781799,-1.83975e-06
8535,33.0,22.0,0.00112293,  -906.554E-03,   64.4396E-03,       1.65410,0.0231633,0.00702986,-1.5953e-06
8540,32.0,22.0,0.0012442,  -890.517E-03,   64.4396E-03,       1.83233,0.020444,0.00621394,-1.55258e-06
8543,31.0,22.0,0.00136909,  -873.504E-03,   64.4397E-03,       2.01586,0.017643,0.00537349,-1.67326e-06
8544,30.0,22.0,0.00149713,  -855.626E-03,   64.4397E-03,       2.20396,0.014771,0.00451184,-1.88967e-06
8549,29.0,22.0,0.00162779,  -837.005E-03,   64.4397E-03,       2.39590,0.0118393,0.00363242,-2.11504e-06
8550,28.0,22.0,0.00176056,  -817.774E-03,   64.4397E-03,       2.59091,0.00885946,0.00273868,-2.25601e-06
8555,27.0,22.0,0.00189493,  -798.078E-03,   64.4396E-03,       2.78826,0.0058433,0.00183412,-2.22466e-06
8558,26.0,22.0,0.00203036,  -778.067E-03,   64.4396E-03,       2.98715,0.00280281,0.000922307,-1.94947e-06
8559,25.0,22.0,0.00216631,  -757.898E-03,   64.4395E-03,       3.18683,-0.000249905,6.80821e-06,-1.38389e-06
8564,24.0,22.0,0.00230226,  -737.728E-03,   64.4395E-03,       3.38651,-0.00330262,-0.000908774,-5.12107e-07
8565,23.0,22.0,0.00243766,  -717.716E-03,   64.4394E-03,       3.58541,-0.00634313,-0.00182083,6.48475e-07
8570,22.0,22.0,0.00257198,  -698.019E-03,   64.4393E-03,       3.78276,-0.00935927,-0.00272576,2.04801e-06
8573,21.0,22.0,0.00270469,  -678.787E-03,   64.4392E-03,       3.97778,-0.012339,-0.00361997,3.60813e-06
8574,20.0,22.0,0.00283527,  -660.163E-03,   64.4391E-03,       4.16973,-0.0152705,-0.00449993,5.2286e-06
8579,19.0,22.0,0.00296321,  -642.282E-03,   64.4390E-03,       4.35784,-0.0181421,-0.00536213,6.79613e-06
8580,18.0,22.0,0.003088,  -625.267E-03,   64.4389E-03,       4.54139,-0.0209426,-0.00620317,8.19465e-06
8585,17.0,22.0,0.00320914,  -609.226E-03,   64.4389E-03,       4.71964,-0.023661,-0.00701971,9.3162e-06
8588,16.0,22.0,0.00332617,  -594.253E-03,   64.4388E-03,       4.89190,-0.0262867,-0.00780857,1.00713e-05
8589,15.0,22.0,0.00343862,  -580.425E-03,   64.4388E-03,       5.05749,-0.0288097,-0.00856663,1.03982e-05
8594,14.0,22.0,0.00354604,  -567.801E-03,   64.4388E-03,       5.21575,-0.0312201,-0.00929095,1.02692e-05
8595,13.0,22.0,0.00364802,  -556.421E-03,   64.4388E-03,       5.36606,-0.0335088,-0.00997871,9.69451e-06
8600,12.0,22.0,0.00374415,  -546.305E-03,   64.4388E-03,       5.50782,-0.035667,-0.0106272,8.72177e-06
8601,11.0,22.0,0.00383405,  -537.455E-03,   64.4387E-03,       5.64045,-0.0376863,-0.011234,7.43231e-06
8606,10.0,22.0,0.00391737,  -529.849E-03,   64.4387E-03,       5.76344,-0.0395589,-0.0117966,5.9335e-06
8607,9.0,22.0,0.00399378,  -523.451E-03,   64.4386E-03,       5.87627,-0.0412774,-0.0123128,4.34839e-06
8612,8.0,22.0,0.00406298,  -518.201E-03,   64.4385E-03,       5.97850,-0.042835,-0.0127806,2.80372e-06
8615,7.0,22.0,0.0041247,  -514.023E-03,   64.4384E-03,       6.06971,-0.0442254,-0.0131981,1.4172e-06
8616,6.0,22.0,0.00417868,  -510.825E-03,   64.4384E-03,       6.14953,-0.0454427,-0.0135636,2.85819e-07
8621,5.0,22.0,0.00422473,  -508.496E-03,   64.4382E-03,       6.21763,-0.0464819,-0.0138755,-5.23636e-07
8622,4.0,22.0,0.00426265,  -506.915E-03,   64.4381E-03,       6.27374,-0.0473386,-0.0141325,-9.81002e-07
8627,3.0,22.0,0.00429231,  -505.947E-03,   64.4381E-03,       6.31762,-0.0480088,-0.0143336,-1.09535e-06
8630,2.0,22.0,0.00431357,  -505.448E-03,   64.4380E-03,       6.34909,-0.0484898,-0.0144778,-9.13405e-07
8631,1.0,22.0,0.00432637,  -505.265E-03,   64.4379E-03,       6.36803,-0.0487792,-0.0145646,-5.14131e-07
8636,-2.3382099999999997e-30,22.0,0.00433064,  -505.241E-03,   64.4379E-03,       6.37435,-0.0488758,-0.0145936,-1.77636e-14
8637,-1.0,22.0,0.00432637,  -505.217E-03,   64.4379E-03,       6.36803,-0.0487792,-0.0145646,5.14131e-07
8642,-2.0,22.0,0.00431357,  -505.034E-03,   64.4380E-03,       6.34909,-0.0484898,-0.0144778,9.13405e-07
8645,-3.0,22.0,0.00429231,  -504.534E-03,   64.4381E-03,       6.31762,-0.0480088,-0.0143336,1.09535e-06
8646,-4.0,22.0,0.00426265,  -503.566E-03,   64.4381E-03,       6.27374,-0.0473386,-0.0141325,9.81002e-07
8651,-5.0,22.0,0.00422473,  -501.985E-03,   64.4382E-03,       6.21763,-0.0464819,-0.0138755,5.23636e-07
8652,-6.0,22.0,0.00417868,  -499.657E-03,   64.4384E-03,       6.14953,-0.0454427,-0.0135636,-2.85819e-07
8657,-7.0,22.0,0.0041247,  -496.458E-03,   64.4384E-03,       6.06971,-0.0442254,-0.0131981,-1.4172e-06
8660,-8.0,22.0,0.00406298,  -492.281E-03,   64.4385E-03,       5.97850,-0.042835,-0.0127806,-2.80372e-06
8661,-9.0,22.0,0.00399378,  -487.031E-03,   64.4386E-03,       5.87627,-0.0412774,-0.0123128,-4.34839e-06
8666,-10.0,22.0,0.00391737,  -480.632E-03,   64.4387E-03,       5.76344,-0.0395589,-0.0117966,-5.9335e-06
8667,-11.0,22.0,0.00383405,  -473.027E-03,   64.4387E-03,       5.64045,-0.0376863,-0.011234,-7.43231e-06
8672,-12.0,22.0,0.00374415,  -464.177E-03,   64.4388E-03,       5.50782,-0.035667,-0.0106272,-8.72177e-06
8675,-13.0,22.0,0.00364802,  -454.061E-03,   64.4388E-03,       5.36606,-0.0335088,-0.00997871,-9.69451e-06
8676,-14.0,22.0,0.00354604,  -442.681E-03,   64.4388E-03,       5.21575,-0.0312201,-0.00929095,-1.02692e-05
8681,-15.0,22.0,0.00343862,  -430.057E-03,   64.4388E-03,       5.05749,-0.0288097,-0.00856663,-1.03982e-05
8682,-16.0,22.0,0.00332617,  -416.229E-03,   64.4388E-03,       4.89190,-0.0262867,-0.00780857,-1.00713e-05
8687,-17.0,22.0,0.00320914,  -401.256E-03,   64.4389E-03,       4.71964,-0.023661,-0.00701971,-9.3162e-06
8690,-18.0,22.0,0.003088,  -385.215E-03,   64.4389E-03,       4.54139,-0.0209426,-0.00620317,-8.19465e-06
8691,-19.0,22.0,0.00296321,  -368.200E-03,   64.4390E-03,       4.35784,-0.0181421,-0.00536213,-6.79613e-06
8696,-20.0,22.0,0.00283527,  -350.319E-03,   64.4391E-03,       4.16973,-0.0152705,-0.00449993,-5.2286e-06
8697,-21.0,22.0,0.00270469,  -331.695E-03,   64.4392E-03,       3.97778,-0.012339,-0.00361997,-3.60813e-06
8702,-22.0,22.0,0.00257198,  -312.463E-03,   64.4393E-03,       3.78276,-0.00935927,-0.00272576,-2.04801e-06
8705,-23.0,22.0,0.00243766,  -292.765E-03,   64.4394E-03,       3.58541,-0.00634313,-0.00182083,-6.48475e-07
8706,-24.0,22.0,0.00230226,  -272.754E-03,   64.4395E-03,       3.38651,-0.00330262,-0.000908774,5.12107e-07
8711,-25.0,22.0,0.00216631,  -252.584E-03,   64.4395E-03,       3.18683,-0.000249905,6.80821e-06,1.38389e-06
8712,-26.0,22.0,0.00203036,  -232.415E-03,   64.4396E-03,       2.98715,0.00280281,0.000922307,1.94947e-06
8717,-27.0,22.0,0.00189493,  -212.404E-03,   64.4396E-03,       2.78826,0.0058433,0.00183412,2.22466e-06
8720,-28.0,22.0,0.00176056,  -192.708E-03,   64.4397E-03,       2.59091,0.00885946,0.00273868,2.25601e-06
8721,-29.0,22.0,0.00162779,  -173.477E-03,   64.4397E-03,       2.39590,0.0118393,0.00363242,2.11504e-06
8726,-30.0,22.0,0.00149713,  -154.856E-03,   64.4397E-03,       2.20396,0.014771,0.00451184,1.88967e-06
8727,-31.0,22.0,0.00136909,  -136.977E-03,   64.4397E-03,       2.01586,0.017643,0.00537349,1.67326e-06
8732,-32.0,22.0,0.0012442,  -119.965E-03,   64.4396E-03,       1.83233,0.020444,0.00621394,1.55258e-06
8735,-33.0,22.0,0.00112293,  -103.927E-03,   64.4396E-03,       1.65410,0.0231633,0.00702986,1.5953e-06
8736,-34.0,22.0,0.00100577,  -88.9580E-03,   64.4395E-03,       1.48186,0.0257901,0.00781799,1.83975e-06
8741,-35.0,22.0,0.000893183,  -75.1339E-03,   64.4394E-03,       1.31629,0.0283143,0.00857518,2.28651e-06
8742,-36.0,22.0,0.0007856139999999999,  -62.5139E-03,   64.4392E-03,       1.15805,0.0307262,0.00929838,2.89616e-06
8747,-37.0,22.0,0.0006834889999999999,  -51.1381E-03,   64.4390E-03,       1.00777,0.0330162,0.0099847,3.5905e-06
8750,-38.0,22.0,0.000587214,  -41.0269E-03,   64.4388E-03,   866.049E-03,0.0351754,0.0106314,4.26258e-06
8751,-39.0,22.0,0.000497171,  -32.1809E-03,   64.4386E-03,   733.449E-03,0.0371952,0.0112359,4.78911e-06
8756,-40.0,22.0,0.00041371699999999997,  -24.5806E-03,   64.4383E-03,   610.506E-03,0.0390675,0.0117958,5.05086e-06
8757,-41.0,22.0,0.000337186,  -18.1870E-03,   64.4380E-03,   497.714E-03,0.0407845,0.0123089,4.95161e-06
8762,-42.0,22.0,0.00026788,  -12.9418E-03,   64.4378E-03,   395.531E-03,0.042339,0.0127733,4.43935e-06
8765,-43.0,22.0,0.000206077,  -8.76864E-03,   64.4375E-03,   304.369E-03,0.0437245,0.0131872,3.52268e-06
8766,-44.0,22.0,0.00015202100000000001,  -5.57409E-03,   64.4373E-03,   224.601E-03,0.0449349,0.0135489,2.27969e-06
8771,-45.0,22.0,0.000105925,  -3.24914E-03,   64.4371E-03,   156.550E-03,0.045965,0.0138569,8.64763e-07
8772,-46.0,22.0,6.79725e-05,  -1.67095E-03,   64.4370E-03,   100.492E-03,0.0468102,0.01411,-5.03531e-07
8777,-47.0,22.0,3.8309099999999995e-05,  -704.802E-06,   64.4369E-03,   56.6575E-03,0.0474668,0.014307,-1.54671e-06
8780,-48.0,22.0,1.70476e-05,  -206.277E-06,   64.4368E-03,   25.2218E-03,0.0479321,0.014447,-1.95695e-06
8781,-49.0,22.0,4.2645599999999995e-06,  -23.5816E-06,   64.4368E-03,   6.31140E-03,0.0482044,0.014529,-1.41456e-06
8786,-50.0,22.0,0.0,  -12.8877E-42,   64.4368E-03,           -0.,0.048292,0.0145556,-8.63698e-07
8787,50.0,21.0,0.0,      -1.01048,   64.4358E-03,           -0.,0.0482951,0.0145564,6.95262e-07
8792,49.0,21.0,4.2495699999999995e-06,      -1.01046,   64.4358E-03,   6.31172E-03,0.0482066,0.0145297,1.12106e-06
8795,48.0,21.0,1.6988199999999998e-05,      -1.01028,   64.4359E-03,   25.2229E-03,0.047933,0.0144473,1.50927e-06
8796,47.0,21.0,3.81773e-05,      -1.00978,   64.4359E-03,   56.6593E-03,0.0474666,0.0143072,1.09355e-06
8801,46.0,21.0,6.77418e-05,      -1.00881,   64.4360E-03,   100.495E-03,0.0468093,0.01411,1.40358e-07
8802,45.0,21.0,0.00010557100000000001,      -1.00723,   64.4361E-03,   156.552E-03,0.0459639,0.0138569,-1.08224e-06
8807,44.0,21.0,0.00015152,      -1.00491,   64.4363E-03,   224.603E-03,0.0449338,0.0135489,-2.33837e-06
8810,43.0,21.0,0.000205408,      -1.00171,   64.4365E-03,   304.372E-03,0.0437237,0.0131872,-3.43399e-06
8811,42.0,21.0,0.000267025,  -997.540E-03,   64.4367E-03,   395.532E-03,0.0423385,0.0127734,-4.23751e-06
8816,41.0,21.0,0.00033612599999999996,  -992.295E-03,   64.4370E-03,   497.715E-03,0.0407844,0.0123091,-4.67957e-06
8817,40.0,21.0,0.00041243800000000005,  -985.902E-03,   64.4373E-03,   610.506E-03,0.0390678,0.0117959,-4.754e-06
8822,39.0,21.0,0.0004956569999999999,  -978.301E-03,   64.4375E-03,   733.448E-03,0.0371958,0.011236,-4.50739e-06
8825,38.0,21.0,0.000585455,  -969.455E-03,   64.4377E-03,   866.048E-03,0.0351762,0.0106315,-4.02452e-06
8826,37.0,21.0,0.000681473,  -959.344E-03,   64.4379E-03,       1.00777,0.033017,0.00998482,-3.41175e-06
8831,36.0,21.0,0.000783332,  -947.968E-03,   64.4381E-03,       1.15805,0.0307269,0.00929845,-2.77737e-06
8832,35.0,21.0,0.000890627,  -935.349E-03,   64.4382E-03,       1.31629,0.0283149,0.00857518,-2.21674e-06
8837,34.0,21.0,0.00100293,  -921.524E-03,   64.4383E-03,       1.48186,0.0257904,0.00781792,-1.79826e-06
8840,33.0,21.0,0.00111981,  -906.555E-03,   64.4384E-03,       1.65410,0.0231634,0.00702972,-1.55712e-06
8841,32.0,21.0,0.00124078,  -890.517E-03,   64.4385E-03,       1.83234,0.0204439,0.00621373,-1.49218e-06
8846,31.0,21.0,0.00136538,  -873.505E-03,   64.4385E-03,       2.01586,0.0176427,0.00537322,-1.5697e-06
8847,30.0,21.0,0.00149312,  -855.627E-03,   64.4385E-03,       2.20396,0.0147706,0.00451153,-1.72975e-06
8852,29.0,21.0,0.00162348,  -837.005E-03,   64.4385E-03,       2.39590,0.0118389,0.00363207,-1.89628e-06
8855,28.0,21.0,0.00175596,  -817.775E-03,   64.4385E-03,       2.59092,0.00885925,0.00273831,-1.98772e-06
8856,27.0,21.0,0.00189002,  -798.078E-03,   64.4385E-03,       2.78826,0.00584333,0.00183375,-1.92785e-06
8861,26.0,21.0,0.00202515,  -778.068E-03,   64.4384E-03,       2.98715,0.00280313,0.00092194,-1.65504e-06
8862,25.0,21.0,0.00216081,  -757.899E-03,   64.4384E-03,       3.18683,-0.000249238,6.45926e-06,-1.12962e-06
8867,24.0,21.0,0.00229646,  -737.729E-03,   64.4383E-03,       3.38651,-0.00330162,-0.000909097,-3.38523e-07
8870,23.0,21.0,0.00243157,  -717.718E-03,   64.4382E-03,       3.58541,-0.00634182,-0.00182112,7.02849e-07
8871,22.0,21.0,0.0025656,  -698.020E-03,   64.4381E-03,       3.78276,-0.00935774,-0.00272602,1.95148e-06
8876,21.0,21.0,0.00269803,  -678.788E-03,   64.4380E-03,       3.97778,-0.0123373,-0.00362019,3.34012e-06
8877,20.0,21.0,0.00282834,  -660.164E-03,   64.4379E-03,       4.16973,-0.0152688,-0.00450011,4.78292e-06
8882,19.0,21.0,0.00295601,  -642.283E-03,   64.4379E-03,       4.35784,-0.0181406,-0.00536228,6.18269e-06
8885,18.0,21.0,0.00308054,  -625.268E-03,   64.4378E-03,       4.54139,-0.0209413,-0.00620328,7.43942e-06
8886,17.0,21.0,0.00320143,  -609.227E-03,   64.4377E-03,       4.71964,-0.0236601,-0.0070198,8.45925e-06
8891,16.0,21.0,0.00331822,  -594.254E-03,   64.4377E-03,       4.89190,-0.0262863,-0.00780862,9.16327e-06
8892,15.0,21.0,0.00343043,  -580.426E-03,   64.4377E-03,       5.05750,-0.0288097,-0.00856665,9.4953e-06
8897,14.0,21.0,0.00353764,  -567.801E-03,   64.4377E-03,       5.21576,-0.0312206,-0.00929093,9.42785e-06
8900,13.0,21.0,0.00363941,  -556.421E-03,   64.4377E-03,       5.36607,-0.0335097,-0.00997865,8.9656e-06
8901,12.0,21.0,0.00373534,  -546.305E-03,   64.4377E-03,       5.50783,-0.0356682,-0.0106271,8.14592e-06
8906,11.0,21.0,0.00382506,  -537.454E-03,   64.4377E-03,       5.64046,-0.0376877,-0.0112338,7.036e-06
8907,10.0,21.0,0.00390821,  -529.849E-03,   64.4376E-03,       5.76345,-0.0395604,-0.0117964,5.72698e-06
8912,9.0,21.0,0.00398446,  -523.451E-03,   64.4376E-03,       5.87628,-0.0412788,-0.0123125,4.32537e-06
8915,8.0,21.0,0.00405352,  -518.201E-03,   64.4375E-03,       5.97851,-0.0428363,-0.0127803,2.9426e-06
8916,7.0,21.0,0.00411511,  -514.023E-03,   64.4374E-03,       6.06972,-0.0442263,-0.0131977,1.6839e-06
8921,6.0,21.0,0.00416899,  -510.825E-03,   64.4373E-03,       6.14954,-0.0454433,-0.0135631,6.37536e-07
8922,5.0,21.0,0.00421494,  -508.496E-03,   64.4372E-03,       6.21764,-0.0464821,-0.013875,-1.34107e-07
8927,4.0,21.0,0.00425279,  -506.915E-03,   64.4371E-03,       6.27375,-0.0473383,-0.014132,-6.0088e-07
8930,3.0,21.0,0.00428239,  -505.947E-03,   64.4370E-03,       6.31763,-0.0480083,-0.014333,-7.67748e-07
8931,2.0,21.0,0.00430361,  -505.448E-03,   64.4370E-03,       6.34910,-0.0484889,-0.0144773,-6.73843e-07
8936,1.0,21.0,0.00431637,  -505.265E-03,   64.4369E-03,       6.36804,-0.0487782,-0.0145641,-3.87817e-07
8937,2.9057799999999996e-30,21.0,0.00432064,  -505.241E-03,   64.4369E-03,       6.37436,-0.0488747,-0.014593,3.55271e-15
8942,-1.0,21.0,0.00431637,  -505.217E-03,   64.4369E-03,       6.36804,-0.0487782,-0.0145641,3.87817e-07
8945,-2.0,21.0,0.00430361,  -505.034E-03,   64.4370E-03,       6.34910,-0.0484889,-0.0144773,6.73843e-07
8946,-3.0,21.0,0.00428239,  -504.534E-03,   64.4370E-03,       6.31763,-0.0480083,-0.014333,7.67748e-07
8951,-4.0,21.0,0.00425279,  -503.566E-03,   64.4371E-03,       6.27375,-0.0473383,-0.014132,6.0088e-07
8952,-5.0,21.0,0.00421494,  -501.985E-03,   64.4372E-03,       6.21764,-0.0464821,-0.013875,1.34107e-07
8957,-6.0,21.0,0.00416899,  -499.657E-03,   64.4373E-03,       6.14954,-0.0454433,-0.0135631,-6.37536e-07
8960,-7.0,21.0,0.00411511,  -496.459E-03,   64.4374E-03,       6.06972,-0.0442263,-0.0131977,-1.6839e-06
8961,-8.0,21.0,0.00405352,  -492.281E-03,   64.4375E-03,       5.97851,-0.0428363,-0.0127803,-2.9426e-06
8966,-9.0,21.0,0.00398446,  -487.031E-03,   64.4376E-03,       5.87628,-0.0412788,-0.0123125,-4.32537e-06
8967,-10.0,21.0,0.00390821,  -480.633E-03,   64.4376E-03,       5.76345,-0.0395604,-0.0117964,-5.72698e-06
8972,-11.0,21.0,0.00382506,  -473.027E-03,   64.4377E-03,       5.64046,-0.0376877,-0.0112338,-7.036e-06
8975,-12.0,21.0,0.00373534,  -464.177E-03,   64.4377E-03,       5.50783,-0.0356682,-0.0106271,-8.14592e-06
8976,-13.0,21.0,0.00363941,  -454.061E-03,   64.4377E-03,       5.36607,-0.0335097,-0.00997865,-8.9656e-06
8981,-14.0,21.0,0.00353764,  -442.680E-03,   64.4377E-03,       5.21576,-0.0312206,-0.00929093,-9.42785e-06
8982,-15.0,21.0,0.00343043,  -430.056E-03,   64.4377E-03,       5.05750,-0.0288097,-0.00856665,-9.4953e-06
8987,-16.0,21.0,0.00331822,  -416.228E-03,   64.4377E-03,       4.89190,-0.0262863,-0.00780862,-9.16327e-06
8990,-17.0,21.0,0.00320143,  -401.255E-03,   64.4377E-03,       4.71964,-0.0236601,-0.0070198,-8.45925e-06
8991,-18.0,21.0,0.00308054,  -385.214E-03,   64.4378E-03,       4.54139,-0.0209413,-0.00620328,-7.43942e-06
8996,-19.0,21.0,0.00295601,  -368.198E-03,   64.4379E-03,       4.35784,-0.0181406,-0.00536228,-6.18269e-06
8997,-20.0,21.0,0.00282834,  -350.318E-03,   64.4379E-03,       4.16973,-0.0152688,-0.00450011,-4.78292e-06
9002,-21.0,21.0,0.00269803,  -331.694E-03,   64.4380E-03,       3.97778,-0.0123373,-0.00362019,-3.34012e-06
9005,-22.0,21.0,0.0025656,  -312.461E-03,   64.4381E-03,       3.78276,-0.00935774,-0.00272602,-1.95148e-06
9006,-23.0,21.0,0.00243157,  -292.764E-03,   64.4382E-03,       3.58541,-0.00634182,-0.00182112,-7.02849e-07
9011,-24.0,21.0,0.00229646,  -272.753E-03,   64.4383E-03,       3.38651,-0.00330162,-0.000909097,3.38523e-07
9012,-25.0,21.0,0.00216081,  -252.583E-03,   64.4384E-03,       3.18683,-0.000249238,6.45926e-06,1.12962e-06
9017,-26.0,21.0,0.00202515,  -232.414E-03,   64.4384E-03,       2.98715,0.00280313,0.00092194,1.65504e-06
9020,-27.0,21.0,0.00189002,  -212.403E-03,   64.4385E-03,       2.78826,0.00584333,0.00183375,1.92785e-06
9021,-28.0,21.0,0.00175596,  -192.707E-03,   64.4385E-03,       2.59092,0.00885925,0.00273831,1.98772e-06
9026,-29.0,21.0,0.00162348,  -173.477E-03,   64.4385E-03,       2.39590,0.0118389,0.00363207,1.89628e-06
9027,-30.0,21.0,0.00149312,  -154.855E-03,   64.4385E-03,       2.20396,0.0147706,0.00451153,1.72975e-06
9032,-31.0,21.0,0.00136538,  -136.977E-03,   64.4385E-03,       2.01586,0.0176427,0.00537322,1.5697e-06
9035,-32.0,21.0,0.00124078,  -119.965E-03,   64.4385E-03,       1.83234,0.0204439,0.00621373,1.49218e-06
9036,-33.0,21.0,0.00111981,  -103.927E-03,   64.4384E-03,       1.65410,0.0231634,0.00702972,1.55712e-06
9041,-34.0,21.0,0.00100293,  -88.9574E-03,   64.4383E-03,       1.48186,0.0257904,0.00781792,1.79826e-06
9042,-35.0,21.0,0.000890627,  -75.1332E-03,   64.4382E-03,       1.31629,0.0283149,0.00857518,2.21674e-06
9047,-36.0,21.0,0.000783332,  -62.5133E-03,   64.4381E-03,       1.15805,0.0307269,0.00929845,2.77737e-06
9050,-37.0,21.0,0.000681473,  -51.1375E-03,   64.4379E-03,       1.00777,0.033017,0.00998482,3.41175e-06
9051,-38.0,21.0,0.000585455,  -41.0264E-03,   64.4377E-03,   866.048E-03,0.0351762,0.0106315,4.02452e-06
9056,-39.0,21.0,0.0004956569999999999,  -32.1805E-03,   64.4375E-03,   733.448E-03,0.0371958,0.011236,4.50739e-06
9057,-40.0,21.0,0.00041243800000000005,  -24.5803E-03,   64.4373E-03,   610.506E-03,0.0390678,0.0117959,4.754e-06
9062,-41.0,21.0,0.00033612599999999996,  -18.1867E-03,   64.4370E-03,   497.715E-03,0.0407844,0.0123091,4.67957e-06
9065,-42.0,21.0,0.000267025,  -12.9417E-03,   64.4367E-03,   395.532E-03,0.0423385,0.0127734,4.23751e-06
9066,-43.0,21.0,0.000205408,  -8.76860E-03,   64.4365E-03,   304.372E-03,0.0437237,0.0131872,3.43399e-06
9071,-44.0,21.0,0.00015152,  -5.57411E-03,   64.4363E-03,   224.603E-03,0.0449338,0.0135489,2.33837e-06
9072,-45.0,21.0,0.00010557100000000001,  -3.24918E-03,   64.4361E-03,   156.552E-03,0.0459639,0.0138569,1.08224e-06
9077,-46.0,21.0,6.77418e-05,  -1.67098E-03,   64.4360E-03,   100.495E-03,0.0468093,0.01411,-1.40358e-07
9080,-47.0,21.0,3.81773e-05,  -704.817E-06,   64.4359E-03,   56.6593E-03,0.0474666,0.0143072,-1.09355e-06
9081,-48.0,21.0,1.6988199999999998e-05,  -206.277E-06,   64.4359E-03,   25.2229E-03,0.047933,0.0144473,-1.50927e-06
9086,-49.0,21.0,4.2495699999999995e-06,  -23.5754E-06,   64.4358E-03,   6.31172E-03,0.0482066,0.0145297,-1.12106e-06
9087,-50.0,21.0,0.0,  -12.8611E-42,   64.4358E-03,           -0.,0.0482951,0.0145564,-6.95262e-07
9092,50.0,20.0,0.0,      -1.01048,   64.4348E-03,           -0.,0.0482977,0.0145573,5.46619e-07
9095,49.0,20.0,4.2356699999999995e-06,      -1.01046,   64.4349E-03,   6.31199E-03,0.0482085,0.0145304,8.73924e-07
9096,48.0,20.0,1.69331e-05,      -1.01028,   64.4349E-03,   25.2238E-03,0.0479337,0.0144477,1.13496e-06
9101,47.0,20.0,3.80548e-05,      -1.00978,   64.4349E-03,   56.6609E-03,0.0474664,0.0143074,7.21779e-07
9102,46.0,20.0,6.75269e-05,      -1.00881,   64.4350E-03,   100.497E-03,0.0468086,0.0141102,-1.41207e-07
9107,45.0,20.0,0.00010524,      -1.00723,   64.4351E-03,   156.555E-03,0.0459629,0.013857,-1.23021e-06
9110,44.0,20.0,0.00015105200000000002,      -1.00491,   64.4353E-03,   224.606E-03,0.0449329,0.0135489,-2.33909e-06
9111,43.0,20.0,0.000204783,      -1.00171,   64.4355E-03,   304.374E-03,0.0437229,0.0131873,-3.30344e-06
9116,42.0,20.0,0.000266224,  -997.540E-03,   64.4357E-03,   395.534E-03,0.0423381,0.0127735,-4.00705e-06
9117,41.0,20.0,0.000335132,  -992.295E-03,   64.4359E-03,   497.716E-03,0.0407843,0.0123091,-4.39104e-06
9122,40.0,20.0,0.00041123699999999995,  -985.902E-03,   64.4362E-03,   610.506E-03,0.039068,0.011796,-4.4499e-06
9125,39.0,20.0,0.000494236,  -978.302E-03,   64.4364E-03,   733.448E-03,0.0371963,0.0112361,-4.22448e-06
9126,38.0,20.0,0.000583801,  -969.456E-03,   64.4366E-03,   866.046E-03,0.0351768,0.0106316,-3.78965e-06
9131,37.0,20.0,0.0006795760000000001,  -959.345E-03,   64.4368E-03,       1.00777,0.0330177,0.00998482,-3.23801e-06
9132,36.0,20.0,0.0007811830000000001,  -947.969E-03,   64.4370E-03,       1.15805,0.0307275,0.00929841,-2.6652e-06
9137,35.0,20.0,0.0008882180000000001,  -935.349E-03,   64.4371E-03,       1.31629,0.0283154,0.00857511,-2.15418e-06
9140,34.0,20.0,0.00100026,  -921.525E-03,   64.4372E-03,       1.48186,0.0257907,0.00781781,-1.76552e-06
9141,33.0,20.0,0.00111686,  -906.556E-03,   64.4373E-03,       1.65410,0.0231634,0.00702956,-1.52962e-06
9146,32.0,20.0,0.00123756,  -890.518E-03,   64.4373E-03,       1.83234,0.0204438,0.00621353,-1.44588e-06
9147,31.0,20.0,0.00136188,  -873.505E-03,   64.4374E-03,       2.01586,0.0176424,0.00537299,-1.4846e-06
9152,30.0,20.0,0.00148933,  -855.627E-03,   64.4374E-03,       2.20396,0.0147703,0.00451127,-1.59372e-06
9155,29.0,20.0,0.00161941,  -837.006E-03,   64.4374E-03,       2.39590,0.0118387,0.00363179,-1.707e-06
9156,28.0,20.0,0.0017516,  -817.775E-03,   64.4373E-03,       2.59092,0.0088591,0.00273801,-1.7538e-06
9161,27.0,20.0,0.00188539,  -798.079E-03,   64.4373E-03,       2.78826,0.00584339,0.00183345,-1.66826e-06
9162,26.0,20.0,0.00202023,  -778.069E-03,   64.4372E-03,       2.98716,0.00280345,0.000921643,-1.3975e-06
9167,25.0,20.0,0.00215561,  -757.900E-03,   64.4372E-03,       3.18683,-0.000248625,6.17282e-06,-9.07664e-07
9170,24.0,20.0,0.00229098,  -737.730E-03,   64.4371E-03,       3.38651,-0.00330071,-0.000909366,-1.87918e-07
9171,23.0,20.0,0.00242581,  -717.719E-03,   64.4370E-03,       3.58541,-0.00634066,-0.00182137,7.48195e-07
9176,22.0,20.0,0.00255958,  -698.022E-03,   64.4369E-03,       3.78276,-0.00935637,-0.00272623,1.86355e-06
9177,21.0,20.0,0.00269175,  -678.789E-03,   64.4369E-03,       3.97778,-0.0123359,-0.00362038,3.10044e-06
9182,20.0,20.0,0.00282179,  -660.165E-03,   64.4368E-03,       4.16973,-0.0152674,-0.00450027,4.38525e-06
9185,19.0,20.0,0.00294921,  -642.285E-03,   64.4367E-03,       4.35784,-0.0181392,-0.0053624,5.63456e-06
9186,18.0,20.0,0.00307349,  -625.269E-03,   64.4367E-03,       4.54139,-0.0209402,-0.00620338,6.76221e-06
9191,17.0,20.0,0.00319415,  -609.228E-03,   64.4366E-03,       4.71964,-0.0236592,-0.00701987,7.68678e-06
9192,16.0,20.0,0.00331071,  -594.254E-03,   64.4366E-03,       4.89191,-0.0262858,-0.00780867,8.33896e-06
9197,15.0,20.0,0.00342271,  -580.426E-03,   64.4366E-03,       5.05750,-0.0288096,-0.00856668,8.66826e-06
9200,14.0,20.0,0.0035297,  -567.802E-03,   64.4366E-03,       5.21577,-0.031221,-0.00929094,8.64825e-06
9201,13.0,20.0,0.00363128,  -556.421E-03,   64.4366E-03,       5.36608,-0.0335105,-0.00997862,8.27987e-06
9206,12.0,20.0,0.00372702,  -546.305E-03,   64.4366E-03,       5.50784,-0.0356693,-0.0106271,7.59229e-06
9207,11.0,20.0,0.00381657,  -537.454E-03,   64.4366E-03,       5.64048,-0.037689,-0.0112337,6.64094e-06
9212,10.0,20.0,0.00389956,  -529.849E-03,   64.4366E-03,       5.76346,-0.0395618,-0.0117962,5.5029e-06
9215,9.0,20.0,0.00397567,  -523.450E-03,   64.4365E-03,       5.87629,-0.0412802,-0.0123123,4.26971e-06
9216,8.0,20.0,0.0040446,  -518.201E-03,   64.4365E-03,       5.97852,-0.0428374,-0.01278,3.03858e-06
9221,7.0,20.0,0.00410607,  -514.023E-03,   64.4364E-03,       6.06973,-0.0442272,-0.0131974,1.90248e-06
9222,6.0,20.0,0.00415985,  -510.825E-03,   64.4363E-03,       6.14955,-0.0454439,-0.0135627,9.40677e-07
9227,5.0,20.0,0.00420571,  -508.496E-03,   64.4362E-03,       6.21765,-0.0464823,-0.0138745,2.10347e-07
9230,4.0,20.0,0.00424349,  -506.915E-03,   64.4361E-03,       6.27376,-0.0473382,-0.0141315,-2.59359e-07
9231,3.0,20.0,0.00427303,  -505.947E-03,   64.4360E-03,       6.31764,-0.0480077,-0.0143325,-4.70297e-07
9236,2.0,20.0,0.00429421,  -505.448E-03,   64.4360E-03,       6.34911,-0.0484881,-0.0144767,-4.54828e-07
9237,1.0,20.0,0.00430695,  -505.265E-03,   64.4359E-03,       6.36805,-0.0487772,-0.0145635,-2.71884e-07
9242,-3.8851099999999994e-30,20.0,0.00431121,  -505.241E-03,   64.4359E-03,       6.37437,-0.0488737,-0.0145925,7.10543e-15
9245,-1.0,20.0,0.00430695,  -505.217E-03,   64.4359E-03,       6.36805,-0.0487772,-0.0145635,2.71884e-07
9246,-2.0,20.0,0.00429421,  -505.034E-03,   64.4360E-03,       6.34911,-0.0484881,-0.0144767,4.54828e-07
9251,-3.0,20.0,0.00427303,  -504.534E-03,   64.4360E-03,       6.31764,-0.0480077,-0.0143325,4.70297e-07
9252,-4.0,20.0,0.00424349,  -503.566E-03,   64.4361E-03,       6.27376,-0.0473382,-0.0141315,2.59359e-07
9257,-5.0,20.0,0.00420571,  -501.986E-03,   64.4362E-03,       6.21765,-0.0464823,-0.0138745,-2.10347e-07
9260,-6.0,20.0,0.00415985,  -499.657E-03,   64.4363E-03,       6.14955,-0.0454439,-0.0135627,-9.40677e-07
9261,-7.0,20.0,0.00410607,  -496.459E-03,   64.4364E-03,       6.06973,-0.0442272,-0.0131974,-1.90248e-06
9266,-8.0,20.0,0.0040446,  -492.281E-03,   64.4365E-03,       5.97852,-0.0428374,-0.01278,-3.03858e-06
9267,-9.0,20.0,0.00397567,  -487.031E-03,   64.4365E-03,       5.87629,-0.0412802,-0.0123123,-4.26971e-06
9272,-10.0,20.0,0.00389956,  -480.633E-03,   64.4366E-03,       5.76346,-0.0395618,-0.0117962,-5.5029e-06
9275,-11.0,20.0,0.00381657,  -473.028E-03,   64.4366E-03,       5.64048,-0.037689,-0.0112337,-6.64094e-06
9276,-12.0,20.0,0.00372702,  -464.177E-03,   64.4366E-03,       5.50784,-0.0356693,-0.0106271,-7.59229e-06
9281,-13.0,20.0,0.00363128,  -454.061E-03,   64.4366E-03,       5.36608,-0.0335105,-0.00997862,-8.27987e-06
9282,-14.0,20.0,0.0035297,  -442.680E-03,   64.4366E-03,       5.21577,-0.031221,-0.00929094,-8.64825e-06
9287,-15.0,20.0,0.00342271,  -430.056E-03,   64.4366E-03,       5.05750,-0.0288096,-0.00856668,-8.66826e-06
9290,-16.0,20.0,0.00331071,  -416.227E-03,   64.4366E-03,       4.89191,-0.0262858,-0.00780867,-8.33896e-06
9291,-17.0,20.0,0.00319415,  -401.254E-03,   64.4366E-03,       4.71964,-0.0236592,-0.00701987,-7.68678e-06
9296,-18.0,20.0,0.00307349,  -385.213E-03,   64.4367E-03,       4.54139,-0.0209402,-0.00620338,-6.76221e-06
9297,-19.0,20.0,0.00294921,  -368.197E-03,   64.4367E-03,       4.35784,-0.0181392,-0.0053624,-5.63456e-06
9302,-20.0,20.0,0.00282179,  -350.316E-03,   64.4368E-03,       4.16973,-0.0152674,-0.00450027,-4.38525e-06
9305,-21.0,20.0,0.00269175,  -331.693E-03,   64.4369E-03,       3.97778,-0.0123359,-0.00362038,-3.10044e-06
9306,-22.0,20.0,0.00255958,  -312.460E-03,   64.4369E-03,       3.78276,-0.00935637,-0.00272623,-1.86355e-06
9311,-23.0,20.0,0.00242581,  -292.763E-03,   64.4370E-03,       3.58541,-0.00634066,-0.00182137,-7.48195e-07
9312,-24.0,20.0,0.00229098,  -272.752E-03,   64.4371E-03,       3.38651,-0.00330071,-0.000909366,1.87918e-07
9317,-25.0,20.0,0.00215561,  -252.582E-03,   64.4372E-03,       3.18683,-0.000248625,6.17282e-06,9.07664e-07
9320,-26.0,20.0,0.00202023,  -232.413E-03,   64.4372E-03,       2.98716,0.00280345,0.000921643,1.3975e-06
9321,-27.0,20.0,0.00188539,  -212.403E-03,   64.4373E-03,       2.78826,0.00584339,0.00183345,1.66826e-06
9326,-28.0,20.0,0.0017516,  -192.707E-03,   64.4373E-03,       2.59092,0.0088591,0.00273801,1.7538e-06
9327,-29.0,20.0,0.00161941,  -173.476E-03,   64.4374E-03,       2.39590,0.0118387,0.00363179,1.707e-06
9332,-30.0,20.0,0.00148933,  -154.855E-03,   64.4374E-03,       2.20396,0.0147703,0.00451127,1.59372e-06
9335,-31.0,20.0,0.00136188,  -136.976E-03,   64.4374E-03,       2.01586,0.0176424,0.00537299,1.4846e-06
9336,-32.0,20.0,0.00123756,  -119.964E-03,   64.4373E-03,       1.83234,0.0204438,0.00621353,1.44588e-06
9341,-33.0,20.0,0.00111686,  -103.926E-03,   64.4373E-03,       1.65410,0.0231634,0.00702956,1.52962e-06
9342,-34.0,20.0,0.00100026,  -88.9568E-03,   64.4372E-03,       1.48186,0.0257907,0.00781781,1.76552e-06
9347,-35.0,20.0,0.0008882180000000001,  -75.1327E-03,   64.4371E-03,       1.31629,0.0283154,0.00857511,2.15418e-06
9350,-36.0,20.0,0.0007811830000000001,  -62.5127E-03,   64.4370E-03,       1.15805,0.0307275,0.00929841,2.6652e-06
9351,-37.0,20.0,0.0006795760000000001,  -51.1370E-03,   64.4368E-03,       1.00777,0.0330177,0.00998482,3.23801e-06
9356,-38.0,20.0,0.000583801,  -41.0259E-03,   64.4366E-03,   866.046E-03,0.0351768,0.0106316,3.78965e-06
9357,-39.0,20.0,0.000494236,  -32.1801E-03,   64.4364E-03,   733.448E-03,0.0371963,0.0112361,4.22448e-06
9362,-40.0,20.0,0.00041123699999999995,  -24.5800E-03,   64.4362E-03,   610.506E-03,0.039068,0.011796,4.4499e-06
9365,-41.0,20.0,0.000335132,  -18.1866E-03,   64.4359E-03,   497.716E-03,0.0407843,0.0123091,4.39104e-06
9366,-42.0,20.0,0.000266224,  -12.9416E-03,   64.4357E-03,   395.534E-03,0.0423381,0.0127735,4.00705e-06
9371,-43.0,20.0,0.000204783,  -8.76858E-03,   64.4355E-03,   304.374E-03,0.0437229,0.0131873,3.30344e-06
9372,-44.0,20.0,0.00015105200000000002,  -5.57413E-03,   64.4353E-03,   224.606E-03,0.0449329,0.0135489,2.33909e-06
9377,-45.0,20.0,0.00010524,  -3.24922E-03,   64.4351E-03,   156.555E-03,0.0459629,0.013857,1.23021e-06
9380,-46.0,20.0,6.75269e-05,  -1.67101E-03,   64.4350E-03,   100.497E-03,0.0468086,0.0141102,1.41207e-07
9381,-47.0,20.0,3.80548e-05,  -704.834E-06,   64.4349E-03,   56.6609E-03,0.0474664,0.0143074,-7.21779e-07
9386,-48.0,20.0,1.69331e-05,  -206.278E-06,   64.4349E-03,   25.2238E-03,0.0479337,0.0144477,-1.13496e-06
9387,-49.0,20.0,4.2356699999999995e-06,  -23.5710E-06,   64.4349E-03,   6.31199E-03,0.0482085,0.0145304,-8.73924e-07
9392,-50.0,20.0,0.0,  -12.8401E-42,   64.4348E-03,           -0.,0.0482977,0.0145573,-5.46619e-07
9395,50.0,19.0,0.0,      -1.01048,   64.4339E-03,           -0.,0.0482999,0.0145581,4.26042e-07
9396,49.0,19.0,4.2228e-06,      -1.01046,   64.4339E-03,   6.31222E-03,0.0482101,0.0145311,6.66618e-07
9401,48.0,19.0,1.6882000000000002e-05,      -1.01028,   64.4339E-03,   25.2246E-03,0.0479343,0.0144481,8.25262e-07
9402,47.0,19.0,3.7941e-05,      -1.00978,   64.4340E-03,   56.6623E-03,0.0474663,0.0143077,4.23048e-07
9407,46.0,19.0,6.73272e-05,      -1.00881,   64.4340E-03,   100.499E-03,0.046808,0.0141103,-3.55764e-07
9410,45.0,19.0,0.00010493299999999999,      -1.00723,   64.4342E-03,   156.557E-03,0.0459621,0.0138571,-1.31989e-06
9411,44.0,19.0,0.000150615,      -1.00491,   64.4343E-03,   224.608E-03,0.0449321,0.013549,-2.29678e-06
9416,43.0,19.0,0.00020419900000000001,      -1.00171,   64.4345E-03,   304.375E-03,0.0437223,0.0131874,-3.14293e-06
9417,42.0,19.0,0.000265475,  -997.540E-03,   64.4347E-03,   395.535E-03,0.0423377,0.0127736,-3.75982e-06
9422,41.0,19.0,0.00033420300000000004,  -992.295E-03,   64.4349E-03,   497.716E-03,0.0407842,0.0123092,-4.09552e-06
9425,40.0,19.0,0.00041011199999999997,  -985.902E-03,   64.4351E-03,   610.506E-03,0.0390682,0.011796,-4.1455e-06
9426,39.0,19.0,0.000492903,  -978.302E-03,   64.4353E-03,   733.447E-03,0.0371967,0.0112361,-3.94526e-06
9431,38.0,19.0,0.000582249,  -969.456E-03,   64.4355E-03,   866.046E-03,0.0351773,0.0106315,-3.55934e-06
9432,37.0,19.0,0.000677795,  -959.345E-03,   64.4357E-03,       1.00777,0.0330182,0.00998473,-3.06873e-06
9437,36.0,19.0,0.000779163,  -947.970E-03,   64.4358E-03,       1.15805,0.030728,0.0092983,-2.55599e-06
9440,35.0,19.0,0.000885953,  -935.350E-03,   64.4360E-03,       1.31629,0.0283158,0.00857497,-2.09392e-06
9441,34.0,19.0,0.0009977410000000001,  -921.525E-03,   64.4361E-03,       1.48186,0.0257909,0.00781765,-1.73486e-06
9446,33.0,19.0,0.00111408,  -906.556E-03,   64.4361E-03,       1.65410,0.0231635,0.00702938,-1.50589e-06
9447,32.0,19.0,0.00123452,  -890.518E-03,   64.4362E-03,       1.83234,0.0204437,0.00621334,-1.40646e-06
9452,31.0,19.0,0.00135858,  -873.506E-03,   64.4362E-03,       2.01586,0.0176422,0.00537278,-1.41129e-06
9455,30.0,19.0,0.00148577,  -855.628E-03,   64.4362E-03,       2.20396,0.01477,0.00451105,-1.47536e-06
9456,29.0,19.0,0.00161558,  -837.006E-03,   64.4362E-03,       2.39590,0.0118385,0.00363156,-1.54167e-06
9461,28.0,19.0,0.0017475,  -817.776E-03,   64.4362E-03,       2.59092,0.00885901,0.00273777,-1.54931e-06
9462,27.0,19.0,0.00188101,  -798.080E-03,   64.4361E-03,       2.78826,0.00584347,0.0018332,-1.44172e-06
9467,26.0,19.0,0.00201559,  -778.070E-03,   64.4361E-03,       2.98716,0.00280377,0.000921398,-1.17354e-06
9470,25.0,19.0,0.0021507,  -757.901E-03,   64.4360E-03,       3.18683,-0.000248061,5.93591e-06,-7.15942e-07
9471,24.0,19.0,0.00228581,  -737.731E-03,   64.4360E-03,       3.38651,-0.00329989,-0.000909589,-5.98501e-08
9476,23.0,19.0,0.00242039,  -717.720E-03,   64.4359E-03,       3.58541,-0.00633962,-0.00182157,7.82862e-07
9477,22.0,19.0,0.0025539,  -698.023E-03,   64.4358E-03,       3.78275,-0.00935516,-0.00272642,1.78022e-06
9482,21.0,19.0,0.00268582,  -678.791E-03,   64.4357E-03,       3.97778,-0.0123346,-0.00362054,2.88262e-06
9485,20.0,19.0,0.00281562,  -660.167E-03,   64.4356E-03,       4.16973,-0.015266,-0.0045004,4.02692e-06
9486,19.0,19.0,0.0029428,  -642.286E-03,   64.4356E-03,       4.35784,-0.018138,-0.00536251,5.14147e-06
9491,18.0,19.0,0.00306685,  -625.270E-03,   64.4355E-03,       4.54139,-0.0209392,-0.00620347,6.15204e-06
9492,17.0,19.0,0.00318729,  -609.228E-03,   64.4355E-03,       4.71965,-0.0236585,-0.00701995,6.9881e-06
9497,16.0,19.0,0.00330363,  -594.255E-03,   64.4355E-03,       4.89191,-0.0262854,-0.00780873,7.58906e-06
9500,15.0,19.0,0.00341543,  -580.427E-03,   64.4355E-03,       5.05751,-0.0288096,-0.00856672,7.90991e-06
9501,14.0,19.0,0.00352223,  -567.802E-03,   64.4355E-03,       5.21578,-0.0312213,-0.00929096,7.92588e-06
9506,13.0,19.0,0.00362362,  -556.421E-03,   64.4355E-03,       5.36609,-0.0335111,-0.00997863,7.63545e-06
9507,12.0,19.0,0.00371919,  -546.305E-03,   64.4355E-03,       5.50785,-0.0356702,-0.010627,7.06136e-06
9512,11.0,19.0,0.00380858,  -537.454E-03,   64.4355E-03,       5.64049,-0.0376901,-0.0112337,6.24928e-06
9515,10.0,19.0,0.00389142,  -529.849E-03,   64.4355E-03,       5.76347,-0.039563,-0.0117961,5.26411e-06
9516,9.0,19.0,0.00396739,  -523.450E-03,   64.4355E-03,       5.87630,-0.0412814,-0.0123122,4.18411e-06
9521,8.0,19.0,0.0040362,  -518.200E-03,   64.4354E-03,       5.97853,-0.0428385,-0.0127798,3.09333e-06
9522,7.0,19.0,0.00409756,  -514.023E-03,   64.4353E-03,       6.06974,-0.0442281,-0.0131971,2.07316e-06
9527,6.0,19.0,0.00415124,  -510.824E-03,   64.4353E-03,       6.14956,-0.0454444,-0.0135624,1.19382e-06
9530,5.0,19.0,0.00419702,  -508.496E-03,   64.4352E-03,       6.21766,-0.0464825,-0.0138741,5.06934e-07
9531,4.0,19.0,0.00423473,  -506.915E-03,   64.4351E-03,       6.27377,-0.047338,-0.014131,3.99653e-08
9536,3.0,19.0,0.00426422,  -505.947E-03,   64.4350E-03,       6.31765,-0.0480073,-0.014332,-2.06651e-07
9537,2.0,19.0,0.00428536,  -505.448E-03,   64.4350E-03,       6.34912,-0.0484874,-0.0144762,-2.59322e-07
9542,1.0,19.0,0.00429808,  -505.265E-03,   64.4349E-03,       6.36805,-0.0487763,-0.0145629,-1.67982e-07
9545,-4.82833e-30,19.0,0.00430233,  -505.241E-03,   64.4349E-03,       6.37437,-0.0488728,-0.0145919,1.24345e-14
9546,-1.0,19.0,0.00429808,  -505.217E-03,   64.4349E-03,       6.36805,-0.0487763,-0.0145629,1.67982e-07
9551,-2.0,19.0,0.00428536,  -505.034E-03,   64.4350E-03,       6.34912,-0.0484874,-0.0144762,2.59322e-07
9552,-3.0,19.0,0.00426422,  -504.535E-03,   64.4350E-03,       6.31765,-0.0480073,-0.014332,2.06651e-07
9557,-4.0,19.0,0.00423473,  -503.567E-03,   64.4351E-03,       6.27377,-0.047338,-0.014131,-3.99653e-08
9558,-5.0,19.0,0.00419702,  -501.986E-03,   64.4352E-03,       6.21766,-0.0464825,-0.0138741,-5.06934e-07
9563,-6.0,19.0,0.00415124,  -499.657E-03,   64.4353E-03,       6.14956,-0.0454444,-0.0135624,-1.19382e-06
9564,-7.0,19.0,0.00409756,  -496.459E-03,   64.4353E-03,       6.06974,-0.0442281,-0.0131971,-2.07316e-06
9569,-8.0,19.0,0.0040362,  -492.281E-03,   64.4354E-03,       5.97853,-0.0428385,-0.0127798,-3.09333e-06
9572,-9.0,19.0,0.00396739,  -487.031E-03,   64.4355E-03,       5.87630,-0.0412814,-0.0123122,-4.18411e-06
9573,-10.0,19.0,0.00389142,  -480.633E-03,   64.4355E-03,       5.76347,-0.039563,-0.0117961,-5.26411e-06
9578,-11.0,19.0,0.00380858,  -473.028E-03,   64.4355E-03,       5.64049,-0.0376901,-0.0112337,-6.24928e-06
9579,-12.0,19.0,0.00371919,  -464.177E-03,   64.4355E-03,       5.50785,-0.0356702,-0.010627,-7.06136e-06
9584,-13.0,19.0,0.00362362,  -454.061E-03,   64.4355E-03,       5.36609,-0.0335111,-0.00997863,-7.63545e-06
9587,-14.0,19.0,0.00352223,  -442.680E-03,   64.4355E-03,       5.21578,-0.0312213,-0.00929096,-7.92588e-06
9588,-15.0,19.0,0.00341543,  -430.055E-03,   64.4355E-03,       5.05751,-0.0288096,-0.00856672,-7.90991e-06
9593,-16.0,19.0,0.00330363,  -416.227E-03,   64.4355E-03,       4.89191,-0.0262854,-0.00780873,-7.58906e-06
9594,-17.0,19.0,0.00318729,  -401.253E-03,   64.4355E-03,       4.71965,-0.0236585,-0.00701995,-6.9881e-06
9599,-18.0,19.0,0.00306685,  -385.212E-03,   64.4355E-03,       4.54139,-0.0209392,-0.00620347,-6.15204e-06
9602,-19.0,19.0,0.0029428,  -368.196E-03,   64.4356E-03,       4.35784,-0.018138,-0.00536251,-5.14147e-06
9603,-20.0,19.0,0.00281562,  -350.315E-03,   64.4356E-03,       4.16973,-0.015266,-0.0045004,-4.02692e-06
9608,-21.0,19.0,0.00268582,  -331.691E-03,   64.4357E-03,       3.97778,-0.0123346,-0.00362054,-2.88262e-06
9609,-22.0,19.0,0.0025539,  -312.459E-03,   64.4358E-03,       3.78275,-0.00935516,-0.00272642,-1.78022e-06
9614,-23.0,19.0,0.00242039,  -292.762E-03,   64.4359E-03,       3.58541,-0.00633962,-0.00182157,-7.82862e-07
9617,-24.0,19.0,0.00228581,  -272.750E-03,   64.4360E-03,       3.38651,-0.00329989,-0.000909589,5.985e-08
9618,-25.0,19.0,0.0021507,  -252.581E-03,   64.4360E-03,       3.18683,-0.000248061,5.93591e-06,7.15942e-07
9623,-26.0,19.0,0.00201559,  -232.412E-03,   64.4361E-03,       2.98716,0.00280377,0.000921398,1.17354e-06
9624,-27.0,19.0,0.00188101,  -212.402E-03,   64.4361E-03,       2.78826,0.00584347,0.0018332,1.44172e-06
9629,-28.0,19.0,0.0017475,  -192.706E-03,   64.4362E-03,       2.59092,0.00885901,0.00273777,1.54931e-06
9632,-29.0,19.0,0.00161558,  -173.476E-03,   64.4362E-03,       2.39590,0.0118385,0.00363156,1.54167e-06
9633,-30.0,19.0,0.00148577,  -154.854E-03,   64.4362E-03,       2.20396,0.01477,0.00451105,1.47536e-06
9638,-31.0,19.0,0.00135858,  -136.976E-03,   64.4362E-03,       2.01586,0.0176422,0.00537278,1.41129e-06
9639,-32.0,19.0,0.00123452,  -119.964E-03,   64.4362E-03,       1.83234,0.0204437,0.00621334,1.40646e-06
9644,-33.0,19.0,0.00111408,  -103.926E-03,   64.4361E-03,       1.65410,0.0231635,0.00702938,1.50589e-06
9647,-34.0,19.0,0.0009977410000000001,  -88.9563E-03,   64.4361E-03,       1.48186,0.0257909,0.00781765,1.73486e-06
9648,-35.0,19.0,0.000885953,  -75.1322E-03,   64.4360E-03,       1.31629,0.0283158,0.00857497,2.09392e-06
9653,-36.0,19.0,0.000779163,  -62.5122E-03,   64.4358E-03,       1.15805,0.030728,0.0092983,2.55599e-06
9654,-37.0,19.0,0.000677795,  -51.1365E-03,   64.4357E-03,       1.00777,0.0330182,0.00998473,3.06873e-06
9659,-38.0,19.0,0.000582249,  -41.0255E-03,   64.4355E-03,   866.046E-03,0.0351773,0.0106315,3.55934e-06
9662,-39.0,19.0,0.000492903,  -32.1797E-03,   64.4353E-03,   733.447E-03,0.0371967,0.0112361,3.94526e-06
9663,-40.0,19.0,0.00041011199999999997,  -24.5798E-03,   64.4351E-03,   610.506E-03,0.0390682,0.011796,4.14549e-06
9668,-41.0,19.0,0.00033420300000000004,  -18.1864E-03,   64.4349E-03,   497.716E-03,0.0407842,0.0123092,4.09552e-06
9669,-42.0,19.0,0.000265475,  -12.9415E-03,   64.4347E-03,   395.535E-03,0.0423377,0.0127736,3.75982e-06
9674,-43.0,19.0,0.00020419900000000001,  -8.76857E-03,   64.4345E-03,   304.375E-03,0.0437223,0.0131874,3.14293e-06
9677,-44.0,19.0,0.000150615,  -5.57415E-03,   64.4343E-03,   224.608E-03,0.0449321,0.013549,2.29678e-06
9678,-45.0,19.0,0.00010493299999999999,  -3.24925E-03,   64.4342E-03,   156.557E-03,0.0459621,0.0138571,1.31989e-06
9683,-46.0,19.0,6.73272e-05,  -1.67104E-03,   64.4340E-03,   100.499E-03,0.046808,0.0141103,3.55764e-07
9684,-47.0,19.0,3.7941e-05,  -704.849E-06,   64.4340E-03,   56.6623E-03,0.0474663,0.0143077,-4.23048e-07
9689,-48.0,19.0,1.6882000000000002e-05,  -206.280E-06,   64.4339E-03,   25.2246E-03,0.0479343,0.0144481,-8.25262e-07
9692,-49.0,19.0,4.2228e-06,  -23.5677E-06,   64.4339E-03,   6.31222E-03,0.0482101,0.0145311,-6.66618e-07
9693,-50.0,19.0,0.0,  -12.8233E-42,   64.4339E-03,           -0.,0.0482999,0.0145581,-4.26042e-07
9698,50.0,18.0,0.0,      -1.01048,   64.4329E-03,           -0.,0.0483017,0.0145589,3.22692e-07
9699,49.0,18.0,4.2109e-06,      -1.01046,   64.4329E-03,   6.31242E-03,0.0482115,0.0145317,4.95887e-07
9704,48.0,18.0,1.68347e-05,      -1.01028,   64.4329E-03,   25.2252E-03,0.0479348,0.0144486,5.7287e-07
9707,47.0,18.0,3.78356e-05,      -1.00978,   64.4330E-03,   56.6635E-03,0.0474662,0.014308,1.85757e-07
9708,46.0,18.0,6.71419e-05,      -1.00881,   64.4331E-03,   100.501E-03,0.0468076,0.0141106,-5.12482e-07
9713,45.0,18.0,0.000104647,      -1.00723,   64.4332E-03,   156.559E-03,0.0459615,0.0138573,-1.36421e-06
9714,44.0,18.0,0.00015021,      -1.00491,   64.4333E-03,   224.610E-03,0.0449314,0.0135492,-2.22125e-06
9719,43.0,18.0,0.00020365599999999998,      -1.00171,   64.4335E-03,   304.377E-03,0.0437217,0.0131875,-2.96314e-06
9722,42.0,18.0,0.000264777,  -997.540E-03,   64.4336E-03,   395.536E-03,0.0423373,0.0127736,-3.50402e-06
9723,41.0,18.0,0.000333336,  -992.296E-03,   64.4338E-03,   497.717E-03,0.0407841,0.0123092,-3.79967e-06
9728,40.0,18.0,0.00040906199999999997,  -985.902E-03,   64.4340E-03,   610.506E-03,0.0390683,0.011796,-3.84561e-06
9729,39.0,18.0,0.0004916580000000001,  -978.302E-03,   64.4342E-03,   733.447E-03,0.037197,0.011236,-3.67196e-06
9734,38.0,18.0,0.000580797,  -969.457E-03,   64.4344E-03,   866.045E-03,0.0351777,0.0106314,-3.33445e-06
9737,37.0,18.0,0.000676127,  -959.346E-03,   64.4346E-03,       1.00777,0.0330187,0.00998459,-2.90232e-06
9738,36.0,18.0,0.0007772710000000001,  -947.970E-03,   64.4347E-03,       1.15805,0.0307284,0.00929814,-2.44731e-06
9743,35.0,18.0,0.0008838289999999999,  -935.350E-03,   64.4348E-03,       1.31629,0.0283161,0.0085748,-2.03194e-06
9744,34.0,18.0,0.000995379,  -921.526E-03,   64.4349E-03,       1.48186,0.0257911,0.00781747,-1.70206e-06
9749,33.0,18.0,0.00111148,  -906.556E-03,   64.4350E-03,       1.65410,0.0231635,0.0070292,-1.48111e-06
9752,32.0,18.0,0.00123167,  -890.519E-03,   64.4350E-03,       1.83234,0.0204436,0.00621315,-1.36932e-06
9753,31.0,18.0,0.00135548,  -873.506E-03,   64.4350E-03,       2.01586,0.017642,0.00537259,-1.34514e-06
9758,30.0,18.0,0.00148241,  -855.628E-03,   64.4351E-03,       2.20396,0.0147698,0.00451085,-1.37034e-06
9759,29.0,18.0,0.00161197,  -837.007E-03,   64.4350E-03,       2.39590,0.0118383,0.00363136,-1.39604e-06
9764,28.0,18.0,0.00174364,  -817.776E-03,   64.4350E-03,       2.59092,0.00885896,0.00273757,-1.37021e-06
9767,27.0,18.0,0.0018769,  -798.081E-03,   64.4350E-03,       2.78826,0.00584358,0.001833,-1.24437e-06
9768,26.0,18.0,0.00201123,  -778.070E-03,   64.4349E-03,       2.98715,0.00280407,0.000921195,-9.7979e-07
9773,25.0,18.0,0.00214609,  -757.902E-03,   64.4349E-03,       3.18683,-0.000247541,5.73805e-06,-5.51878e-07
9774,24.0,18.0,0.00228095,  -737.732E-03,   64.4348E-03,       3.38651,-0.00329916,-0.000909777,4.69504e-08
9779,23.0,18.0,0.00241528,  -717.721E-03,   64.4347E-03,       3.58540,-0.00633869,-0.00182175,8.06382e-07
9782,22.0,18.0,0.00254856,  -698.024E-03,   64.4346E-03,       3.78275,-0.00935408,-0.00272657,1.69885e-06
9783,21.0,18.0,0.00268024,  -678.792E-03,   64.4346E-03,       3.97778,-0.0123334,-0.00362067,2.68177e-06
9788,20.0,18.0,0.00280981,  -660.168E-03,   64.4345E-03,       4.16973,-0.0152649,-0.00450051,3.70089e-06
9789,19.0,18.0,0.00293677,  -642.287E-03,   64.4344E-03,       4.35785,-0.0181369,-0.00536261,4.69468e-06
9794,18.0,18.0,0.00306061,  -625.271E-03,   64.4344E-03,       4.54139,-0.0209382,-0.00620355,5.5992e-06
9797,17.0,18.0,0.00318083,  -609.229E-03,   64.4344E-03,       4.71965,-0.0236578,-0.00702002,6.35348e-06
9798,16.0,18.0,0.00329698,  -594.256E-03,   64.4344E-03,       4.89192,-0.026285,-0.00780879,6.90471e-06
9803,15.0,18.0,0.00340858,  -580.427E-03,   64.4344E-03,       5.05751,-0.0288095,-0.00856678,7.21309e-06
9804,14.0,18.0,0.0035152,  -567.802E-03,   64.4344E-03,       5.21578,-0.0312216,-0.00929101,7.25587e-06
9809,13.0,18.0,0.00361642,  -556.421E-03,   64.4344E-03,       5.36610,-0.0335117,-0.00997867,7.02998e-06
9812,12.0,18.0,0.00371183,  -546.305E-03,   64.4344E-03,       5.50786,-0.0356711,-0.0106271,6.55312e-06
9813,11.0,18.0,0.00380106,  -537.454E-03,   64.4344E-03,       5.64049,-0.0376912,-0.0112336,5.86285e-06
9818,10.0,18.0,0.00388377,  -529.849E-03,   64.4344E-03,       5.76348,-0.0395641,-0.0117961,5.01361e-06
9819,9.0,18.0,0.00395961,  -523.450E-03,   64.4344E-03,       5.87631,-0.0412825,-0.0123121,4.07189e-06
9824,8.0,18.0,0.0040283,  -518.200E-03,   64.4343E-03,       5.97854,-0.0428395,-0.0127796,3.10983e-06
9827,7.0,18.0,0.00408956,  -514.023E-03,   64.4343E-03,       6.06975,-0.0442289,-0.0131969,2.19797e-06
9828,6.0,18.0,0.00414315,  -510.824E-03,   64.4342E-03,       6.14957,-0.045445,-0.0135621,1.39785e-06
9833,5.0,18.0,0.00418886,  -508.496E-03,   64.4341E-03,       6.21767,-0.0464827,-0.0138738,7.55414e-07
9834,4.0,18.0,0.00422651,  -506.915E-03,   64.4341E-03,       6.27378,-0.0473379,-0.0141306,2.96018e-07
9839,3.0,18.0,0.00425594,  -505.947E-03,   64.4340E-03,       6.31765,-0.0480069,-0.0143315,2.17344e-08
9842,2.0,18.0,0.00427705,  -505.448E-03,   64.4339E-03,       6.34913,-0.0484868,-0.0144756,-8.86567e-08
9843,1.0,18.0,0.00428975,  -505.265E-03,   64.4339E-03,       6.36806,-0.0487755,-0.0145624,-7.68991e-08
9848,-6.63881e-30,18.0,0.00429399,  -505.241E-03,   64.4339E-03,       6.37438,-0.0488719,-0.0145913,-6.66134e-15
9849,-1.0,18.0,0.00428975,  -505.217E-03,   64.4339E-03,       6.36806,-0.0487755,-0.0145624,7.68991e-08
9854,-2.0,18.0,0.00427705,  -505.034E-03,   64.4339E-03,       6.34913,-0.0484868,-0.0144756,8.86567e-08
9857,-3.0,18.0,0.00425594,  -504.535E-03,   64.4340E-03,       6.31765,-0.0480069,-0.0143315,-2.17344e-08
9858,-4.0,18.0,0.00422651,  -503.567E-03,   64.4341E-03,       6.27378,-0.0473379,-0.0141306,-2.96018e-07
9863,-5.0,18.0,0.00418886,  -501.986E-03,   64.4341E-03,       6.21767,-0.0464827,-0.0138738,-7.55414e-07
9864,-6.0,18.0,0.00414315,  -499.657E-03,   64.4342E-03,       6.14957,-0.045445,-0.0135621,-1.39785e-06
9869,-7.0,18.0,0.00408956,  -496.459E-03,   64.4343E-03,       6.06975,-0.0442289,-0.0131969,-2.19797e-06
9872,-8.0,18.0,0.0040283,  -492.282E-03,   64.4343E-03,       5.97854,-0.0428395,-0.0127796,-3.10983e-06
9873,-9.0,18.0,0.00395961,  -487.032E-03,   64.4344E-03,       5.87631,-0.0412825,-0.0123121,-4.07189e-06
9878,-10.0,18.0,0.00388377,  -480.633E-03,   64.4344E-03,       5.76348,-0.0395641,-0.0117961,-5.01361e-06
9879,-11.0,18.0,0.00380106,  -473.028E-03,   64.4344E-03,       5.64049,-0.0376912,-0.0112336,-5.86285e-06
9884,-12.0,18.0,0.00371183,  -464.177E-03,   64.4344E-03,       5.50786,-0.0356711,-0.0106271,-6.55312e-06
9887,-13.0,18.0,0.00361642,  -454.060E-03,   64.4344E-03,       5.36610,-0.0335117,-0.00997867,-7.02998e-06
9888,-14.0,18.0,0.0035152,  -442.680E-03,   64.4344E-03,       5.21578,-0.0312216,-0.00929101,-7.25587e-06
9893,-15.0,18.0,0.00340858,  -430.055E-03,   64.4344E-03,       5.05751,-0.0288095,-0.00856678,-7.21309e-06
9894,-16.0,18.0,0.00329698,  -416.226E-03,   64.4344E-03,       4.89192,-0.026285,-0.00780879,-6.90471e-06
9899,-17.0,18.0,0.00318083,  -401.252E-03,   64.4344E-03,       4.71965,-0.0236578,-0.00702002,-6.35348e-06
9902,-18.0,18.0,0.00306061,  -385.211E-03,   64.4344E-03,       4.54139,-0.0209382,-0.00620355,-5.5992e-06
9903,-19.0,18.0,0.00293677,  -368.195E-03,   64.4344E-03,       4.35785,-0.0181369,-0.00536261,-4.69468e-06
9908,-20.0,18.0,0.00280981,  -350.314E-03,   64.4345E-03,       4.16973,-0.0152649,-0.00450051,-3.70089e-06
9909,-21.0,18.0,0.00268024,  -331.690E-03,   64.4346E-03,       3.97778,-0.0123334,-0.00362067,-2.68177e-06
9914,-22.0,18.0,0.00254856,  -312.458E-03,   64.4346E-03,       3.78275,-0.00935408,-0.00272657,-1.69885e-06
9917,-23.0,18.0,0.00241528,  -292.761E-03,   64.4347E-03,       3.58540,-0.00633869,-0.00182175,-8.06382e-07
9918,-24.0,18.0,0.00228095,  -272.749E-03,   64.4348E-03,       3.38651,-0.00329916,-0.000909777,-4.69504e-08
9923,-25.0,18.0,0.00214609,  -252.580E-03,   64.4349E-03,       3.18683,-0.000247541,5.73805e-06,5.51878e-07
9924,-26.0,18.0,0.00201123,  -232.411E-03,   64.4349E-03,       2.98715,0.00280407,0.000921195,9.7979e-07
9929,-27.0,18.0,0.0018769,  -212.401E-03,   64.4350E-03,       2.78826,0.00584358,0.001833,1.24437e-06
9932,-28.0,18.0,0.00174364,  -192.705E-03,   64.4350E-03,       2.59092,0.00885896,0.00273757,1.37021e-06
9933,-29.0,18.0,0.00161197,  -173.475E-03,   64.4350E-03,       2.39590,0.0118383,0.00363136,1.39604e-06
9938,-30.0,18.0,0.00148241,  -154.854E-03,   64.4351E-03,       2.20396,0.0147698,0.00451085,1.37034e-06
9939,-31.0,18.0,0.00135548,  -136.975E-03,   64.4350E-03,       2.01586,0.017642,0.00537259,1.34514e-06
9944,-32.0,18.0,0.00123167,  -119.963E-03,   64.4350E-03,       1.83234,0.0204436,0.00621315,1.36932e-06
9947,-33.0,18.0,0.00111148,  -103.925E-03,   64.4350E-03,       1.65410,0.0231635,0.0070292,1.48111e-06
9948,-34.0,18.0,0.000995379,  -88.9559E-03,   64.4349E-03,       1.48186,0.0257911,0.00781747,1.70206e-06
9953,-35.0,18.0,0.0008838289999999999,  -75.1317E-03,   64.4348E-03,       1.31629,0.0283161,0.0085748,2.03194e-06
9954,-36.0,18.0,0.0007772710000000001,  -62.5118E-03,   64.4347E-03,       1.15805,0.0307284,0.00929814,2.44731e-06
9959,-37.0,18.0,0.000676127,  -51.1361E-03,   64.4346E-03,       1.00777,0.0330187,0.00998459,2.90232e-06
9962,-38.0,18.0,0.000580797,  -41.0252E-03,   64.4344E-03,   866.045E-03,0.0351777,0.0106314,3.33445e-06
9963,-39.0,18.0,0.0004916580000000001,  -32.1795E-03,   64.4342E-03,   733.447E-03,0.037197,0.011236,3.67196e-06
9968,-40.0,18.0,0.00040906199999999997,  -24.5796E-03,   64.4340E-03,   610.506E-03,0.0390683,0.011796,3.84561e-06
9969,-41.0,18.0,0.000333336,  -18.1863E-03,   64.4338E-03,   497.717E-03,0.0407841,0.0123092,3.79967e-06
9974,-42.0,18.0,0.000264777,  -12.9415E-03,   64.4336E-03,   395.536E-03,0.0423373,0.0127736,3.50402e-06
9977,-43.0,18.0,0.00020365599999999998,  -8.76857E-03,   64.4335E-03,   304.377E-03,0.0437217,0.0131875,2.96314e-06
9978,-44.0,18.0,0.00015021,  -5.57418E-03,   64.4333E-03,   224.610E-03,0.0449314,0.0135492,2.22125e-06
9983,-45.0,18.0,0.000104647,  -3.24928E-03,   64.4332E-03,   156.559E-03,0.0459615,0.0138573,1.36421e-06
9984,-46.0,18.0,6.71419e-05,  -1.67107E-03,   64.4331E-03,   100.501E-03,0.0468076,0.0141106,5.12482e-07
9989,-47.0,18.0,3.78356e-05,  -704.864E-06,   64.4330E-03,   56.6635E-03,0.0474662,0.014308,-1.85757e-07
9992,-48.0,18.0,1.68347e-05,  -206.283E-06,   64.4329E-03,   25.2252E-03,0.0479348,0.0144486,-5.7287e-07
9993,-49.0,18.0,4.2109e-06,  -23.5656E-06,   64.4329E-03,   6.31242E-03,0.0482115,0.0145317,-4.95887e-07
9998,-50.0,18.0,0.0,  -12.8079E-42,   64.4329E-03,           -0.,0.0483017,0.0145589,-3.22692e-07
9999,50.0,17.0,0.0,      -1.01048,   64.4319E-03,           -0.,0.0483033,0.0145596,2.40181e-07
10004,49.0,17.0,4.19992e-06,      -1.01046,   64.4319E-03,   6.31258E-03,0.0482127,0.0145324,3.56079e-07
10007,48.0,17.0,1.67911e-05,      -1.01028,   64.4320E-03,   25.2258E-03,0.0479353,0.014449,3.69467e-07
10008,47.0,17.0,3.7738200000000004e-05,      -1.00978,   64.4320E-03,   56.6645E-03,0.0474662,0.0143083,1.98061e-09
10013,46.0,17.0,6.69704e-05,      -1.00881,   64.4321E-03,   100.502E-03,0.0468072,0.0141109,-6.22561e-07
10014,45.0,17.0,0.000104382,      -1.00723,   64.4322E-03,   156.560E-03,0.0459609,0.0138575,-1.37154e-06
10019,44.0,17.0,0.000149834,      -1.00491,   64.4323E-03,   224.611E-03,0.0449309,0.0135493,-2.12229e-06
10022,43.0,17.0,0.000203151,      -1.00171,   64.4324E-03,   304.379E-03,0.0437212,0.0131876,-2.77129e-06
10023,42.0,17.0,0.000264129,  -997.540E-03,   64.4326E-03,   395.537E-03,0.042337,0.0127737,-3.24617e-06
10028,41.0,17.0,0.00033252900000000003,  -992.296E-03,   64.4328E-03,   497.718E-03,0.0407839,0.0123092,-3.50818e-06
10029,40.0,17.0,0.000408084,  -985.902E-03,   64.4330E-03,   610.506E-03,0.0390683,0.0117959,-3.55308e-06
10034,39.0,17.0,0.000490496,  -978.303E-03,   64.4331E-03,   733.447E-03,0.0371972,0.0112359,-3.40624e-06
10037,38.0,17.0,0.000579442,  -969.457E-03,   64.4333E-03,   866.045E-03,0.035178,0.0106313,-3.11467e-06
10038,37.0,17.0,0.00067457,  -959.346E-03,   64.4335E-03,       1.00777,0.033019,0.00998442,-2.73786e-06
10043,36.0,17.0,0.000775503,  -947.970E-03,   64.4336E-03,       1.15805,0.0307287,0.00929795,-2.33684e-06
10044,35.0,17.0,0.000881843,  -935.350E-03,   64.4337E-03,       1.31629,0.0283163,0.0085746,-1.96576e-06
10049,34.0,17.0,0.00099317,  -921.526E-03,   64.4338E-03,       1.48186,0.0257912,0.00781727,-1.66395e-06
10052,33.0,17.0,0.00110904,  -906.557E-03,   64.4338E-03,       1.65410,0.0231635,0.00702901,-1.45225e-06
10053,32.0,17.0,0.001229,  -890.519E-03,   64.4339E-03,       1.83234,0.0204435,0.00621297,-1.33119e-06
10058,31.0,17.0,0.00135258,  -873.507E-03,   64.4339E-03,       2.01586,0.0176419,0.00537241,-1.28304e-06
10059,30.0,17.0,0.00147927,  -855.629E-03,   64.4339E-03,       2.20396,0.0147697,0.00451068,-1.27536e-06
10064,29.0,17.0,0.00160859,  -837.007E-03,   64.4339E-03,       2.39590,0.0118382,0.00363119,-1.26681e-06
10067,28.0,17.0,0.00174002,  -817.777E-03,   64.4339E-03,       2.59092,0.00885895,0.0027374,-1.21302e-06
10068,27.0,17.0,0.00187305,  -798.081E-03,   64.4338E-03,       2.78826,0.0058437,0.00183283,-1.07277e-06
10073,26.0,17.0,0.00200714,  -778.071E-03,   64.4338E-03,       2.98715,0.00280436,0.000921024,-8.13003e-07
10074,25.0,17.0,0.00214176,  -757.903E-03,   64.4337E-03,       3.18683,-0.000247063,5.57066e-06,-4.12848e-07
10079,24.0,17.0,0.00227639,  -737.733E-03,   64.4337E-03,       3.38650,-0.00329849,-0.000909936,1.34099e-07
10082,23.0,17.0,0.0024105,  -717.722E-03,   64.4336E-03,       3.58540,-0.00633785,-0.00182189,8.18852e-07
10083,22.0,17.0,0.00254354,  -698.025E-03,   64.4335E-03,       3.78275,-0.00935312,-0.0027267,1.61772e-06
10088,21.0,17.0,0.00267501,  -678.793E-03,   64.4334E-03,       3.97778,-0.0123324,-0.00362079,2.4941e-06
10089,20.0,17.0,0.00280437,  -660.169E-03,   64.4334E-03,       4.16973,-0.0152638,-0.00450062,3.40145e-06
10094,19.0,17.0,0.00293111,  -642.288E-03,   64.4333E-03,       4.35785,-0.018136,-0.0053627,4.28687e-06
10097,18.0,17.0,0.00305475,  -625.272E-03,   64.4333E-03,       4.54139,-0.0209374,-0.00620363,5.0954e-06
10098,17.0,17.0,0.00317478,  -609.230E-03,   64.4333E-03,       4.71965,-0.0236572,-0.00702009,5.77437e-06
10103,16.0,17.0,0.00329074,  -594.256E-03,   64.4333E-03,       4.89192,-0.0262846,-0.00780886,6.27796e-06
10104,15.0,17.0,0.00340216,  -580.427E-03,   64.4333E-03,       5.05752,-0.0288095,-0.00856685,6.57122e-06
10109,14.0,17.0,0.00350861,  -567.802E-03,   64.4333E-03,       5.21579,-0.0312218,-0.00929108,6.63352e-06
10112,13.0,17.0,0.00360966,  -556.422E-03,   64.4333E-03,       5.36610,-0.0335123,-0.00997872,6.46092e-06
10113,12.0,17.0,0.00370493,  -546.305E-03,   64.4333E-03,       5.50786,-0.0356718,-0.0106271,6.06719e-06
10118,11.0,17.0,0.00379402,  -537.454E-03,   64.4333E-03,       5.64050,-0.0376921,-0.0112337,5.48312e-06
10119,10.0,17.0,0.00387659,  -529.849E-03,   64.4333E-03,       5.76349,-0.0395651,-0.011796,4.75418e-06
10124,9.0,17.0,0.00395232,  -523.450E-03,   64.4333E-03,       5.87632,-0.0412835,-0.012312,3.93651e-06
10127,8.0,17.0,0.0040209,  -518.200E-03,   64.4333E-03,       5.97855,-0.0428404,-0.0127795,3.09158e-06
10128,7.0,17.0,0.00408206,  -514.023E-03,   64.4332E-03,       6.06976,-0.0442296,-0.0131967,2.27996e-06
10133,6.0,17.0,0.00413557,  -510.824E-03,   64.4332E-03,       6.14958,-0.0454454,-0.0135618,1.55501e-06
10134,5.0,17.0,0.00418121,  -508.496E-03,   64.4331E-03,       6.21768,-0.046483,-0.0138734,9.57126e-07
10139,4.0,17.0,0.00421879,  -506.915E-03,   64.4330E-03,       6.27379,-0.0473378,-0.0141302,5.09345e-07
10142,3.0,17.0,0.00424818,  -505.947E-03,   64.4330E-03,       6.31766,-0.0480065,-0.014331,2.14866e-07
10143,2.0,17.0,0.00426926,  -505.448E-03,   64.4329E-03,       6.34913,-0.0484862,-0.0144751,5.69421e-08
10148,1.0,17.0,0.00428194,  -505.265E-03,   64.4329E-03,       6.36807,-0.0487749,-0.0145618,1.17486e-09
10149,0.0,17.0,0.00428617,  -505.241E-03,   64.4329E-03,       6.37439,-0.0488712,-0.0145908,-2.59792e-14
10154,-1.0,17.0,0.00428194,  -505.217E-03,   64.4329E-03,       6.36807,-0.0487749,-0.0145618,-1.17484e-09
10157,-2.0,17.0,0.00426926,  -505.034E-03,   64.4329E-03,       6.34913,-0.0484862,-0.0144751,-5.69421e-08
10158,-3.0,17.0,0.00424818,  -504.535E-03,   64.4330E-03,       6.31766,-0.0480065,-0.014331,-2.14866e-07
10163,-4.0,17.0,0.00421879,  -503.567E-03,   64.4330E-03,       6.27379,-0.0473378,-0.0141302,-5.09345e-07
10164,-5.0,17.0,0.00418121,  -501.986E-03,   64.4331E-03,       6.21768,-0.046483,-0.0138734,-9.57126e-07
10169,-6.0,17.0,0.00413557,  -499.658E-03,   64.4332E-03,       6.14958,-0.0454454,-0.0135618,-1.55501e-06
10172,-7.0,17.0,0.00408206,  -496.459E-03,   64.4332E-03,       6.06976,-0.0442296,-0.0131967,-2.27996e-06
10173,-8.0,17.0,0.0040209,  -492.282E-03,   64.4333E-03,       5.97855,-0.0428404,-0.0127795,-3.09158e-06
10178,-9.0,17.0,0.00395232,  -487.032E-03,   64.4333E-03,       5.87632,-0.0412835,-0.012312,-3.93651e-06
10179,-10.0,17.0,0.00387659,  -480.633E-03,   64.4333E-03,       5.76349,-0.0395651,-0.011796,-4.75418e-06
10184,-11.0,17.0,0.00379402,  -473.028E-03,   64.4333E-03,       5.64050,-0.0376921,-0.0112337,-5.48312e-06
10187,-12.0,17.0,0.00370493,  -464.177E-03,   64.4333E-03,       5.50786,-0.0356718,-0.0106271,-6.06719e-06
10188,-13.0,17.0,0.00360966,  -454.060E-03,   64.4333E-03,       5.36610,-0.0335123,-0.00997872,-6.46092e-06
10193,-14.0,17.0,0.00350861,  -442.679E-03,   64.4333E-03,       5.21579,-0.0312218,-0.00929108,-6.63352e-06
10194,-15.0,17.0,0.00340216,  -430.054E-03,   64.4333E-03,       5.05752,-0.0288095,-0.00856685,-6.57122e-06
10199,-16.0,17.0,0.00329074,  -416.225E-03,   64.4333E-03,       4.89192,-0.0262846,-0.00780886,-6.27796e-06
10202,-17.0,17.0,0.00317478,  -401.252E-03,   64.4333E-03,       4.71965,-0.0236572,-0.00702009,-5.77437e-06
10203,-18.0,17.0,0.00305475,  -385.210E-03,   64.4333E-03,       4.54139,-0.0209374,-0.00620363,-5.0954e-06
10208,-19.0,17.0,0.00293111,  -368.194E-03,   64.4333E-03,       4.35785,-0.018136,-0.0053627,-4.28687e-06
10209,-20.0,17.0,0.00280437,  -350.313E-03,   64.4334E-03,       4.16973,-0.0152638,-0.00450062,-3.40145e-06
10214,-21.0,17.0,0.00267501,  -331.689E-03,   64.4334E-03,       3.97778,-0.0123324,-0.00362079,-2.4941e-06
10217,-22.0,17.0,0.00254354,  -312.457E-03,   64.4335E-03,       3.78275,-0.00935312,-0.0027267,-1.61772e-06
10218,-23.0,17.0,0.0024105,  -292.759E-03,   64.4336E-03,       3.58540,-0.00633785,-0.00182189,-8.18852e-07
10223,-24.0,17.0,0.00227639,  -272.748E-03,   64.4337E-03,       3.38650,-0.00329849,-0.000909936,-1.34099e-07
10224,-25.0,17.0,0.00214176,  -252.579E-03,   64.4337E-03,       3.18683,-0.000247063,5.57066e-06,4.12848e-07
10229,-26.0,17.0,0.00200714,  -232.411E-03,   64.4338E-03,       2.98715,0.00280436,0.000921024,8.13003e-07
10232,-27.0,17.0,0.00187305,  -212.400E-03,   64.4338E-03,       2.78826,0.0058437,0.00183283,1.07277e-06
10233,-28.0,17.0,0.00174002,  -192.705E-03,   64.4339E-03,       2.59092,0.00885895,0.0027374,1.21302e-06
10238,-29.0,17.0,0.00160859,  -173.474E-03,   64.4339E-03,       2.39590,0.0118382,0.00363119,1.26681e-06
10239,-30.0,17.0,0.00147927,  -154.853E-03,   64.4339E-03,       2.20396,0.0147697,0.00451068,1.27536e-06
10244,-31.0,17.0,0.00135258,  -136.975E-03,   64.4339E-03,       2.01586,0.0176419,0.00537241,1.28304e-06
10247,-32.0,17.0,0.001229,  -119.963E-03,   64.4339E-03,       1.83234,0.0204435,0.00621297,1.33119e-06
10248,-33.0,17.0,0.00110904,  -103.925E-03,   64.4338E-03,       1.65410,0.0231635,0.00702901,1.45225e-06
10253,-34.0,17.0,0.00099317,  -88.9555E-03,   64.4338E-03,       1.48186,0.0257912,0.00781727,1.66395e-06
10254,-35.0,17.0,0.000881843,  -75.1313E-03,   64.4337E-03,       1.31629,0.0283163,0.0085746,1.96576e-06
10259,-36.0,17.0,0.000775503,  -62.5114E-03,   64.4336E-03,       1.15805,0.0307287,0.00929795,2.33684e-06
10262,-37.0,17.0,0.00067457,  -51.1358E-03,   64.4335E-03,       1.00777,0.033019,0.00998442,2.73786e-06
10263,-38.0,17.0,0.000579442,  -41.0249E-03,   64.4333E-03,   866.045E-03,0.035178,0.0106313,3.11467e-06
10268,-39.0,17.0,0.000490496,  -32.1793E-03,   64.4331E-03,   733.447E-03,0.0371972,0.0112359,3.40624e-06
10269,-40.0,17.0,0.000408084,  -24.5794E-03,   64.4330E-03,   610.506E-03,0.0390683,0.0117959,3.55308e-06
10274,-41.0,17.0,0.00033252900000000003,  -18.1862E-03,   64.4328E-03,   497.718E-03,0.0407839,0.0123092,3.50818e-06
10277,-42.0,17.0,0.000264129,  -12.9414E-03,   64.4326E-03,   395.537E-03,0.042337,0.0127737,3.24617e-06
10278,-43.0,17.0,0.000203151,  -8.76857E-03,   64.4324E-03,   304.379E-03,0.0437212,0.0131876,2.77129e-06
10283,-44.0,17.0,0.000149834,  -5.57420E-03,   64.4323E-03,   224.611E-03,0.0449309,0.0135493,2.12229e-06
10284,-45.0,17.0,0.000104382,  -3.24932E-03,   64.4322E-03,   156.560E-03,0.0459609,0.0138575,1.37154e-06
10289,-46.0,17.0,6.69704e-05,  -1.67110E-03,   64.4321E-03,   100.502E-03,0.0468072,0.0141109,6.22561e-07
10292,-47.0,17.0,3.7738200000000004e-05,  -704.877E-06,   64.4320E-03,   56.6645E-03,0.0474662,0.0143083,-1.98073e-09
10293,-48.0,17.0,1.67911e-05,  -206.286E-06,   64.4320E-03,   25.2258E-03,0.0479353,0.014449,-3.69467e-07
10298,-49.0,17.0,4.19992e-06,  -23.5641E-06,   64.4319E-03,   6.31258E-03,0.0482127,0.0145324,-3.56079e-07
10299,-50.0,17.0,0.0,  -12.7967E-42,   64.4319E-03,           -0.,0.0483033,0.0145596,-2.40181e-07
10304,50.0,16.0,0.0,      -1.01048,   64.4309E-03,           -0.,0.0483046,0.0145603,1.71271e-07
10307,49.0,16.0,4.18982e-06,      -1.01046,   64.4310E-03,   6.31272E-03,0.0482136,0.0145329,2.43492e-07
10308,48.0,16.0,1.67508e-05,      -1.01028,   64.4310E-03,   25.2263E-03,0.0479357,0.0144495,2.08404e-07
10313,47.0,16.0,3.76483e-05,      -1.00978,   64.4310E-03,   56.6654E-03,0.0474662,0.0143087,-1.37663e-07
10314,46.0,16.0,6.68121e-05,      -1.00881,   64.4311E-03,   100.503E-03,0.0468069,0.0141111,-6.93394e-07
10319,45.0,16.0,0.00010413700000000001,      -1.00723,   64.4312E-03,   156.562E-03,0.0459605,0.0138577,-1.35087e-06
10322,44.0,16.0,0.000149485,      -1.00491,   64.4313E-03,   224.613E-03,0.0449304,0.0135495,-2.00635e-06
10323,43.0,16.0,0.000202684,      -1.00171,   64.4314E-03,   304.380E-03,0.0437208,0.0131877,-2.57373e-06
10328,42.0,16.0,0.000263527,  -997.540E-03,   64.4316E-03,   395.539E-03,0.0423368,0.0127737,-2.9907e-06
10329,41.0,16.0,0.00033178,  -992.296E-03,   64.4317E-03,   497.719E-03,0.0407838,0.0123092,-3.22423e-06
10334,40.0,16.0,0.000407175,  -985.902E-03,   64.4319E-03,   610.507E-03,0.0390683,0.0117958,-3.26993e-06
10337,39.0,16.0,0.000489417,  -978.303E-03,   64.4321E-03,   733.447E-03,0.0371973,0.0112357,-3.14861e-06
10338,38.0,16.0,0.000578182,  -969.457E-03,   64.4322E-03,   866.045E-03,0.0351782,0.0106311,-2.90003e-06
10343,37.0,16.0,0.0006731189999999999,  -959.346E-03,   64.4323E-03,       1.00777,0.0330192,0.00998421,-2.57419e-06
10344,36.0,16.0,0.0007738560000000001,  -947.971E-03,   64.4325E-03,       1.15805,0.0307289,0.00929773,-2.22335e-06
10349,35.0,16.0,0.000879992,  -935.351E-03,   64.4326E-03,       1.31629,0.0283164,0.00857439,-1.89346e-06
10352,34.0,16.0,0.00099111,  -921.527E-03,   64.4326E-03,       1.48186,0.0257913,0.00781707,-1.61871e-06
10353,33.0,16.0,0.00110677,  -906.557E-03,   64.4327E-03,       1.65410,0.0231635,0.00702881,-1.41714e-06
10358,32.0,16.0,0.00122651,  -890.520E-03,   64.4327E-03,       1.83234,0.0204435,0.00621279,-1.28999e-06
10359,31.0,16.0,0.00134986,  -873.507E-03,   64.4328E-03,       2.01586,0.0176418,0.00537224,-1.22259e-06
10364,30.0,16.0,0.00147634,  -855.629E-03,   64.4328E-03,       2.20396,0.0147696,0.00451052,-1.18794e-06
10367,29.0,16.0,0.00160543,  -837.008E-03,   64.4328E-03,       2.39590,0.0118381,0.00363103,-1.15114e-06
10368,28.0,16.0,0.00173664,  -817.778E-03,   64.4327E-03,       2.59092,0.00885895,0.00273725,-1.07474e-06
10373,27.0,16.0,0.00186944,  -798.082E-03,   64.4327E-03,       2.78826,0.00584382,0.00183268,-9.23756e-07
10374,26.0,16.0,0.00200331,  -778.072E-03,   64.4326E-03,       2.98715,0.00280463,0.000920876,-6.70184e-07
10379,25.0,16.0,0.00213772,  -757.903E-03,   64.4326E-03,       3.18683,-0.000246625,5.42699e-06,-2.96286e-07
10382,24.0,16.0,0.00227213,  -737.734E-03,   64.4325E-03,       3.38650,-0.00329789,-0.000910073,2.03263e-07
10383,23.0,16.0,0.00240602,  -717.723E-03,   64.4324E-03,       3.58540,-0.00633711,-0.00182202,8.20709e-07
10388,22.0,16.0,0.00253885,  -698.026E-03,   64.4324E-03,       3.78275,-0.00935227,-0.00272682,1.53566e-06
10389,21.0,16.0,0.00267011,  -678.794E-03,   64.4323E-03,       3.97778,-0.0123315,-0.00362089,2.31674e-06
10394,20.0,16.0,0.00279927,  -660.170E-03,   64.4322E-03,       4.16973,-0.0152629,-0.00450071,3.12399e-06
10397,19.0,16.0,0.00292582,  -642.289E-03,   64.4322E-03,       4.35785,-0.0181351,-0.00536278,3.91204e-06
10398,18.0,16.0,0.00304927,  -625.273E-03,   64.4322E-03,       4.54139,-0.0209367,-0.00620371,4.63364e-06
10403,17.0,16.0,0.00316912,  -609.231E-03,   64.4322E-03,       4.71965,-0.0236566,-0.00702016,5.24347e-06
10404,16.0,16.0,0.0032849,  -594.257E-03,   64.4322E-03,       4.89192,-0.0262843,-0.00780893,5.70187e-06
10409,15.0,16.0,0.00339615,  -580.428E-03,   64.4322E-03,       5.05752,-0.0288094,-0.00856692,5.97833e-06
10412,14.0,16.0,0.00350244,  -567.803E-03,   64.4322E-03,       5.21579,-0.031222,-0.00929115,6.05439e-06
10413,13.0,16.0,0.00360335,  -556.422E-03,   64.4322E-03,       5.36611,-0.0335127,-0.00997879,5.9257e-06
10418,12.0,16.0,0.00369847,  -546.305E-03,   64.4322E-03,       5.50787,-0.0356725,-0.0106271,5.60289e-06
10419,11.0,16.0,0.00378743,  -537.454E-03,   64.4322E-03,       5.64051,-0.0376929,-0.0112337,5.11112e-06
10424,10.0,16.0,0.00386988,  -529.849E-03,   64.4322E-03,       5.76350,-0.039566,-0.011796,4.48819e-06
10427,9.0,16.0,0.0039455,  -523.450E-03,   64.4322E-03,       5.87633,-0.0412844,-0.0123119,3.78121e-06
10428,8.0,16.0,0.00401398,  -518.200E-03,   64.4322E-03,       5.97856,-0.0428412,-0.0127794,3.04213e-06
10433,7.0,16.0,0.00407505,  -514.023E-03,   64.4322E-03,       6.06977,-0.0442303,-0.0131965,2.32253e-06
10434,6.0,16.0,0.00412848,  -510.824E-03,   64.4321E-03,       6.14959,-0.0454459,-0.0135615,1.66822e-06
10439,5.0,16.0,0.00417405,  -508.496E-03,   64.4320E-03,       6.21769,-0.0464832,-0.0138731,1.11435e-06
10442,4.0,16.0,0.00421158,  -506.915E-03,   64.4320E-03,       6.27379,-0.0473378,-0.0141298,6.81536e-07
10443,3.0,16.0,0.00424093,  -505.947E-03,   64.4319E-03,       6.31767,-0.0480063,-0.0143306,3.73727e-07
10448,2.0,16.0,0.00426198,  -505.448E-03,   64.4319E-03,       6.34914,-0.0484857,-0.0144746,1.78001e-07
10449,1.0,16.0,0.00427464,  -505.265E-03,   64.4318E-03,       6.36807,-0.0487743,-0.0145613,6.64587e-08
10454,3.97024e-30,16.0,0.00427886,  -505.241E-03,   64.4318E-03,       6.37439,-0.0488706,-0.0145902,-3.08642e-14
10457,-1.0,16.0,0.00427464,  -505.217E-03,   64.4318E-03,       6.36807,-0.0487743,-0.0145613,-6.64587e-08
10458,-2.0,16.0,0.00426198,  -505.034E-03,   64.4319E-03,       6.34914,-0.0484857,-0.0144746,-1.78001e-07
10463,-3.0,16.0,0.00424093,  -504.535E-03,   64.4319E-03,       6.31767,-0.0480063,-0.0143306,-3.73727e-07
10464,-4.0,16.0,0.00421158,  -503.567E-03,   64.4320E-03,       6.27379,-0.0473378,-0.0141298,-6.81536e-07
10469,-5.0,16.0,0.00417405,  -501.986E-03,   64.4320E-03,       6.21769,-0.0464832,-0.0138731,-1.11435e-06
10472,-6.0,16.0,0.00412848,  -499.658E-03,   64.4321E-03,       6.14959,-0.0454459,-0.0135615,-1.66822e-06
10473,-7.0,16.0,0.00407505,  -496.459E-03,   64.4322E-03,       6.06977,-0.0442303,-0.0131965,-2.32253e-06
10478,-8.0,16.0,0.00401398,  -492.282E-03,   64.4322E-03,       5.97856,-0.0428412,-0.0127794,-3.04213e-06
10479,-9.0,16.0,0.0039455,  -487.032E-03,   64.4322E-03,       5.87633,-0.0412844,-0.0123119,-3.78121e-06
10484,-10.0,16.0,0.00386988,  -480.633E-03,   64.4322E-03,       5.76350,-0.039566,-0.011796,-4.48819e-06
10487,-11.0,16.0,0.00378743,  -473.028E-03,   64.4322E-03,       5.64051,-0.0376929,-0.0112337,-5.11112e-06
10488,-12.0,16.0,0.00369847,  -464.177E-03,   64.4322E-03,       5.50787,-0.0356725,-0.0106271,-5.60289e-06
10493,-13.0,16.0,0.00360335,  -454.060E-03,   64.4322E-03,       5.36611,-0.0335127,-0.00997879,-5.9257e-06
10494,-14.0,16.0,0.00350244,  -442.679E-03,   64.4322E-03,       5.21579,-0.031222,-0.00929115,-6.05439e-06
10499,-15.0,16.0,0.00339615,  -430.054E-03,   64.4322E-03,       5.05752,-0.0288094,-0.00856692,-5.97833e-06
10502,-16.0,16.0,0.0032849,  -416.225E-03,   64.4322E-03,       4.89192,-0.0262843,-0.00780893,-5.70187e-06
10503,-17.0,16.0,0.00316912,  -401.251E-03,   64.4322E-03,       4.71965,-0.0236566,-0.00702016,-5.24347e-06
10508,-18.0,16.0,0.00304927,  -385.209E-03,   64.4322E-03,       4.54139,-0.0209367,-0.00620371,-4.63364e-06
10509,-19.0,16.0,0.00292582,  -368.193E-03,   64.4322E-03,       4.35785,-0.0181351,-0.00536278,-3.91204e-06
10514,-20.0,16.0,0.00279927,  -350.312E-03,   64.4322E-03,       4.16973,-0.0152629,-0.00450071,-3.12399e-06
10515,-21.0,16.0,0.00267011,  -331.688E-03,   64.4323E-03,       3.97778,-0.0123315,-0.00362089,-2.31674e-06
10520,-22.0,16.0,0.00253885,  -312.456E-03,   64.4324E-03,       3.78275,-0.00935227,-0.00272682,-1.53566e-06
10521,-23.0,16.0,0.00240602,  -292.758E-03,   64.4324E-03,       3.58540,-0.00633711,-0.00182202,-8.20709e-07
10526,-24.0,16.0,0.00227213,  -272.747E-03,   64.4325E-03,       3.38650,-0.00329789,-0.000910073,-2.03263e-07
10529,-25.0,16.0,0.00213772,  -252.578E-03,   64.4326E-03,       3.18683,-0.000246625,5.42699e-06,2.96286e-07
10530,-26.0,16.0,0.00200331,  -232.410E-03,   64.4326E-03,       2.98715,0.00280463,0.000920876,6.70184e-07
10535,-27.0,16.0,0.00186944,  -212.400E-03,   64.4327E-03,       2.78826,0.00584382,0.00183268,9.23756e-07
10536,-28.0,16.0,0.00173664,  -192.704E-03,   64.4327E-03,       2.59092,0.00885895,0.00273725,1.07474e-06
10541,-29.0,16.0,0.00160543,  -173.474E-03,   64.4328E-03,       2.39590,0.0118381,0.00363103,1.15114e-06
10544,-30.0,16.0,0.00147634,  -154.853E-03,   64.4328E-03,       2.20396,0.0147696,0.00451052,1.18794e-06
10545,-31.0,16.0,0.00134986,  -136.975E-03,   64.4328E-03,       2.01586,0.0176418,0.00537224,1.22259e-06
10550,-32.0,16.0,0.00122651,  -119.962E-03,   64.4327E-03,       1.83234,0.0204435,0.00621279,1.28999e-06
10551,-33.0,16.0,0.00110677,  -103.924E-03,   64.4327E-03,       1.65410,0.0231635,0.00702881,1.41714e-06
10556,-34.0,16.0,0.00099111,  -88.9551E-03,   64.4326E-03,       1.48186,0.0257913,0.00781707,1.61871e-06
10559,-35.0,16.0,0.000879992,  -75.1310E-03,   64.4326E-03,       1.31629,0.0283164,0.00857439,1.89346e-06
10560,-36.0,16.0,0.0007738560000000001,  -62.5111E-03,   64.4325E-03,       1.15805,0.0307289,0.00929773,2.22335e-06
10565,-37.0,16.0,0.0006731189999999999,  -51.1355E-03,   64.4323E-03,       1.00777,0.0330192,0.00998421,2.57419e-06
10566,-38.0,16.0,0.000578182,  -41.0247E-03,   64.4322E-03,   866.045E-03,0.0351782,0.0106311,2.90003e-06
10571,-39.0,16.0,0.000489417,  -32.1791E-03,   64.4321E-03,   733.447E-03,0.0371973,0.0112357,3.14861e-06
10574,-40.0,16.0,0.000407175,  -24.5793E-03,   64.4319E-03,   610.507E-03,0.0390683,0.0117958,3.26993e-06
10575,-41.0,16.0,0.00033178,  -18.1862E-03,   64.4317E-03,   497.719E-03,0.0407838,0.0123092,3.22423e-06
10580,-42.0,16.0,0.000263527,  -12.9414E-03,   64.4316E-03,   395.539E-03,0.0423368,0.0127737,2.9907e-06
10581,-43.0,16.0,0.000202684,  -8.76858E-03,   64.4314E-03,   304.380E-03,0.0437208,0.0131877,2.57373e-06
10586,-44.0,16.0,0.000149485,  -5.57423E-03,   64.4313E-03,   224.613E-03,0.0449304,0.0135495,2.00635e-06
10589,-45.0,16.0,0.00010413700000000001,  -3.24935E-03,   64.4312E-03,   156.562E-03,0.0459605,0.0138577,1.35087e-06
10590,-46.0,16.0,6.68121e-05,  -1.67112E-03,   64.4311E-03,   100.503E-03,0.0468069,0.0141111,6.93394e-07
10595,-47.0,16.0,3.76483e-05,  -704.891E-06,   64.4310E-03,   56.6654E-03,0.0474662,0.0143087,1.37663e-07
10596,-48.0,16.0,1.67508e-05,  -206.290E-06,   64.4310E-03,   25.2263E-03,0.0479357,0.0144495,-2.08404e-07
10601,-49.0,16.0,4.18982e-06,  -23.5634E-06,   64.4310E-03,   6.31272E-03,0.0482136,0.0145329,-2.43492e-07
10604,-50.0,16.0,0.0,  -12.7868E-42,   64.4309E-03,           -0.,0.0483046,0.0145603,-1.71271e-07
10605,50.0,15.0,0.0,      -1.01048,   64.4300E-03,           -0.,0.0483056,0.0145609,1.17303e-07
10610,49.0,15.0,4.1805300000000004e-06,      -1.01046,   64.4300E-03,   6.31284E-03,0.0482145,0.0145335,1.53706e-07
10611,48.0,15.0,1.67139e-05,      -1.01028,   64.4300E-03,   25.2267E-03,0.047936,0.0144499,8.27881e-08
10616,47.0,15.0,3.75656e-05,      -1.00978,   64.4300E-03,   56.6661E-03,0.0474662,0.014309,-2.39734e-07
10619,46.0,15.0,6.66663e-05,      -1.00881,   64.4301E-03,   100.504E-03,0.0468067,0.0141114,-7.33176e-07
10620,45.0,15.0,0.000103912,      -1.00723,   64.4302E-03,   156.563E-03,0.0459601,0.013858,-1.3081e-06
10625,44.0,15.0,0.000149164,      -1.00491,   64.4303E-03,   224.614E-03,0.04493,0.0135497,-1.87958e-06
10626,43.0,15.0,0.00020225200000000001,      -1.00171,   64.4304E-03,   304.381E-03,0.0437205,0.0131878,-2.37461e-06
10631,42.0,15.0,0.000262971,  -997.540E-03,   64.4305E-03,   395.540E-03,0.0423365,0.0127738,-2.74099e-06
10634,41.0,15.0,0.000331087,  -992.296E-03,   64.4307E-03,   497.720E-03,0.0407837,0.0123091,-2.94997e-06
10635,40.0,15.0,0.000406334,  -985.903E-03,   64.4308E-03,   610.508E-03,0.0390683,0.0117957,-2.99719e-06
10640,39.0,15.0,0.000488416,  -978.303E-03,   64.4310E-03,   733.448E-03,0.0371974,0.0112356,-2.89962e-06
10641,38.0,15.0,0.000577013,  -969.457E-03,   64.4311E-03,   866.045E-03,0.0351784,0.0106309,-2.69011e-06
10646,37.0,15.0,0.000671774,  -959.347E-03,   64.4312E-03,       1.00777,0.0330194,0.00998399,-2.41088e-06
10649,36.0,15.0,0.000772326,  -947.971E-03,   64.4313E-03,       1.15805,0.0307291,0.00929751,-2.10578e-06
10650,35.0,15.0,0.0008782719999999999,  -935.351E-03,   64.4314E-03,       1.31629,0.0283166,0.00857416,-1.81416e-06
10655,34.0,15.0,0.0009891939999999999,  -921.527E-03,   64.4315E-03,       1.48186,0.0257914,0.00781685,-1.56511e-06
10656,33.0,15.0,0.00110465,  -906.558E-03,   64.4316E-03,       1.65410,0.0231635,0.00702862,-1.37463e-06
10661,32.0,15.0,0.00122419,  -890.520E-03,   64.4316E-03,       1.83234,0.0204434,0.00621261,-1.24421e-06
10664,31.0,15.0,0.00134734,  -873.508E-03,   64.4316E-03,       2.01586,0.0176417,0.00537208,-1.16215e-06
10665,30.0,15.0,0.00147361,  -855.630E-03,   64.4316E-03,       2.20396,0.0147695,0.00451037,-1.10601e-06
10670,29.0,15.0,0.00160249,  -837.009E-03,   64.4316E-03,       2.39590,0.0118381,0.00363089,-1.04669e-06
10671,28.0,15.0,0.00173349,  -817.778E-03,   64.4316E-03,       2.59092,0.00885898,0.00273711,-9.52673e-07
10676,27.0,15.0,0.00186609,  -798.083E-03,   64.4316E-03,       2.78826,0.00584396,0.00183254,-7.94518e-07
10679,26.0,15.0,0.00199975,  -778.073E-03,   64.4315E-03,       2.98715,0.00280489,0.000920747,-5.48545e-07
10680,25.0,15.0,0.00213395,  -757.904E-03,   64.4315E-03,       3.18683,-0.000246224,5.30169e-06,-1.99819e-07
10685,24.0,15.0,0.00226816,  -737.735E-03,   64.4314E-03,       3.38650,-0.00329735,-0.000910192,2.56122e-07
10686,23.0,15.0,0.00240184,  -717.724E-03,   64.4313E-03,       3.58540,-0.00633645,-0.00182213,8.12539e-07
10691,22.0,15.0,0.00253448,  -698.027E-03,   64.4313E-03,       3.78275,-0.00935151,-0.00272692,1.45196e-06
10694,21.0,15.0,0.00266555,  -678.795E-03,   64.4312E-03,       3.97778,-0.0123307,-0.00362098,2.14746e-06
10695,20.0,15.0,0.00279452,  -660.171E-03,   64.4311E-03,       4.16973,-0.0152621,-0.00450079,2.86485e-06
10700,19.0,15.0,0.00292089,  -642.290E-03,   64.4311E-03,       4.35785,-0.0181343,-0.00536286,3.56522e-06
10701,18.0,15.0,0.00304416,  -625.274E-03,   64.4311E-03,       4.54140,-0.020936,-0.00620378,4.2081e-06
10706,17.0,15.0,0.00316384,  -609.232E-03,   64.4310E-03,       4.71966,-0.0236562,-0.00702023,4.75454e-06
10709,16.0,15.0,0.00327945,  -594.257E-03,   64.4310E-03,       4.89193,-0.026284,-0.00780901,5.17038e-06
10710,15.0,15.0,0.00339055,  -580.428E-03,   64.4311E-03,       5.05753,-0.0288094,-0.008567,5.42911e-06
10715,14.0,15.0,0.00349669,  -567.803E-03,   64.4311E-03,       5.21580,-0.0312222,-0.00929123,5.51438e-06
10716,13.0,15.0,0.00359746,  -556.422E-03,   64.4311E-03,       5.36612,-0.0335131,-0.00997886,5.42169e-06
10721,12.0,15.0,0.00369245,  -546.305E-03,   64.4311E-03,       5.50788,-0.0356731,-0.0106272,5.15922e-06
10724,11.0,15.0,0.00378129,  -537.454E-03,   64.4311E-03,       5.64052,-0.0376937,-0.0112337,4.74743e-06
10725,10.0,15.0,0.00386363,  -529.848E-03,   64.4311E-03,       5.76350,-0.0395668,-0.011796,4.21754e-06
10730,9.0,15.0,0.00393914,  -523.450E-03,   64.4311E-03,       5.87634,-0.0412852,-0.0123119,3.60882e-06
10731,8.0,15.0,0.00400753,  -518.200E-03,   64.4311E-03,       5.97857,-0.042842,-0.0127793,2.96485e-06
10736,7.0,15.0,0.00406852,  -514.022E-03,   64.4311E-03,       6.06978,-0.0442309,-0.0131963,2.32917e-06
10739,6.0,15.0,0.00412187,  -510.824E-03,   64.4310E-03,       6.14960,-0.0454463,-0.0135613,1.74077e-06
10740,5.0,15.0,0.00416738,  -508.496E-03,   64.4310E-03,       6.21770,-0.0464833,-0.0138728,1.2299e-06
10745,4.0,15.0,0.00420486,  -506.915E-03,   64.4309E-03,       6.27380,-0.0473378,-0.0141294,8.14817e-07
10746,3.0,15.0,0.00423417,  -505.947E-03,   64.4309E-03,       6.31768,-0.048006,-0.0143301,4.99932e-07
10751,2.0,15.0,0.00425519,  -505.448E-03,   64.4308E-03,       6.34915,-0.0484853,-0.0144741,2.75553e-07
10754,1.0,15.0,0.00426783,  -505.265E-03,   64.4308E-03,       6.36808,-0.0487737,-0.0145608,1.19451e-07
10755,2.84226e-30,15.0,0.00427205,  -505.241E-03,   64.4308E-03,       6.37440,-0.04887,-0.0145897,-2.22045e-14
10760,-1.0,15.0,0.00426783,  -505.217E-03,   64.4308E-03,       6.36808,-0.0487737,-0.0145608,-1.19451e-07
10761,-2.0,15.0,0.00425519,  -505.034E-03,   64.4308E-03,       6.34915,-0.0484853,-0.0144741,-2.75553e-07
10766,-3.0,15.0,0.00423417,  -504.535E-03,   64.4309E-03,       6.31768,-0.048006,-0.0143301,-4.99932e-07
10769,-4.0,15.0,0.00420486,  -503.567E-03,   64.4309E-03,       6.27380,-0.0473378,-0.0141294,-8.14817e-07
10770,-5.0,15.0,0.00416738,  -501.986E-03,   64.4310E-03,       6.21770,-0.0464833,-0.0138728,-1.2299e-06
10775,-6.0,15.0,0.00412187,  -499.658E-03,   64.4310E-03,       6.14960,-0.0454463,-0.0135613,-1.74077e-06
10776,-7.0,15.0,0.00406852,  -496.459E-03,   64.4311E-03,       6.06978,-0.0442309,-0.0131963,-2.32917e-06
10781,-8.0,15.0,0.00400753,  -492.282E-03,   64.4311E-03,       5.97857,-0.042842,-0.0127793,-2.96485e-06
10784,-9.0,15.0,0.00393914,  -487.032E-03,   64.4311E-03,       5.87634,-0.0412852,-0.0123119,-3.60882e-06
10785,-10.0,15.0,0.00386363,  -480.633E-03,   64.4311E-03,       5.76350,-0.0395668,-0.011796,-4.21754e-06
10790,-11.0,15.0,0.00378129,  -473.028E-03,   64.4311E-03,       5.64052,-0.0376937,-0.0112337,-4.74743e-06
10791,-12.0,15.0,0.00369245,  -464.177E-03,   64.4311E-03,       5.50788,-0.0356731,-0.0106272,-5.15922e-06
10796,-13.0,15.0,0.00359746,  -454.060E-03,   64.4311E-03,       5.36612,-0.0335131,-0.00997886,-5.42169e-06
10799,-14.0,15.0,0.00349669,  -442.679E-03,   64.4311E-03,       5.21580,-0.0312222,-0.00929123,-5.51438e-06
10800,-15.0,15.0,0.00339055,  -430.054E-03,   64.4311E-03,       5.05753,-0.0288094,-0.008567,-5.42911e-06
10805,-16.0,15.0,0.00327945,  -416.224E-03,   64.4310E-03,       4.89193,-0.026284,-0.00780901,-5.17038e-06
10806,-17.0,15.0,0.00316384,  -401.250E-03,   64.4310E-03,       4.71966,-0.0236562,-0.00702023,-4.75454e-06
10811,-18.0,15.0,0.00304416,  -385.208E-03,   64.4311E-03,       4.54140,-0.020936,-0.00620378,-4.2081e-06
10814,-19.0,15.0,0.00292089,  -368.192E-03,   64.4311E-03,       4.35785,-0.0181343,-0.00536286,-3.56522e-06
10815,-20.0,15.0,0.00279452,  -350.311E-03,   64.4311E-03,       4.16973,-0.0152621,-0.00450079,-2.86485e-06
10820,-21.0,15.0,0.00266555,  -331.687E-03,   64.4312E-03,       3.97778,-0.0123307,-0.00362098,-2.14746e-06
10821,-22.0,15.0,0.00253448,  -312.455E-03,   64.4313E-03,       3.78275,-0.00935151,-0.00272692,-1.45196e-06
10826,-23.0,15.0,0.00240184,  -292.757E-03,   64.4313E-03,       3.58540,-0.00633645,-0.00182213,-8.12539e-07
10829,-24.0,15.0,0.00226816,  -272.747E-03,   64.4314E-03,       3.38650,-0.00329735,-0.000910192,-2.56122e-07
10830,-25.0,15.0,0.00213395,  -252.578E-03,   64.4315E-03,       3.18683,-0.000246224,5.30169e-06,1.99819e-07
10835,-26.0,15.0,0.00199975,  -232.409E-03,   64.4315E-03,       2.98715,0.00280489,0.000920747,5.48545e-07
10836,-27.0,15.0,0.00186609,  -212.399E-03,   64.4316E-03,       2.78826,0.00584396,0.00183254,7.94518e-07
10841,-28.0,15.0,0.00173349,  -192.703E-03,   64.4316E-03,       2.59092,0.00885898,0.00273711,9.52673e-07
10844,-29.0,15.0,0.00160249,  -173.473E-03,   64.4316E-03,       2.39590,0.0118381,0.00363089,1.04669e-06
10845,-30.0,15.0,0.00147361,  -154.852E-03,   64.4316E-03,       2.20396,0.0147695,0.00451037,1.10601e-06
10850,-31.0,15.0,0.00134734,  -136.974E-03,   64.4316E-03,       2.01586,0.0176417,0.00537208,1.16215e-06
10851,-32.0,15.0,0.00122419,  -119.962E-03,   64.4316E-03,       1.83234,0.0204434,0.00621261,1.24421e-06
10856,-33.0,15.0,0.00110465,  -103.924E-03,   64.4316E-03,       1.65410,0.0231635,0.00702862,1.37463e-06
10859,-34.0,15.0,0.0009891939999999999,  -88.9547E-03,   64.4315E-03,       1.48186,0.0257914,0.00781685,1.56511e-06
10860,-35.0,15.0,0.0008782719999999999,  -75.1306E-03,   64.4314E-03,       1.31629,0.0283166,0.00857416,1.81417e-06
10865,-36.0,15.0,0.000772326,  -62.5108E-03,   64.4313E-03,       1.15805,0.0307291,0.00929751,2.10578e-06
10866,-37.0,15.0,0.000671774,  -51.1353E-03,   64.4312E-03,       1.00777,0.0330194,0.00998399,2.41088e-06
10871,-38.0,15.0,0.000577013,  -41.0245E-03,   64.4311E-03,   866.045E-03,0.0351784,0.0106309,2.69011e-06
10874,-39.0,15.0,0.000488416,  -32.1790E-03,   64.4310E-03,   733.448E-03,0.0371974,0.0112356,2.89962e-06
10875,-40.0,15.0,0.000406334,  -24.5792E-03,   64.4308E-03,   610.508E-03,0.0390683,0.0117957,2.99719e-06
10880,-41.0,15.0,0.000331087,  -18.1861E-03,   64.4307E-03,   497.720E-03,0.0407837,0.0123091,2.94997e-06
10881,-42.0,15.0,0.000262971,  -12.9414E-03,   64.4305E-03,   395.540E-03,0.0423365,0.0127738,2.74099e-06
10886,-43.0,15.0,0.00020225200000000001,  -8.76859E-03,   64.4304E-03,   304.381E-03,0.0437205,0.0131878,2.37461e-06
10889,-44.0,15.0,0.000149164,  -5.57426E-03,   64.4303E-03,   224.614E-03,0.04493,0.0135497,1.87958e-06
10890,-45.0,15.0,0.000103912,  -3.24937E-03,   64.4302E-03,   156.563E-03,0.0459601,0.013858,1.3081e-06
10895,-46.0,15.0,6.66663e-05,  -1.67114E-03,   64.4301E-03,   100.504E-03,0.0468067,0.0141114,7.33176e-07
10896,-47.0,15.0,3.75656e-05,  -704.903E-06,   64.4300E-03,   56.6661E-03,0.0474662,0.014309,2.39734e-07
10901,-48.0,15.0,1.67139e-05,  -206.294E-06,   64.4300E-03,   25.2267E-03,0.047936,0.0144499,-8.2788e-08
10904,-49.0,15.0,4.1805300000000004e-06,  -23.5632E-06,   64.4300E-03,   6.31284E-03,0.0482145,0.0145335,-1.53706e-07
10905,-50.0,15.0,0.0,  -12.7798E-42,   64.4300E-03,           -0.,0.0483056,0.0145609,-1.17303e-07
10910,50.0,14.0,0.0,      -1.01048,   64.4290E-03,           -0.,0.0483065,0.0145614,7.34945e-08
10911,49.0,14.0,4.17204e-06,      -1.01046,   64.4290E-03,   6.31293E-03,0.0482151,0.014534,8.34725e-08
10916,48.0,14.0,1.668e-05,      -1.01028,   64.4290E-03,   25.2270E-03,0.0479363,0.0144504,-1.27079e-08
10919,47.0,14.0,3.74898e-05,      -1.00978,   64.4290E-03,   56.6667E-03,0.0474662,0.0143094,-3.11295e-07
10920,46.0,14.0,6.65324e-05,      -1.00881,   64.4291E-03,   100.505E-03,0.0468065,0.0141117,-7.47401e-07
10925,45.0,14.0,0.000103705,      -1.00723,   64.4291E-03,   156.564E-03,0.0459598,0.0138582,-1.24923e-06
10926,44.0,14.0,0.000148869,      -1.00491,   64.4292E-03,   224.615E-03,0.0449297,0.0135499,-1.74595e-06
10931,43.0,14.0,0.000201855,      -1.00171,   64.4294E-03,   304.382E-03,0.0437202,0.0131879,-2.17742e-06
10934,42.0,14.0,0.000262459,  -997.540E-03,   64.4295E-03,   395.541E-03,0.0423363,0.0127738,-2.49917e-06
10935,41.0,14.0,0.000330448,  -992.296E-03,   64.4296E-03,   497.721E-03,0.0407836,0.0123091,-2.68671e-06
10940,40.0,14.0,0.00040555699999999997,  -985.903E-03,   64.4297E-03,   610.508E-03,0.0390683,0.0117956,-2.73558e-06
10941,39.0,14.0,0.00048749300000000003,  -978.303E-03,   64.4299E-03,   733.448E-03,0.0371974,0.0112354,-2.65924e-06
10946,38.0,14.0,0.000575933,  -969.457E-03,   64.4300E-03,   866.046E-03,0.0351785,0.0106307,-2.48488e-06
10949,37.0,14.0,0.00067053,  -959.347E-03,   64.4301E-03,       1.00777,0.0330195,0.00998377,-2.24743e-06
10950,36.0,14.0,0.0007709110000000001,  -947.971E-03,   64.4302E-03,       1.15805,0.0307292,0.00929728,-1.9839e-06
10955,35.0,14.0,0.000876681,  -935.351E-03,   64.4303E-03,       1.31629,0.0283167,0.00857393,-1.72734e-06
10956,34.0,14.0,0.000987421,  -921.527E-03,   64.4304E-03,       1.48186,0.0257914,0.00781664,-1.50276e-06
10961,33.0,14.0,0.00110269,  -906.558E-03,   64.4304E-03,       1.65410,0.0231635,0.00702842,-1.32401e-06
10964,32.0,14.0,0.00122204,  -890.520E-03,   64.4305E-03,       1.83234,0.0204434,0.00621243,-1.19304e-06
10965,31.0,14.0,0.001345,  -873.508E-03,   64.4305E-03,       2.01586,0.0176417,0.00537192,-1.10048e-06
10970,30.0,14.0,0.00147107,  -855.630E-03,   64.4305E-03,       2.20396,0.0147695,0.00451023,-1.02801e-06
10971,29.0,14.0,0.00159977,  -837.009E-03,   64.4305E-03,       2.39590,0.0118381,0.00363076,-9.51421e-07
10976,28.0,14.0,0.00173057,  -817.779E-03,   64.4305E-03,       2.59092,0.00885902,0.00273699,-8.4448e-07
10979,27.0,14.0,0.00186297,  -798.083E-03,   64.4304E-03,       2.78826,0.00584409,0.00183242,-6.82478e-07
10980,26.0,14.0,0.00199644,  -778.074E-03,   64.4304E-03,       2.98715,0.00280514,0.000920632,-4.45575e-07
10985,25.0,14.0,0.00213044,  -757.905E-03,   64.4303E-03,       3.18683,-0.000245859,5.19073e-06,-1.21205e-07
10986,24.0,14.0,0.00226447,  -737.736E-03,   64.4303E-03,       3.38650,-0.00329687,-0.000910298,2.94278e-07
10991,23.0,14.0,0.00239797,  -717.725E-03,   64.4302E-03,       3.58540,-0.00633586,-0.00182223,7.95066e-07
10992,22.0,14.0,0.00253042,  -698.028E-03,   64.4301E-03,       3.78275,-0.00935084,-0.00272701,1.36617e-06
10997,21.0,14.0,0.00266131,  -678.796E-03,   64.4301E-03,       3.97778,-0.0123299,-0.00362107,1.98459e-06
10998,20.0,14.0,0.00279011,  -660.172E-03,   64.4300E-03,       4.16973,-0.0152614,-0.00450086,2.62106e-06
11003,19.0,14.0,0.00291631,  -642.291E-03,   64.4300E-03,       4.35785,-0.0181337,-0.00536293,3.24238e-06
11006,18.0,14.0,0.00303941,  -625.274E-03,   64.4300E-03,       4.54140,-0.0209355,-0.00620385,3.81389e-06
11007,17.0,14.0,0.00315893,  -609.232E-03,   64.4299E-03,       4.71966,-0.0236557,-0.0070203,4.30228e-06
11012,16.0,14.0,0.0032744,  -594.258E-03,   64.4299E-03,       4.89193,-0.0262838,-0.00780908,4.67821e-06
11013,15.0,14.0,0.00338535,  -580.429E-03,   64.4300E-03,       5.05753,-0.0288093,-0.00856708,4.91878e-06
11018,14.0,14.0,0.00349136,  -567.803E-03,   64.4300E-03,       5.21580,-0.0312224,-0.00929131,5.00961e-06
11021,13.0,14.0,0.00359199,  -556.422E-03,   64.4300E-03,       5.36612,-0.0335135,-0.00997894,4.94627e-06
11022,12.0,14.0,0.00368686,  -546.305E-03,   64.4300E-03,       5.50788,-0.0356736,-0.0106273,4.73494e-06
11027,11.0,14.0,0.00377558,  -537.454E-03,   64.4300E-03,       5.64053,-0.0376943,-0.0112338,4.39218e-06
11028,10.0,14.0,0.00385782,  -529.848E-03,   64.4301E-03,       5.76351,-0.0395675,-0.0117961,3.94362e-06
11033,9.0,14.0,0.00393323,  -523.450E-03,   64.4301E-03,       5.87635,-0.0412859,-0.0123119,3.42173e-06
11036,8.0,14.0,0.00400153,  -518.200E-03,   64.4300E-03,       5.97858,-0.0428426,-0.0127792,2.86279e-06
11037,7.0,14.0,0.00406245,  -514.022E-03,   64.4300E-03,       6.06979,-0.0442314,-0.0131962,2.30326e-06
11042,6.0,14.0,0.00411574,  -510.824E-03,   64.4300E-03,       6.14961,-0.0454467,-0.0135611,1.77601e-06
11043,5.0,14.0,0.00416119,  -508.496E-03,   64.4299E-03,       6.21770,-0.0464835,-0.0138725,1.30684e-06
11048,4.0,14.0,0.00419862,  -506.915E-03,   64.4299E-03,       6.27381,-0.0473377,-0.014129,9.11799e-07
11051,3.0,14.0,0.0042279,  -505.947E-03,   64.4298E-03,       6.31768,-0.0480058,-0.0143297,5.95499e-07
11052,2.0,14.0,0.00424889,  -505.448E-03,   64.4298E-03,       6.34915,-0.048485,-0.0144737,3.50961e-07
11057,1.0,14.0,0.00426151,  -505.265E-03,   64.4298E-03,       6.36809,-0.0487733,-0.0145603,1.60836e-07
11058,5.00934e-30,14.0,0.00426573,  -505.241E-03,   64.4298E-03,       6.37441,-0.0488695,-0.0145892,-1.59872e-14
11063,-1.0,14.0,0.00426151,  -505.217E-03,   64.4298E-03,       6.36809,-0.0487733,-0.0145603,-1.60836e-07
11066,-2.0,14.0,0.00424889,  -505.034E-03,   64.4298E-03,       6.34915,-0.048485,-0.0144737,-3.50961e-07
11067,-3.0,14.0,0.0042279,  -504.535E-03,   64.4298E-03,       6.31768,-0.0480058,-0.0143297,-5.95499e-07
11072,-4.0,14.0,0.00419862,  -503.567E-03,   64.4299E-03,       6.27381,-0.0473377,-0.014129,-9.11799e-07
11073,-5.0,14.0,0.00416119,  -501.986E-03,   64.4299E-03,       6.21770,-0.0464835,-0.0138725,-1.30684e-06
11078,-6.0,14.0,0.00411574,  -499.658E-03,   64.4300E-03,       6.14961,-0.0454467,-0.0135611,-1.77601e-06
11081,-7.0,14.0,0.00406245,  -496.459E-03,   64.4300E-03,       6.06979,-0.0442314,-0.0131962,-2.30326e-06
11082,-8.0,14.0,0.00400153,  -492.282E-03,   64.4300E-03,       5.97858,-0.0428426,-0.0127792,-2.86279e-06
11087,-9.0,14.0,0.00393323,  -487.032E-03,   64.4301E-03,       5.87635,-0.0412859,-0.0123119,-3.42173e-06
11088,-10.0,14.0,0.00385782,  -480.633E-03,   64.4301E-03,       5.76351,-0.0395675,-0.0117961,-3.94362e-06
11093,-11.0,14.0,0.00377558,  -473.028E-03,   64.4300E-03,       5.64053,-0.0376943,-0.0112338,-4.39218e-06
11096,-12.0,14.0,0.00368686,  -464.176E-03,   64.4300E-03,       5.50788,-0.0356736,-0.0106273,-4.73494e-06
11097,-13.0,14.0,0.00359199,  -454.060E-03,   64.4300E-03,       5.36612,-0.0335135,-0.00997894,-4.94627e-06
11102,-14.0,14.0,0.00349136,  -442.678E-03,   64.4300E-03,       5.21580,-0.0312224,-0.00929131,-5.00961e-06
11103,-15.0,14.0,0.00338535,  -430.053E-03,   64.4300E-03,       5.05753,-0.0288093,-0.00856708,-4.91878e-06
11108,-16.0,14.0,0.0032744,  -416.224E-03,   64.4299E-03,       4.89193,-0.0262838,-0.00780908,-4.67821e-06
11111,-17.0,14.0,0.00315893,  -401.250E-03,   64.4299E-03,       4.71966,-0.0236557,-0.0070203,-4.30228e-06
11112,-18.0,14.0,0.00303941,  -385.208E-03,   64.4300E-03,       4.54140,-0.0209355,-0.00620385,-3.81389e-06
11117,-19.0,14.0,0.00291631,  -368.191E-03,   64.4300E-03,       4.35785,-0.0181337,-0.00536293,-3.24238e-06
11118,-20.0,14.0,0.00279011,  -350.310E-03,   64.4300E-03,       4.16973,-0.0152614,-0.00450086,-2.62106e-06
11123,-21.0,14.0,0.00266131,  -331.686E-03,   64.4301E-03,       3.97778,-0.0123299,-0.00362107,-1.98459e-06
11126,-22.0,14.0,0.00253042,  -312.454E-03,   64.4301E-03,       3.78275,-0.00935084,-0.00272701,-1.36617e-06
11127,-23.0,14.0,0.00239797,  -292.757E-03,   64.4302E-03,       3.58540,-0.00633586,-0.00182223,-7.95066e-07
11132,-24.0,14.0,0.00226447,  -272.746E-03,   64.4303E-03,       3.38650,-0.00329687,-0.000910298,-2.94278e-07
11133,-25.0,14.0,0.00213044,  -252.577E-03,   64.4303E-03,       3.18683,-0.000245859,5.19073e-06,1.21205e-07
11138,-26.0,14.0,0.00199644,  -232.408E-03,   64.4304E-03,       2.98715,0.00280514,0.000920632,4.45575e-07
11141,-27.0,14.0,0.00186297,  -212.398E-03,   64.4304E-03,       2.78826,0.00584409,0.00183242,6.82478e-07
11142,-28.0,14.0,0.00173057,  -192.703E-03,   64.4305E-03,       2.59092,0.00885902,0.00273699,8.4448e-07
11147,-29.0,14.0,0.00159977,  -173.473E-03,   64.4305E-03,       2.39590,0.0118381,0.00363076,9.51421e-07
11148,-30.0,14.0,0.00147107,  -154.852E-03,   64.4305E-03,       2.20396,0.0147695,0.00451023,1.02801e-06
11153,-31.0,14.0,0.001345,  -136.974E-03,   64.4305E-03,       2.01586,0.0176417,0.00537192,1.10048e-06
11156,-32.0,14.0,0.00122204,  -119.961E-03,   64.4305E-03,       1.83234,0.0204434,0.00621243,1.19304e-06
11157,-33.0,14.0,0.00110269,  -103.924E-03,   64.4304E-03,       1.65410,0.0231635,0.00702842,1.32401e-06
11162,-34.0,14.0,0.000987421,  -88.9544E-03,   64.4304E-03,       1.48186,0.0257914,0.00781664,1.50276e-06
11163,-35.0,14.0,0.000876681,  -75.1304E-03,   64.4303E-03,       1.31629,0.0283167,0.00857393,1.72734e-06
11168,-36.0,14.0,0.0007709110000000001,  -62.5106E-03,   64.4302E-03,       1.15805,0.0307292,0.00929728,1.9839e-06
11171,-37.0,14.0,0.00067053,  -51.1351E-03,   64.4301E-03,       1.00777,0.0330195,0.00998377,2.24743e-06
11172,-38.0,14.0,0.000575933,  -41.0243E-03,   64.4300E-03,   866.046E-03,0.0351785,0.0106307,2.48488e-06
11177,-39.0,14.0,0.00048749300000000003,  -32.1788E-03,   64.4299E-03,   733.448E-03,0.0371974,0.0112354,2.65924e-06
11178,-40.0,14.0,0.00040555699999999997,  -24.5791E-03,   64.4297E-03,   610.508E-03,0.0390683,0.0117956,2.73558e-06
11183,-41.0,14.0,0.000330448,  -18.1861E-03,   64.4296E-03,   497.721E-03,0.0407836,0.0123091,2.68671e-06
11186,-42.0,14.0,0.000262459,  -12.9414E-03,   64.4295E-03,   395.541E-03,0.0423363,0.0127738,2.49917e-06
11187,-43.0,14.0,0.000201855,  -8.76861E-03,   64.4294E-03,   304.382E-03,0.0437202,0.0131879,2.17742e-06
11192,-44.0,14.0,0.000148869,  -5.57428E-03,   64.4292E-03,   224.615E-03,0.0449297,0.0135499,1.74595e-06
11193,-45.0,14.0,0.000103705,  -3.24940E-03,   64.4291E-03,   156.564E-03,0.0459598,0.0138582,1.24923e-06
11198,-46.0,14.0,6.65324e-05,  -1.67116E-03,   64.4291E-03,   100.505E-03,0.0468065,0.0141117,7.47401e-07
11201,-47.0,14.0,3.74898e-05,  -704.914E-06,   64.4290E-03,   56.6667E-03,0.0474662,0.0143094,3.11295e-07
11202,-48.0,14.0,1.668e-05,  -206.297E-06,   64.4290E-03,   25.2270E-03,0.0479363,0.0144504,1.27079e-08
11207,-49.0,14.0,4.17204e-06,  -23.5634E-06,   64.4290E-03,   6.31293E-03,0.0482151,0.014534,-8.34725e-08
11208,-50.0,14.0,0.0,  -12.7742E-42,   64.4290E-03,           -0.,0.0483065,0.0145614,-7.34944e-08
11213,50.0,13.0,0.0,      -1.01048,   64.4280E-03,           -0.,0.0483072,0.0145619,4.01894e-08
11216,49.0,13.0,4.16428e-06,      -1.01046,   64.4280E-03,   6.31301E-03,0.0482157,0.0145345,2.95186e-08
11217,48.0,13.0,1.66491e-05,      -1.01028,   64.4280E-03,   25.2273E-03,0.0479366,0.0144508,-8.33337e-08
11222,47.0,13.0,3.74205e-05,      -1.00978,   64.4280E-03,   56.6672E-03,0.0474662,0.0143097,-3.57314e-07
11223,46.0,13.0,6.641e-05,      -1.00881,   64.4281E-03,   100.506E-03,0.0468063,0.014112,-7.41769e-07
11228,45.0,13.0,0.000103515,      -1.00723,   64.4281E-03,   156.565E-03,0.0459596,0.0138585,-1.17813e-06
11231,44.0,13.0,0.000148598,      -1.00491,   64.4282E-03,   224.616E-03,0.0449294,0.0135501,-1.60909e-06
11232,43.0,13.0,0.00020149,      -1.00171,   64.4283E-03,   304.383E-03,0.04372,0.013188,-1.98426e-06
11237,42.0,13.0,0.000261989,  -997.540E-03,   64.4284E-03,   395.542E-03,0.0423361,0.0127738,-2.26668e-06
11238,41.0,13.0,0.000329862,  -992.296E-03,   64.4286E-03,   497.721E-03,0.0407834,0.0123091,-2.43513e-06
11243,40.0,13.0,0.000404844,  -985.903E-03,   64.4287E-03,   610.509E-03,0.0390682,0.0117955,-2.48522e-06
11246,39.0,13.0,0.00048664300000000004,  -978.303E-03,   64.4288E-03,   733.449E-03,0.0371974,0.0112353,-2.42754e-06
11247,38.0,13.0,0.000574939,  -969.458E-03,   64.4289E-03,   866.046E-03,0.0351785,0.0106305,-2.2841e-06
11252,37.0,13.0,0.000669385,  -959.347E-03,   64.4290E-03,       1.00777,0.0330196,0.00998355,-2.0839e-06
11253,36.0,13.0,0.0007696080000000001,  -947.971E-03,   64.4291E-03,       1.15805,0.0307293,0.00929705,-1.85759e-06
11258,35.0,13.0,0.0008752139999999999,  -935.352E-03,   64.4292E-03,       1.31629,0.0283167,0.00857371,-1.63312e-06
11261,34.0,13.0,0.000985785,  -921.528E-03,   64.4293E-03,       1.48186,0.0257915,0.00781643,-1.43159e-06
11262,33.0,13.0,0.00110089,  -906.558E-03,   64.4293E-03,       1.65410,0.0231635,0.00702823,-1.26519e-06
11267,32.0,13.0,0.00122006,  -890.521E-03,   64.4293E-03,       1.83234,0.0204433,0.00621226,-1.136e-06
11268,31.0,13.0,0.00134284,  -873.508E-03,   64.4294E-03,       2.01586,0.0176416,0.00537177,-1.0368e-06
11273,30.0,13.0,0.00146873,  -855.631E-03,   64.4294E-03,       2.20396,0.0147694,0.00451009,-9.52631e-07
11276,29.0,13.0,0.00159725,  -837.010E-03,   64.4293E-03,       2.39590,0.011838,0.00363064,-8.63649e-07
11277,28.0,13.0,0.00172787,  -817.779E-03,   64.4293E-03,       2.59092,0.00885907,0.00273687,-7.48066e-07
11282,27.0,13.0,0.00186009,  -798.084E-03,   64.4293E-03,       2.78826,0.00584422,0.00183232,-5.85361e-07
11283,26.0,13.0,0.00199338,  -778.074E-03,   64.4292E-03,       2.98715,0.00280536,0.000920527,-3.58952e-07
11288,25.0,13.0,0.00212721,  -757.906E-03,   64.4292E-03,       3.18683,-0.000245528,5.09106e-06,-5.83976e-08
11291,24.0,13.0,0.00226105,  -737.737E-03,   64.4291E-03,       3.38650,-0.00329643,-0.000910392,3.19291e-07
11292,23.0,13.0,0.00239438,  -717.726E-03,   64.4291E-03,       3.58540,-0.00633533,-0.00182232,7.69063e-07
11297,22.0,13.0,0.00252667,  -698.029E-03,   64.4290E-03,       3.78275,-0.00935025,-0.00272709,1.27812e-06
11298,21.0,13.0,0.00265739,  -678.797E-03,   64.4290E-03,       3.97778,-0.0123293,-0.00362114,1.82684e-06
11303,20.0,13.0,0.00278602,  -660.173E-03,   64.4289E-03,       4.16973,-0.0152608,-0.00450093,2.39029e-06
11306,19.0,13.0,0.00291207,  -642.291E-03,   64.4289E-03,       4.35785,-0.0181331,-0.00536299,2.94015e-06
11307,18.0,13.0,0.00303502,  -625.275E-03,   64.4289E-03,       4.54140,-0.020935,-0.00620391,3.44691e-06
11312,17.0,13.0,0.00315439,  -609.233E-03,   64.4289E-03,       4.71966,-0.0236554,-0.00702037,3.88214e-06
11313,16.0,13.0,0.00326972,  -594.258E-03,   64.4289E-03,       4.89193,-0.0262836,-0.00780916,4.22075e-06
11318,15.0,13.0,0.00338054,  -580.429E-03,   64.4289E-03,       5.05753,-0.0288092,-0.00856716,4.44306e-06
11321,14.0,13.0,0.00348642,  -567.804E-03,   64.4289E-03,       5.21581,-0.0312225,-0.00929139,4.5365e-06
11322,13.0,13.0,0.00358693,  -556.422E-03,   64.4289E-03,       5.36613,-0.0335138,-0.00997903,4.49682e-06
11327,12.0,13.0,0.00368169,  -546.305E-03,   64.4289E-03,       5.50789,-0.0356741,-0.0106274,4.32863e-06
11328,11.0,13.0,0.00377031,  -537.454E-03,   64.4289E-03,       5.64053,-0.0376948,-0.0112338,4.04519e-06
11333,10.0,13.0,0.00385245,  -529.848E-03,   64.4290E-03,       5.76352,-0.0395682,-0.0117961,3.6674e-06
11336,9.0,13.0,0.00392777,  -523.450E-03,   64.4290E-03,       5.87636,-0.0412865,-0.0123119,3.22193e-06
11337,8.0,13.0,0.00399599,  -518.200E-03,   64.4289E-03,       5.97859,-0.0428432,-0.0127791,2.7387e-06
11342,7.0,13.0,0.00405684,  -514.022E-03,   64.4289E-03,       6.06980,-0.0442319,-0.0131961,2.24799e-06
11343,6.0,13.0,0.00411006,  -510.824E-03,   64.4289E-03,       6.14961,-0.045447,-0.0135609,1.77727e-06
11348,5.0,13.0,0.00415546,  -508.496E-03,   64.4289E-03,       6.21771,-0.0464837,-0.0138722,1.3484e-06
11351,4.0,13.0,0.00419285,  -506.915E-03,   64.4288E-03,       6.27381,-0.0473377,-0.0141287,9.75305e-07
11352,3.0,13.0,0.00422209,  -505.947E-03,   64.4288E-03,       6.31769,-0.0480057,-0.0143293,6.62691e-07
11357,2.0,13.0,0.00424306,  -505.448E-03,   64.4287E-03,       6.34916,-0.0484847,-0.0144732,4.05799e-07
11358,1.0,13.0,0.00425567,  -505.265E-03,   64.4287E-03,       6.36809,-0.0487729,-0.0145598,1.9142e-07
11363,0.0,13.0,0.00425988,  -505.241E-03,   64.4287E-03,       6.37441,-0.0488692,-0.0145887,-3.37508e-14
11366,-1.0,13.0,0.00425567,  -505.217E-03,   64.4287E-03,       6.36809,-0.0487729,-0.0145598,-1.91421e-07
11367,-2.0,13.0,0.00424306,  -505.034E-03,   64.4287E-03,       6.34916,-0.0484847,-0.0144732,-4.05799e-07
11372,-3.0,13.0,0.00422209,  -504.535E-03,   64.4288E-03,       6.31769,-0.0480057,-0.0143293,-6.62691e-07
11373,-4.0,13.0,0.00419285,  -503.567E-03,   64.4288E-03,       6.27381,-0.0473377,-0.0141287,-9.75305e-07
11378,-5.0,13.0,0.00415546,  -501.986E-03,   64.4289E-03,       6.21771,-0.0464837,-0.0138722,-1.3484e-06
11381,-6.0,13.0,0.00411006,  -499.658E-03,   64.4289E-03,       6.14961,-0.045447,-0.0135609,-1.77727e-06
11382,-7.0,13.0,0.00405684,  -496.459E-03,   64.4289E-03,       6.06980,-0.0442319,-0.0131961,-2.24799e-06
11387,-8.0,13.0,0.00399599,  -492.282E-03,   64.4289E-03,       5.97859,-0.0428432,-0.0127791,-2.7387e-06
11388,-9.0,13.0,0.00392777,  -487.032E-03,   64.4290E-03,       5.87636,-0.0412865,-0.0123119,-3.22193e-06
11393,-10.0,13.0,0.00385245,  -480.633E-03,   64.4290E-03,       5.76352,-0.0395682,-0.0117961,-3.6674e-06
11396,-11.0,13.0,0.00377031,  -473.028E-03,   64.4289E-03,       5.64053,-0.0376948,-0.0112338,-4.04519e-06
11397,-12.0,13.0,0.00368169,  -464.176E-03,   64.4289E-03,       5.50789,-0.0356741,-0.0106274,-4.32863e-06
11402,-13.0,13.0,0.00358693,  -454.060E-03,   64.4289E-03,       5.36613,-0.0335138,-0.00997903,-4.49682e-06
11403,-14.0,13.0,0.00348642,  -442.678E-03,   64.4289E-03,       5.21581,-0.0312225,-0.00929139,-4.5365e-06
11408,-15.0,13.0,0.00338054,  -430.053E-03,   64.4289E-03,       5.05753,-0.0288092,-0.00856716,-4.44306e-06
11411,-16.0,13.0,0.00326972,  -416.223E-03,   64.4289E-03,       4.89193,-0.0262836,-0.00780916,-4.22075e-06
11412,-17.0,13.0,0.00315439,  -401.249E-03,   64.4289E-03,       4.71966,-0.0236554,-0.00702037,-3.88214e-06
11417,-18.0,13.0,0.00303502,  -385.207E-03,   64.4289E-03,       4.54140,-0.020935,-0.00620391,-3.44691e-06
11418,-19.0,13.0,0.00291207,  -368.190E-03,   64.4289E-03,       4.35785,-0.0181331,-0.00536299,-2.94015e-06
11423,-20.0,13.0,0.00278602,  -350.309E-03,   64.4289E-03,       4.16973,-0.0152608,-0.00450093,-2.39029e-06
11426,-21.0,13.0,0.00265739,  -331.685E-03,   64.4290E-03,       3.97778,-0.0123293,-0.00362114,-1.82684e-06
11427,-22.0,13.0,0.00252667,  -312.453E-03,   64.4290E-03,       3.78275,-0.00935025,-0.00272709,-1.27812e-06
11432,-23.0,13.0,0.00239438,  -292.756E-03,   64.4291E-03,       3.58540,-0.00633533,-0.00182232,-7.69063e-07
11433,-24.0,13.0,0.00226105,  -272.745E-03,   64.4291E-03,       3.38650,-0.00329643,-0.000910392,-3.19291e-07
11438,-25.0,13.0,0.00212721,  -252.576E-03,   64.4292E-03,       3.18683,-0.000245528,5.09106e-06,5.83977e-08
11441,-26.0,13.0,0.00199338,  -232.408E-03,   64.4292E-03,       2.98715,0.00280536,0.000920527,3.58952e-07
11442,-27.0,13.0,0.00186009,  -212.398E-03,   64.4293E-03,       2.78826,0.00584422,0.00183232,5.85361e-07
11447,-28.0,13.0,0.00172787,  -192.702E-03,   64.4293E-03,       2.59092,0.00885907,0.00273687,7.48066e-07
11448,-29.0,13.0,0.00159725,  -173.472E-03,   64.4293E-03,       2.39590,0.011838,0.00363064,8.63649e-07
11453,-30.0,13.0,0.00146873,  -154.851E-03,   64.4294E-03,       2.20396,0.0147694,0.00451009,9.52631e-07
11456,-31.0,13.0,0.00134284,  -136.973E-03,   64.4294E-03,       2.01586,0.0176416,0.00537177,1.0368e-06
11457,-32.0,13.0,0.00122006,  -119.961E-03,   64.4293E-03,       1.83234,0.0204433,0.00621226,1.136e-06
11462,-33.0,13.0,0.00110089,  -103.923E-03,   64.4293E-03,       1.65410,0.0231635,0.00702823,1.26519e-06
11463,-34.0,13.0,0.000985785,  -88.9542E-03,   64.4293E-03,       1.48186,0.0257915,0.00781643,1.43159e-06
11468,-35.0,13.0,0.0008752139999999999,  -75.1301E-03,   64.4292E-03,       1.31629,0.0283167,0.00857371,1.63312e-06
11469,-36.0,13.0,0.0007696080000000001,  -62.5104E-03,   64.4291E-03,       1.15805,0.0307293,0.00929705,1.85759e-06
11474,-37.0,13.0,0.000669385,  -51.1349E-03,   64.4290E-03,       1.00777,0.0330196,0.00998355,2.0839e-06
11475,-38.0,13.0,0.000574939,  -41.0242E-03,   64.4289E-03,   866.046E-03,0.0351785,0.0106305,2.2841e-06
11480,-39.0,13.0,0.00048664300000000004,  -32.1788E-03,   64.4288E-03,   733.449E-03,0.0371974,0.0112353,2.42754e-06
11483,-40.0,13.0,0.000404844,  -24.5791E-03,   64.4287E-03,   610.509E-03,0.0390682,0.0117955,2.48522e-06
11484,-41.0,13.0,0.000329862,  -18.1861E-03,   64.4286E-03,   497.721E-03,0.0407834,0.0123091,2.43513e-06
11489,-42.0,13.0,0.000261989,  -12.9414E-03,   64.4284E-03,   395.542E-03,0.0423361,0.0127738,2.26668e-06
11490,-43.0,13.0,0.00020149,  -8.76863E-03,   64.4283E-03,   304.383E-03,0.04372,0.013188,1.98426e-06
11495,-44.0,13.0,0.000148598,  -5.57431E-03,   64.4282E-03,   224.616E-03,0.0449294,0.0135501,1.60909e-06
11498,-45.0,13.0,0.000103515,  -3.24942E-03,   64.4281E-03,   156.565E-03,0.0459596,0.0138585,1.17813e-06
11499,-46.0,13.0,6.641e-05,  -1.67118E-03,   64.4281E-03,   100.506E-03,0.0468063,0.014112,7.41769e-07
11504,-47.0,13.0,3.74205e-05,  -704.924E-06,   64.4280E-03,   56.6672E-03,0.0474662,0.0143097,3.57314e-07
11505,-48.0,13.0,1.66491e-05,  -206.301E-06,   64.4280E-03,   25.2273E-03,0.0479366,0.0144508,8.33337e-08
11510,-49.0,13.0,4.16428e-06,  -23.5638E-06,   64.4280E-03,   6.31301E-03,0.0482157,0.0145345,-2.95185e-08
11513,-50.0,13.0,0.0,  -12.7686E-42,   64.4280E-03,           -0.,0.0483072,0.0145619,-4.01894e-08
11514,50.0,12.0,0.0,      -1.01048,   64.4270E-03,           -0.,0.0483078,0.0145624,1.42148e-08
11519,49.0,12.0,4.15724e-06,      -1.01046,   64.4270E-03,   6.31308E-03,0.0482161,0.0145349,-1.07083e-08
11520,48.0,12.0,1.66209e-05,      -1.01028,   64.4270E-03,   25.2275E-03,0.0479368,0.0144511,-1.33084e-07
11525,47.0,12.0,3.7357399999999996e-05,      -1.00978,   64.4270E-03,   56.6677E-03,0.0474663,0.0143101,-3.82837e-07
11528,46.0,12.0,6.62986e-05,      -1.00881,   64.4271E-03,   100.506E-03,0.0468062,0.0141123,-7.2011e-07
11529,45.0,12.0,0.000103342,      -1.00723,   64.4271E-03,   156.566E-03,0.0459594,0.0138587,-1.09861e-06
11534,44.0,12.0,0.00014835100000000002,      -1.00491,   64.4272E-03,   224.617E-03,0.0449292,0.0135502,-1.4712e-06
11535,43.0,12.0,0.000201158,      -1.00171,   64.4273E-03,   304.384E-03,0.0437198,0.0131881,-1.79679e-06
11540,42.0,12.0,0.00026156,  -997.540E-03,   64.4274E-03,   395.542E-03,0.0423359,0.0127739,-2.0442e-06
11543,41.0,12.0,0.000329326,  -992.296E-03,   64.4275E-03,   497.722E-03,0.0407833,0.012309,-2.19542e-06
11544,40.0,12.0,0.000404192,  -985.903E-03,   64.4276E-03,   610.510E-03,0.0390682,0.0117954,-2.24607e-06
11549,39.0,12.0,0.000485866,  -978.303E-03,   64.4277E-03,   733.449E-03,0.0371974,0.0112351,-2.20425e-06
11550,38.0,12.0,0.00057403,  -969.458E-03,   64.4278E-03,   866.046E-03,0.0351785,0.0106303,-2.08777e-06
11555,37.0,12.0,0.0006683360000000001,  -959.347E-03,   64.4279E-03,       1.00777,0.0330196,0.00998334,-1.92025e-06
11558,36.0,12.0,0.000768413,  -947.972E-03,   64.4280E-03,       1.15805,0.0307293,0.00929682,-1.72719e-06
11559,35.0,12.0,0.000873869,  -935.352E-03,   64.4281E-03,       1.31629,0.0283167,0.00857349,-1.53178e-06
11564,34.0,12.0,0.000984285,  -921.528E-03,   64.4281E-03,       1.48186,0.0257915,0.00781622,-1.352e-06
11565,33.0,12.0,0.00109923,  -906.559E-03,   64.4282E-03,       1.65410,0.0231635,0.00702804,-1.19831e-06
11570,32.0,12.0,0.00121824,  -890.521E-03,   64.4282E-03,       1.83234,0.0204433,0.00621209,-1.07303e-06
11573,31.0,12.0,0.00134085,  -873.509E-03,   64.4282E-03,       2.01586,0.0176416,0.00537162,-9.7056e-07
11574,30.0,12.0,0.00146658,  -855.631E-03,   64.4282E-03,       2.20396,0.0147694,0.00450996,-8.78937e-07
11579,29.0,12.0,0.00159493,  -837.010E-03,   64.4282E-03,       2.39590,0.0118381,0.00363052,-7.81923e-07
11580,28.0,12.0,0.00172539,  -817.780E-03,   64.4282E-03,       2.59092,0.00885913,0.00273676,-6.6164e-07
11585,27.0,12.0,0.00185744,  -798.085E-03,   64.4282E-03,       2.78826,0.00584435,0.00183221,-5.011e-07
11588,26.0,12.0,0.00199056,  -778.075E-03,   64.4281E-03,       2.98715,0.00280557,0.000920432,-2.86599e-07
11589,25.0,12.0,0.00212423,  -757.906E-03,   64.4281E-03,       3.18683,-0.000245229,5.00058e-06,-9.48031e-09
11594,24.0,12.0,0.00225791,  -737.738E-03,   64.4280E-03,       3.38650,-0.00329605,-0.000910478,3.32624e-07
11595,23.0,12.0,0.00239109,  -717.727E-03,   64.4280E-03,       3.58540,-0.00633487,-0.0018224,7.35362e-07
11600,22.0,12.0,0.00252321,  -698.030E-03,   64.4279E-03,       3.78275,-0.00934973,-0.00272716,1.18781e-06
11603,21.0,12.0,0.00265378,  -678.797E-03,   64.4279E-03,       3.97778,-0.0123288,-0.00362121,1.67328e-06
11604,20.0,12.0,0.00278227,  -660.173E-03,   64.4278E-03,       4.16973,-0.0152602,-0.00450099,2.17061e-06
11609,19.0,12.0,0.00290817,  -642.292E-03,   64.4278E-03,       4.35785,-0.0181326,-0.00536305,2.65575e-06
11610,18.0,12.0,0.00303098,  -625.276E-03,   64.4278E-03,       4.54140,-0.0209345,-0.00620397,3.10365e-06
11615,17.0,12.0,0.00315022,  -609.233E-03,   64.4278E-03,       4.71966,-0.023655,-0.00702044,3.49015e-06
11618,16.0,12.0,0.00326542,  -594.259E-03,   64.4278E-03,       4.89193,-0.0262834,-0.00780923,3.79389e-06
11619,15.0,12.0,0.00337611,  -580.429E-03,   64.4278E-03,       5.05753,-0.0288092,-0.00856723,3.99803e-06
11624,14.0,12.0,0.00348187,  -567.804E-03,   64.4278E-03,       5.21581,-0.0312226,-0.00929147,4.09166e-06
11625,13.0,12.0,0.00358228,  -556.422E-03,   64.4278E-03,       5.36613,-0.033514,-0.00997911,4.07076e-06
11630,12.0,12.0,0.00367693,  -546.306E-03,   64.4278E-03,       5.50789,-0.0356744,-0.0106274,3.9387e-06
11633,11.0,12.0,0.00376545,  -537.454E-03,   64.4279E-03,       5.64054,-0.0376953,-0.0112339,3.70601e-06
11634,10.0,12.0,0.0038475,  -529.848E-03,   64.4279E-03,       5.76352,-0.0395687,-0.0117961,3.38956e-06
11639,9.0,12.0,0.00392275,  -523.450E-03,   64.4279E-03,       5.87636,-0.0412871,-0.0123119,3.01106e-06
11640,8.0,12.0,0.0039909,  -518.200E-03,   64.4279E-03,       5.97859,-0.0428437,-0.0127791,2.59502e-06
11645,7.0,12.0,0.00405167,  -514.022E-03,   64.4278E-03,       6.06980,-0.0442323,-0.0131959,2.16634e-06
11648,6.0,12.0,0.00410484,  -510.824E-03,   64.4278E-03,       6.14962,-0.0454473,-0.0135607,1.74781e-06
11649,5.0,12.0,0.00415019,  -508.496E-03,   64.4278E-03,       6.21772,-0.0464839,-0.013872,1.35777e-06
11654,4.0,12.0,0.00418755,  -506.915E-03,   64.4278E-03,       6.27382,-0.0473378,-0.0141284,1.00826e-06
11655,3.0,12.0,0.00421675,  -505.947E-03,   64.4277E-03,       6.31770,-0.0480055,-0.014329,7.03904e-07
11660,2.0,12.0,0.0042377,  -505.448E-03,   64.4277E-03,       6.34917,-0.0484845,-0.0144728,4.41762e-07
11663,1.0,12.0,0.0042503,  -505.265E-03,   64.4277E-03,       6.36810,-0.0487726,-0.0145594,2.12081e-07
11664,1.2560099999999999e-30,12.0,0.0042545,  -505.241E-03,   64.4277E-03,       6.37442,-0.0488688,-0.0145883,-3.73035e-14
11669,-1.0,12.0,0.0042503,  -505.217E-03,   64.4277E-03,       6.36810,-0.0487726,-0.0145594,-2.12081e-07
11670,-2.0,12.0,0.0042377,  -505.034E-03,   64.4277E-03,       6.34917,-0.0484845,-0.0144728,-4.41762e-07
11675,-3.0,12.0,0.00421675,  -504.535E-03,   64.4277E-03,       6.31770,-0.0480055,-0.014329,-7.03904e-07
11678,-4.0,12.0,0.00418755,  -503.567E-03,   64.4278E-03,       6.27382,-0.0473378,-0.0141284,-1.00826e-06
11679,-5.0,12.0,0.00415019,  -501.986E-03,   64.4278E-03,       6.21772,-0.0464839,-0.013872,-1.35777e-06
11684,-6.0,12.0,0.00410484,  -499.658E-03,   64.4278E-03,       6.14962,-0.0454473,-0.0135607,-1.74781e-06
11685,-7.0,12.0,0.00405167,  -496.460E-03,   64.4278E-03,       6.06980,-0.0442323,-0.0131959,-2.16634e-06
11690,-8.0,12.0,0.0039909,  -492.282E-03,   64.4279E-03,       5.97859,-0.0428437,-0.0127791,-2.59502e-06
11693,-9.0,12.0,0.00392275,  -487.032E-03,   64.4279E-03,       5.87636,-0.0412871,-0.0123119,-3.01106e-06
11694,-10.0,12.0,0.0038475,  -480.633E-03,   64.4279E-03,       5.76352,-0.0395687,-0.0117961,-3.38956e-06
11699,-11.0,12.0,0.00376545,  -473.028E-03,   64.4279E-03,       5.64054,-0.0376953,-0.0112339,-3.70601e-06
11700,-12.0,12.0,0.00367693,  -464.176E-03,   64.4278E-03,       5.50789,-0.0356744,-0.0106274,-3.9387e-06
11705,-13.0,12.0,0.00358228,  -454.059E-03,   64.4278E-03,       5.36613,-0.033514,-0.00997911,-4.07076e-06
11708,-14.0,12.0,0.00348187,  -442.678E-03,   64.4278E-03,       5.21581,-0.0312226,-0.00929147,-4.09166e-06
11709,-15.0,12.0,0.00337611,  -430.052E-03,   64.4278E-03,       5.05753,-0.0288092,-0.00856723,-3.99803e-06
11714,-16.0,12.0,0.00326542,  -416.223E-03,   64.4278E-03,       4.89193,-0.0262834,-0.00780923,-3.79389e-06
11715,-17.0,12.0,0.00315022,  -401.248E-03,   64.4278E-03,       4.71966,-0.023655,-0.00702044,-3.49015e-06
11720,-18.0,12.0,0.00303098,  -385.206E-03,   64.4278E-03,       4.54140,-0.0209345,-0.00620397,-3.10365e-06
11723,-19.0,12.0,0.00290817,  -368.190E-03,   64.4278E-03,       4.35785,-0.0181326,-0.00536305,-2.65575e-06
11724,-20.0,12.0,0.00278227,  -350.308E-03,   64.4278E-03,       4.16973,-0.0152602,-0.00450099,-2.17061e-06
11729,-21.0,12.0,0.00265378,  -331.684E-03,   64.4279E-03,       3.97778,-0.0123288,-0.00362121,-1.67328e-06
11730,-22.0,12.0,0.00252321,  -312.452E-03,   64.4279E-03,       3.78275,-0.00934973,-0.00272716,-1.18781e-06
11735,-23.0,12.0,0.00239109,  -292.755E-03,   64.4280E-03,       3.58540,-0.00633487,-0.0018224,-7.35362e-07
11738,-24.0,12.0,0.00225791,  -272.744E-03,   64.4280E-03,       3.38650,-0.00329605,-0.000910478,-3.32624e-07
11739,-25.0,12.0,0.00212423,  -252.575E-03,   64.4281E-03,       3.18683,-0.000245229,5.00058e-06,9.48034e-09
11744,-26.0,12.0,0.00199056,  -232.407E-03,   64.4281E-03,       2.98715,0.00280557,0.000920432,2.86599e-07
11745,-27.0,12.0,0.00185744,  -212.397E-03,   64.4282E-03,       2.78826,0.00584435,0.00183221,5.011e-07
11750,-28.0,12.0,0.00172539,  -192.702E-03,   64.4282E-03,       2.59092,0.00885913,0.00273676,6.6164e-07
11753,-29.0,12.0,0.00159493,  -173.472E-03,   64.4282E-03,       2.39590,0.0118381,0.00363052,7.81923e-07
11754,-30.0,12.0,0.00146658,  -154.851E-03,   64.4282E-03,       2.20396,0.0147694,0.00450996,8.78937e-07
11759,-31.0,12.0,0.00134085,  -136.973E-03,   64.4282E-03,       2.01586,0.0176416,0.00537162,9.7056e-07
11760,-32.0,12.0,0.00121824,  -119.961E-03,   64.4282E-03,       1.83234,0.0204433,0.00621209,1.07303e-06
11765,-33.0,12.0,0.00109923,  -103.923E-03,   64.4282E-03,       1.65410,0.0231635,0.00702804,1.19831e-06
11768,-34.0,12.0,0.000984285,  -88.9539E-03,   64.4281E-03,       1.48186,0.0257915,0.00781622,1.352e-06
11769,-35.0,12.0,0.000873869,  -75.1299E-03,   64.4281E-03,       1.31629,0.0283167,0.00857349,1.53178e-06
11774,-36.0,12.0,0.000768413,  -62.5102E-03,   64.4280E-03,       1.15805,0.0307293,0.00929682,1.72719e-06
11775,-37.0,12.0,0.0006683360000000001,  -51.1348E-03,   64.4279E-03,       1.00777,0.0330196,0.00998334,1.92025e-06
11780,-38.0,12.0,0.00057403,  -41.0241E-03,   64.4278E-03,   866.046E-03,0.0351785,0.0106303,2.08777e-06
11783,-39.0,12.0,0.000485866,  -32.1787E-03,   64.4277E-03,   733.449E-03,0.0371974,0.0112351,2.20425e-06
11784,-40.0,12.0,0.000404192,  -24.5790E-03,   64.4276E-03,   610.510E-03,0.0390682,0.0117954,2.24607e-06
11789,-41.0,12.0,0.000329326,  -18.1860E-03,   64.4275E-03,   497.722E-03,0.0407833,0.012309,2.19542e-06
11790,-42.0,12.0,0.00026156,  -12.9414E-03,   64.4274E-03,   395.542E-03,0.0423359,0.0127739,2.0442e-06
11795,-43.0,12.0,0.000201158,  -8.76865E-03,   64.4273E-03,   304.384E-03,0.0437198,0.0131881,1.79679e-06
11798,-44.0,12.0,0.00014835100000000002,  -5.57433E-03,   64.4272E-03,   224.617E-03,0.0449292,0.0135502,1.4712e-06
11799,-45.0,12.0,0.000103342,  -3.24944E-03,   64.4271E-03,   156.566E-03,0.0459594,0.0138587,1.09861e-06
11804,-46.0,12.0,6.62986e-05,  -1.67120E-03,   64.4271E-03,   100.506E-03,0.0468062,0.0141123,7.2011e-07
11805,-47.0,12.0,3.7357399999999996e-05,  -704.934E-06,   64.4270E-03,   56.6677E-03,0.0474663,0.0143101,3.82837e-07
11810,-48.0,12.0,1.66209e-05,  -206.305E-06,   64.4270E-03,   25.2275E-03,0.0479368,0.0144511,1.33084e-07
11813,-49.0,12.0,4.15724e-06,  -23.5644E-06,   64.4270E-03,   6.31308E-03,0.0482161,0.0145349,1.07083e-08
11814,-50.0,12.0,0.0,  -12.7658E-42,   64.4270E-03,           -0.,0.0483078,0.0145624,-1.42149e-08
11819,50.0,11.0,0.0,      -1.01048,   64.4260E-03,           -0.,0.0483083,0.0145628,-4.47674e-09
11820,49.0,11.0,4.15088e-06,      -1.01046,   64.4260E-03,   6.31313E-03,0.0482165,0.0145353,-3.95737e-08
11825,48.0,11.0,1.65955e-05,      -1.01028,   64.4260E-03,   25.2277E-03,0.047937,0.0144515,-1.65769e-07
11828,47.0,11.0,3.73004e-05,      -1.00978,   64.4260E-03,   56.6680E-03,0.0474663,0.0143104,-3.91432e-07
11829,46.0,11.0,6.61976e-05,      -1.00881,   64.4260E-03,   100.507E-03,0.0468062,0.0141126,-6.86222e-07
11834,45.0,11.0,0.000103185,      -1.00723,   64.4261E-03,   156.566E-03,0.0459593,0.0138589,-1.01304e-06
11835,44.0,11.0,0.000148128,      -1.00491,   64.4262E-03,   224.618E-03,0.0449291,0.0135504,-1.33423e-06
11840,43.0,11.0,0.000200856,      -1.00171,   64.4263E-03,   304.385E-03,0.0437196,0.0131882,-1.61579e-06
11843,42.0,11.0,0.000261171,  -997.540E-03,   64.4263E-03,   395.543E-03,0.0423358,0.0127739,-1.832e-06
11844,41.0,11.0,0.00032883900000000004,  -992.296E-03,   64.4264E-03,   497.723E-03,0.0407832,0.012309,-1.96739e-06
11849,40.0,11.0,0.00040359900000000004,  -985.903E-03,   64.4265E-03,   610.510E-03,0.0390681,0.0117954,-2.01774e-06
11850,39.0,11.0,0.00048515900000000004,  -978.303E-03,   64.4266E-03,   733.450E-03,0.0371974,0.011235,-1.98915e-06
11855,38.0,11.0,0.000573201,  -969.458E-03,   64.4267E-03,   866.047E-03,0.0351785,0.0106301,-1.89573e-06
11858,37.0,11.0,0.00066738,  -959.347E-03,   64.4268E-03,       1.00777,0.0330197,0.00998314,-1.75675e-06
11859,36.0,11.0,0.000767325,  -947.972E-03,   64.4269E-03,       1.15805,0.0307293,0.00929661,-1.59304e-06
11864,35.0,11.0,0.000872642,  -935.352E-03,   64.4270E-03,       1.31629,0.0283167,0.00857328,-1.42396e-06
11865,34.0,11.0,0.000982917,  -921.528E-03,   64.4270E-03,       1.48186,0.0257915,0.00781602,-1.26454e-06
11870,33.0,11.0,0.00109771,  -906.559E-03,   64.4270E-03,       1.65410,0.0231635,0.00702786,-1.12387e-06
11873,32.0,11.0,0.00121658,  -890.521E-03,   64.4271E-03,       1.83234,0.0204433,0.00621193,-1.00425e-06
11874,31.0,11.0,0.00133904,  -873.509E-03,   64.4271E-03,       2.01586,0.0176415,0.00537148,-9.01539e-07
11879,30.0,11.0,0.00146462,  -855.631E-03,   64.4271E-03,       2.20396,0.0147694,0.00450984,-8.06182e-07
11880,29.0,11.0,0.00159282,  -837.010E-03,   64.4271E-03,       2.39590,0.0118381,0.00363041,-7.05079e-07
11885,28.0,11.0,0.00172312,  -817.780E-03,   64.4271E-03,       2.59092,0.00885919,0.00273666,-5.83616e-07
11888,27.0,11.0,0.00185502,  -798.085E-03,   64.4270E-03,       2.78826,0.00584447,0.00183212,-4.27887e-07
11889,26.0,11.0,0.00198799,  -778.076E-03,   64.4270E-03,       2.98715,0.00280576,0.000920344,-2.26609e-07
11894,25.0,11.0,0.00212151,  -757.907E-03,   64.4270E-03,       3.18682,-0.00024496,4.91786e-06,2.72881e-08
11895,24.0,11.0,0.00225505,  -737.738E-03,   64.4269E-03,       3.38650,-0.0032957,-0.000910555,3.35682e-07
11900,23.0,11.0,0.00238807,  -717.728E-03,   64.4269E-03,       3.58540,-0.00633446,-0.00182247,6.9479e-07
11903,22.0,11.0,0.00252006,  -698.031E-03,   64.4268E-03,       3.78275,-0.00934927,-0.00272723,1.09534e-06
11904,21.0,11.0,0.00265048,  -678.798E-03,   64.4268E-03,       3.97778,-0.0123283,-0.00362127,1.52321e-06
11909,20.0,11.0,0.00277883,  -660.174E-03,   64.4267E-03,       4.16973,-0.0152597,-0.00450105,1.96048e-06
11910,19.0,11.0,0.0029046,  -642.293E-03,   64.4267E-03,       4.35785,-0.0181321,-0.00536311,2.38684e-06
11915,18.0,11.0,0.00302728,  -625.276E-03,   64.4267E-03,       4.54140,-0.0209341,-0.00620403,2.7811e-06
11918,17.0,11.0,0.0031464,  -609.234E-03,   64.4267E-03,       4.71966,-0.0236547,-0.0070205,3.12284e-06
11919,16.0,11.0,0.00326148,  -594.259E-03,   64.4267E-03,       4.89193,-0.0262832,-0.00780929,3.39397e-06
11924,15.0,11.0,0.00337206,  -580.430E-03,   64.4267E-03,       5.05754,-0.0288092,-0.00856731,3.58014e-06
11925,14.0,11.0,0.00347772,  -567.804E-03,   64.4267E-03,       5.21581,-0.0312227,-0.00929155,3.67193e-06
11930,13.0,11.0,0.00357802,  -556.423E-03,   64.4267E-03,       5.36613,-0.0335142,-0.00997919,3.66562e-06
11933,12.0,11.0,0.00367258,  -546.306E-03,   64.4267E-03,       5.50790,-0.0356748,-0.0106275,3.56356e-06
11934,11.0,11.0,0.00376101,  -537.454E-03,   64.4268E-03,       5.64054,-0.0376957,-0.011234,3.37402e-06
11939,10.0,11.0,0.00384298,  -529.848E-03,   64.4268E-03,       5.76353,-0.0395692,-0.0117961,3.11051e-06
11940,9.0,11.0,0.00391815,  -523.450E-03,   64.4268E-03,       5.87637,-0.0412876,-0.0123119,2.79053e-06
11945,8.0,11.0,0.00398623,  -518.200E-03,   64.4268E-03,       5.97860,-0.0428441,-0.012779,2.43396e-06
11948,7.0,11.0,0.00404695,  -514.022E-03,   64.4268E-03,       6.06981,-0.0442327,-0.0131958,2.06113e-06
11949,6.0,11.0,0.00410007,  -510.824E-03,   64.4267E-03,       6.14962,-0.0454476,-0.0135606,1.69076e-06
11954,5.0,11.0,0.00414537,  -508.496E-03,   64.4267E-03,       6.21772,-0.046484,-0.0138718,1.33814e-06
11955,4.0,11.0,0.00418269,  -506.915E-03,   64.4267E-03,       6.27383,-0.0473378,-0.0141281,1.01359e-06
11960,3.0,11.0,0.00421187,  -505.947E-03,   64.4267E-03,       6.31770,-0.0480055,-0.0143286,7.21583e-07
11963,2.0,11.0,0.00423279,  -505.448E-03,   64.4266E-03,       6.34917,-0.0484843,-0.0144725,4.60601e-07
11964,1.0,11.0,0.00424538,  -505.265E-03,   64.4266E-03,       6.36810,-0.0487724,-0.014559,2.23729e-07
11969,4.7566099999999994e-30,11.0,0.00424958,  -505.241E-03,   64.4266E-03,       6.37442,-0.0488686,-0.0145879,-1.42109e-14
11970,-1.0,11.0,0.00424538,  -505.217E-03,   64.4266E-03,       6.36810,-0.0487724,-0.014559,-2.23729e-07
11975,-2.0,11.0,0.00423279,  -505.034E-03,   64.4266E-03,       6.34917,-0.0484843,-0.0144725,-4.60601e-07
11978,-3.0,11.0,0.00421187,  -504.535E-03,   64.4267E-03,       6.31770,-0.0480055,-0.0143286,-7.21583e-07
11979,-4.0,11.0,0.00418269,  -503.567E-03,   64.4267E-03,       6.27383,-0.0473378,-0.0141281,-1.01359e-06
11984,-5.0,11.0,0.00414537,  -501.986E-03,   64.4267E-03,       6.21772,-0.046484,-0.0138718,-1.33814e-06
11985,-6.0,11.0,0.00410007,  -499.658E-03,   64.4267E-03,       6.14962,-0.0454476,-0.0135606,-1.69076e-06
11990,-7.0,11.0,0.00404695,  -496.460E-03,   64.4268E-03,       6.06981,-0.0442327,-0.0131958,-2.06113e-06
11993,-8.0,11.0,0.00398623,  -492.282E-03,   64.4268E-03,       5.97860,-0.0428441,-0.012779,-2.43396e-06
11994,-9.0,11.0,0.00391815,  -487.032E-03,   64.4268E-03,       5.87637,-0.0412876,-0.0123119,-2.79053e-06
11999,-10.0,11.0,0.00384298,  -480.633E-03,   64.4268E-03,       5.76353,-0.0395692,-0.0117961,-3.11051e-06
12000,-11.0,11.0,0.00376101,  -473.028E-03,   64.4268E-03,       5.64054,-0.0376957,-0.011234,-3.37402e-06
12005,-12.0,11.0,0.00367258,  -464.176E-03,   64.4267E-03,       5.50790,-0.0356748,-0.0106275,-3.56356e-06
12008,-13.0,11.0,0.00357802,  -454.059E-03,   64.4267E-03,       5.36613,-0.0335142,-0.00997919,-3.66562e-06
12009,-14.0,11.0,0.00347772,  -442.678E-03,   64.4267E-03,       5.21581,-0.0312227,-0.00929155,-3.67193e-06
12014,-15.0,11.0,0.00337206,  -430.052E-03,   64.4267E-03,       5.05754,-0.0288092,-0.00856731,-3.58014e-06
12015,-16.0,11.0,0.00326148,  -416.222E-03,   64.4267E-03,       4.89193,-0.0262832,-0.00780929,-3.39397e-06
12020,-17.0,11.0,0.0031464,  -401.248E-03,   64.4267E-03,       4.71966,-0.0236547,-0.0070205,-3.12284e-06
12023,-18.0,11.0,0.00302728,  -385.206E-03,   64.4267E-03,       4.54140,-0.0209341,-0.00620403,-2.7811e-06
12024,-19.0,11.0,0.0029046,  -368.189E-03,   64.4267E-03,       4.35785,-0.0181321,-0.00536311,-2.38684e-06
12029,-20.0,11.0,0.00277883,  -350.308E-03,   64.4267E-03,       4.16973,-0.0152597,-0.00450105,-1.96048e-06
12030,-21.0,11.0,0.00265048,  -331.684E-03,   64.4268E-03,       3.97778,-0.0123283,-0.00362127,-1.52321e-06
12035,-22.0,11.0,0.00252006,  -312.451E-03,   64.4268E-03,       3.78275,-0.00934927,-0.00272723,-1.09534e-06
12038,-23.0,11.0,0.00238807,  -292.754E-03,   64.4269E-03,       3.58540,-0.00633446,-0.00182247,-6.9479e-07
12039,-24.0,11.0,0.00225505,  -272.743E-03,   64.4269E-03,       3.38650,-0.0032957,-0.000910555,-3.35682e-07
12044,-25.0,11.0,0.00212151,  -252.575E-03,   64.4270E-03,       3.18682,-0.00024496,4.91786e-06,-2.72881e-08
12045,-26.0,11.0,0.00198799,  -232.406E-03,   64.4270E-03,       2.98715,0.00280576,0.000920344,2.26609e-07
12050,-27.0,11.0,0.00185502,  -212.397E-03,   64.4270E-03,       2.78826,0.00584447,0.00183212,4.27887e-07
12053,-28.0,11.0,0.00172312,  -192.701E-03,   64.4271E-03,       2.59092,0.00885919,0.00273666,5.83616e-07
12054,-29.0,11.0,0.00159282,  -173.471E-03,   64.4271E-03,       2.39590,0.0118381,0.00363041,7.05079e-07
12059,-30.0,11.0,0.00146462,  -154.850E-03,   64.4271E-03,       2.20396,0.0147694,0.00450984,8.06182e-07
12060,-31.0,11.0,0.00133904,  -136.973E-03,   64.4271E-03,       2.01586,0.0176415,0.00537148,9.01539e-07
12065,-32.0,11.0,0.00121658,  -119.960E-03,   64.4271E-03,       1.83234,0.0204433,0.00621193,1.00425e-06
12068,-33.0,11.0,0.00109771,  -103.923E-03,   64.4270E-03,       1.65410,0.0231635,0.00702786,1.12387e-06
12069,-34.0,11.0,0.000982917,  -88.9537E-03,   64.4270E-03,       1.48186,0.0257915,0.00781602,1.26453e-06
12074,-35.0,11.0,0.000872642,  -75.1298E-03,   64.4270E-03,       1.31629,0.0283167,0.00857328,1.42396e-06
12075,-36.0,11.0,0.000767325,  -62.5101E-03,   64.4269E-03,       1.15805,0.0307293,0.00929661,1.59304e-06
12080,-37.0,11.0,0.00066738,  -51.1347E-03,   64.4268E-03,       1.00777,0.0330197,0.00998314,1.75675e-06
12083,-38.0,11.0,0.000573201,  -41.0240E-03,   64.4267E-03,   866.047E-03,0.0351785,0.0106301,1.89573e-06
12084,-39.0,11.0,0.00048515900000000004,  -32.1786E-03,   64.4266E-03,   733.450E-03,0.0371974,0.011235,1.98915e-06
12089,-40.0,11.0,0.00040359900000000004,  -24.5790E-03,   64.4265E-03,   610.510E-03,0.0390681,0.0117954,2.01774e-06
12090,-41.0,11.0,0.00032883900000000004,  -18.1860E-03,   64.4264E-03,   497.723E-03,0.0407832,0.012309,1.96739e-06
12095,-42.0,11.0,0.000261171,  -12.9414E-03,   64.4263E-03,   395.543E-03,0.0423358,0.0127739,1.832e-06
12098,-43.0,11.0,0.000200856,  -8.76866E-03,   64.4263E-03,   304.385E-03,0.0437196,0.0131882,1.61579e-06
12099,-44.0,11.0,0.000148128,  -5.57435E-03,   64.4262E-03,   224.618E-03,0.0449291,0.0135504,1.33423e-06
12104,-45.0,11.0,0.000103185,  -3.24946E-03,   64.4261E-03,   156.566E-03,0.0459593,0.0138589,1.01304e-06
12105,-46.0,11.0,6.61976e-05,  -1.67121E-03,   64.4260E-03,   100.507E-03,0.0468062,0.0141126,6.86222e-07
12110,-47.0,11.0,3.73004e-05,  -704.942E-06,   64.4260E-03,   56.6680E-03,0.0474663,0.0143104,3.91432e-07
12113,-48.0,11.0,1.65955e-05,  -206.308E-06,   64.4260E-03,   25.2277E-03,0.047937,0.0144515,1.65769e-07
12114,-49.0,11.0,4.15088e-06,  -23.5652E-06,   64.4260E-03,   6.31313E-03,0.0482165,0.0145353,3.95737e-08
12119,-50.0,11.0,0.0,  -12.7630E-42,   64.4260E-03,           -0.,0.0483083,0.0145628,4.47676e-09
12120,50.0,10.0,0.0,      -1.01048,   64.4250E-03,           -0.,0.0483087,0.0145632,-1.80171e-08
12125,49.0,10.0,4.1451599999999995e-06,      -1.01046,   64.4250E-03,   6.31318E-03,0.0482168,0.0145357,-5.89774e-08
12128,48.0,10.0,1.65727e-05,      -1.01028,   64.4250E-03,   25.2278E-03,0.0479372,0.0144518,-1.84285e-07
12129,47.0,10.0,3.7249099999999995e-05,      -1.00978,   64.4250E-03,   56.6683E-03,0.0474663,0.0143107,-3.8658e-07
12134,46.0,10.0,6.610680000000001e-05,      -1.00881,   64.4250E-03,   100.507E-03,0.0468061,0.0141128,-6.42647e-07
12135,45.0,10.0,0.000103044,      -1.00723,   64.4251E-03,   156.567E-03,0.0459592,0.0138591,-9.23683e-07
12140,44.0,10.0,0.000147926,      -1.00491,   64.4251E-03,   224.618E-03,0.0449289,0.0135505,-1.1992e-06
12143,43.0,10.0,0.00020058400000000002,      -1.00171,   64.4252E-03,   304.386E-03,0.0437195,0.0131883,-1.44176e-06
12144,42.0,10.0,0.000260819,  -997.540E-03,   64.4253E-03,   395.544E-03,0.0423357,0.0127739,-1.62989e-06
12149,41.0,10.0,0.000328399,  -992.296E-03,   64.4254E-03,   497.724E-03,0.0407831,0.012309,-1.75056e-06
12150,40.0,10.0,0.00040306300000000005,  -985.903E-03,   64.4255E-03,   610.511E-03,0.0390681,0.0117953,-1.79973e-06
12155,39.0,10.0,0.00048452,  -978.303E-03,   64.4255E-03,   733.450E-03,0.0371974,0.0112349,-1.78178e-06
12158,38.0,10.0,0.000572453,  -969.458E-03,   64.4256E-03,   866.047E-03,0.0351785,0.01063,-1.70791e-06
12159,37.0,10.0,0.000666516,  -959.347E-03,   64.4257E-03,       1.00777,0.0330197,0.00998295,-1.59353e-06
12164,36.0,10.0,0.00076634,  -947.972E-03,   64.4258E-03,       1.15805,0.0307293,0.00929641,-1.45571e-06
12165,35.0,10.0,0.000871532,  -935.352E-03,   64.4258E-03,       1.31629,0.0283167,0.00857308,-1.31031e-06
12170,34.0,10.0,0.000981678,  -921.528E-03,   64.4259E-03,       1.48186,0.0257915,0.00781584,-1.16997e-06
12173,33.0,10.0,0.00109634,  -906.559E-03,   64.4259E-03,       1.65410,0.0231635,0.00702769,-1.04243e-06
12174,32.0,10.0,0.00121507,  -890.522E-03,   64.4259E-03,       1.83234,0.0204433,0.00621178,-9.30014e-07
12179,31.0,10.0,0.0013374,  -873.509E-03,   64.4260E-03,       2.01586,0.0176415,0.00537135,-8.2965e-07
12180,30.0,10.0,0.00146284,  -855.632E-03,   64.4260E-03,       2.20396,0.0147694,0.00450972,-7.33867e-07
12185,29.0,10.0,0.0015909,  -837.011E-03,   64.4260E-03,       2.39590,0.0118381,0.0036303,-6.32134e-07
12188,28.0,10.0,0.00172106,  -817.781E-03,   64.4259E-03,       2.59092,0.00885925,0.00273657,-5.12653e-07
12189,27.0,10.0,0.00185282,  -798.086E-03,   64.4259E-03,       2.78826,0.00584458,0.00183203,-3.64096e-07
12194,26.0,10.0,0.00198566,  -778.076E-03,   64.4259E-03,       2.98715,0.00280594,0.000920263,-1.77288e-07
12195,25.0,10.0,0.00211904,  -757.908E-03,   64.4258E-03,       3.18682,-0.00024472,4.84202e-06,5.35234e-08
12200,24.0,10.0,0.00225244,  -737.739E-03,   64.4258E-03,       3.38650,-0.0032954,-0.000910626,3.29765e-07
12203,23.0,10.0,0.00238533,  -717.728E-03,   64.4257E-03,       3.58540,-0.0063341,-0.00182254,6.48182e-07
12204,22.0,10.0,0.00251719,  -698.031E-03,   64.4257E-03,       3.78275,-0.00934887,-0.00272729,1.00092e-06
12209,21.0,10.0,0.00264749,  -678.799E-03,   64.4257E-03,       3.97778,-0.0123279,-0.00362132,1.37608e-06
12210,20.0,10.0,0.00277571,  -660.175E-03,   64.4256E-03,       4.16973,-0.0152593,-0.00450111,1.7586e-06
12215,19.0,10.0,0.00290136,  -642.293E-03,   64.4256E-03,       4.35785,-0.0181317,-0.00536316,2.13138e-06
12218,18.0,10.0,0.00302393,  -625.277E-03,   64.4256E-03,       4.54140,-0.0209338,-0.00620408,2.47662e-06
12219,17.0,10.0,0.00314293,  -609.234E-03,   64.4256E-03,       4.71966,-0.0236545,-0.00702056,2.77714e-06
12224,16.0,10.0,0.00325791,  -594.260E-03,   64.4256E-03,       4.89194,-0.026283,-0.00780936,3.01769e-06
12225,15.0,10.0,0.00336839,  -580.430E-03,   64.4256E-03,       5.05754,-0.0288091,-0.00856737,3.18614e-06
12230,14.0,10.0,0.00347394,  -567.804E-03,   64.4256E-03,       5.21582,-0.0312228,-0.00929163,3.27438e-06
12233,13.0,10.0,0.00357415,  -556.423E-03,   64.4256E-03,       5.36614,-0.0335144,-0.00997926,3.27901e-06
12234,12.0,10.0,0.00366862,  -546.306E-03,   64.4256E-03,       5.50790,-0.035675,-0.0106276,3.20158e-06
12239,11.0,10.0,0.00375698,  -537.454E-03,   64.4257E-03,       5.64055,-0.0376961,-0.011234,3.04852e-06
12240,10.0,10.0,0.00383887,  -529.848E-03,   64.4257E-03,       5.76353,-0.0395695,-0.0117962,2.83051e-06
12245,9.0,10.0,0.00391398,  -523.450E-03,   64.4257E-03,       5.87637,-0.041288,-0.0123119,2.56152e-06
12248,8.0,10.0,0.003982,  -518.200E-03,   64.4257E-03,       5.97860,-0.0428445,-0.012779,2.25754e-06
12249,7.0,10.0,0.00404266,  -514.022E-03,   64.4257E-03,       6.06981,-0.044233,-0.0131958,1.93499e-06
12254,6.0,10.0,0.00409573,  -510.824E-03,   64.4257E-03,       6.14963,-0.0454478,-0.0135604,1.60914e-06
12255,5.0,10.0,0.004141,  -508.496E-03,   64.4256E-03,       6.21773,-0.0464842,-0.0138716,1.29261e-06
12260,4.0,10.0,0.00417828,  -506.915E-03,   64.4256E-03,       6.27383,-0.0473378,-0.0141279,9.94203e-07
12263,3.0,10.0,0.00420743,  -505.947E-03,   64.4256E-03,       6.31771,-0.0480054,-0.0143283,7.18167e-07
12264,2.0,10.0,0.00422834,  -505.448E-03,   64.4256E-03,       6.34918,-0.0484842,-0.0144721,4.64073e-07
12269,1.0,10.0,0.00424091,  -505.265E-03,   64.4256E-03,       6.36811,-0.0487722,-0.0145586,2.27285e-07
12270,-1.15352e-30,10.0,0.00424511,  -505.241E-03,   64.4256E-03,       6.37443,-0.0488684,-0.0145875,3.55271e-15
12275,-1.0,10.0,0.00424091,  -505.217E-03,   64.4256E-03,       6.36811,-0.0487722,-0.0145586,-2.27285e-07
12278,-2.0,10.0,0.00422834,  -505.034E-03,   64.4256E-03,       6.34918,-0.0484842,-0.0144721,-4.64073e-07
12279,-3.0,10.0,0.00420743,  -504.535E-03,   64.4256E-03,       6.31771,-0.0480054,-0.0143283,-7.18167e-07
12284,-4.0,10.0,0.00417828,  -503.567E-03,   64.4256E-03,       6.27383,-0.0473378,-0.0141279,-9.94203e-07
12285,-5.0,10.0,0.004141,  -501.986E-03,   64.4256E-03,       6.21773,-0.0464842,-0.0138716,-1.29261e-06
12290,-6.0,10.0,0.00409573,  -499.658E-03,   64.4257E-03,       6.14963,-0.0454478,-0.0135604,-1.60914e-06
12293,-7.0,10.0,0.00404266,  -496.460E-03,   64.4257E-03,       6.06981,-0.044233,-0.0131958,-1.93499e-06
12294,-8.0,10.0,0.003982,  -492.282E-03,   64.4257E-03,       5.97860,-0.0428445,-0.012779,-2.25754e-06
12299,-9.0,10.0,0.00391398,  -487.032E-03,   64.4257E-03,       5.87637,-0.041288,-0.0123119,-2.56152e-06
12300,-10.0,10.0,0.00383887,  -480.633E-03,   64.4257E-03,       5.76353,-0.0395695,-0.0117962,-2.83051e-06
12305,-11.0,10.0,0.00375698,  -473.028E-03,   64.4257E-03,       5.64055,-0.0376961,-0.011234,-3.04852e-06
12308,-12.0,10.0,0.00366862,  -464.176E-03,   64.4256E-03,       5.50790,-0.035675,-0.0106276,-3.20158e-06
12309,-13.0,10.0,0.00357415,  -454.059E-03,   64.4256E-03,       5.36614,-0.0335144,-0.00997926,-3.27901e-06
12314,-14.0,10.0,0.00347394,  -442.677E-03,   64.4256E-03,       5.21582,-0.0312228,-0.00929163,-3.27438e-06
12315,-15.0,10.0,0.00336839,  -430.052E-03,   64.4256E-03,       5.05754,-0.0288091,-0.00856737,-3.18614e-06
12320,-16.0,10.0,0.00325791,  -416.222E-03,   64.4256E-03,       4.89194,-0.026283,-0.00780936,-3.01769e-06
12323,-17.0,10.0,0.00314293,  -401.247E-03,   64.4256E-03,       4.71966,-0.0236545,-0.00702056,-2.77714e-06
12324,-18.0,10.0,0.00302393,  -385.205E-03,   64.4256E-03,       4.54140,-0.0209338,-0.00620408,-2.47662e-06
12329,-19.0,10.0,0.00290136,  -368.189E-03,   64.4256E-03,       4.35785,-0.0181317,-0.00536316,-2.13138e-06
12330,-20.0,10.0,0.00277571,  -350.307E-03,   64.4256E-03,       4.16973,-0.0152593,-0.00450111,-1.7586e-06
12335,-21.0,10.0,0.00264749,  -331.683E-03,   64.4257E-03,       3.97778,-0.0123279,-0.00362132,-1.37608e-06
12338,-22.0,10.0,0.00251719,  -312.451E-03,   64.4257E-03,       3.78275,-0.00934887,-0.00272729,-1.00092e-06
12339,-23.0,10.0,0.00238533,  -292.753E-03,   64.4257E-03,       3.58540,-0.0063341,-0.00182254,-6.48182e-07
12344,-24.0,10.0,0.00225244,  -272.743E-03,   64.4258E-03,       3.38650,-0.0032954,-0.000910626,-3.29765e-07
12345,-25.0,10.0,0.00211904,  -252.574E-03,   64.4258E-03,       3.18682,-0.00024472,4.84202e-06,-5.35235e-08
12350,-26.0,10.0,0.00198566,  -232.406E-03,   64.4259E-03,       2.98715,0.00280594,0.000920263,1.77288e-07
12353,-27.0,10.0,0.00185282,  -212.396E-03,   64.4259E-03,       2.78826,0.00584458,0.00183203,3.64096e-07
12354,-28.0,10.0,0.00172106,  -192.701E-03,   64.4259E-03,       2.59092,0.00885925,0.00273657,5.12653e-07
12359,-29.0,10.0,0.0015909,  -173.471E-03,   64.4260E-03,       2.39590,0.0118381,0.0036303,6.32134e-07
12360,-30.0,10.0,0.00146284,  -154.850E-03,   64.4260E-03,       2.20396,0.0147694,0.00450972,7.33867e-07
12365,-31.0,10.0,0.0013374,  -136.972E-03,   64.4260E-03,       2.01586,0.0176415,0.00537135,8.2965e-07
12368,-32.0,10.0,0.00121507,  -119.960E-03,   64.4259E-03,       1.83234,0.0204433,0.00621178,9.30014e-07
12369,-33.0,10.0,0.00109634,  -103.923E-03,   64.4259E-03,       1.65410,0.0231635,0.00702769,1.04243e-06
12374,-34.0,10.0,0.000981678,  -88.9535E-03,   64.4259E-03,       1.48186,0.0257915,0.00781584,1.16997e-06
12375,-35.0,10.0,0.000871532,  -75.1296E-03,   64.4258E-03,       1.31629,0.0283167,0.00857308,1.31031e-06
12380,-36.0,10.0,0.00076634,  -62.5099E-03,   64.4258E-03,       1.15805,0.0307293,0.00929641,1.45571e-06
12383,-37.0,10.0,0.000666516,  -51.1346E-03,   64.4257E-03,       1.00777,0.0330197,0.00998295,1.59353e-06
12384,-38.0,10.0,0.000572453,  -41.0240E-03,   64.4256E-03,   866.047E-03,0.0351785,0.01063,1.70791e-06
12389,-39.0,10.0,0.00048452,  -32.1786E-03,   64.4255E-03,   733.450E-03,0.0371974,0.0112349,1.78178e-06
12390,-40.0,10.0,0.00040306300000000005,  -24.5790E-03,   64.4255E-03,   610.511E-03,0.0390681,0.0117953,1.79973e-06
12395,-41.0,10.0,0.000328399,  -18.1860E-03,   64.4254E-03,   497.724E-03,0.0407831,0.012309,1.75056e-06
12398,-42.0,10.0,0.000260819,  -12.9414E-03,   64.4253E-03,   395.544E-03,0.0423357,0.0127739,1.62989e-06
12399,-43.0,10.0,0.00020058400000000002,  -8.76868E-03,   64.4252E-03,   304.386E-03,0.0437195,0.0131883,1.44176e-06
12404,-44.0,10.0,0.000147926,  -5.57437E-03,   64.4251E-03,   224.618E-03,0.0449289,0.0135505,1.1992e-06
12405,-45.0,10.0,0.000103044,  -3.24948E-03,   64.4251E-03,   156.567E-03,0.0459592,0.0138591,9.23683e-07
12410,-46.0,10.0,6.610680000000001e-05,  -1.67122E-03,   64.4250E-03,   100.507E-03,0.0468061,0.0141128,6.42647e-07
12413,-47.0,10.0,3.7249099999999995e-05,  -704.949E-06,   64.4250E-03,   56.6683E-03,0.0474663,0.0143107,3.86581e-07
12414,-48.0,10.0,1.65727e-05,  -206.312E-06,   64.4250E-03,   25.2278E-03,0.0479372,0.0144518,1.84286e-07
12419,-49.0,10.0,4.1451599999999995e-06,  -23.5660E-06,   64.4250E-03,   6.31318E-03,0.0482168,0.0145357,5.89774e-08
12420,-50.0,10.0,0.0,  -12.7602E-42,   64.4250E-03,           -0.,0.0483087,0.0145632,1.80172e-08
12425,50.0,9.0,0.0,      -1.01048,   64.4239E-03,           -0.,0.048309,0.0145635,-2.65818e-08
12426,49.0,9.0,4.14006e-06,      -1.01046,   64.4240E-03,   6.31322E-03,0.0482171,0.014536,-7.06148e-08
12431,48.0,9.0,1.65523e-05,      -1.01028,   64.4240E-03,   25.2280E-03,0.0479373,0.0144521,-1.91326e-07
12432,47.0,9.0,3.72033e-05,      -1.00978,   64.4240E-03,   56.6686E-03,0.0474664,0.0143109,-3.70766e-07
12437,46.0,9.0,6.60257e-05,      -1.00881,   64.4240E-03,   100.508E-03,0.0468061,0.0141131,-5.91825e-07
12440,45.0,9.0,0.00010291799999999999,      -1.00723,   64.4241E-03,   156.567E-03,0.0459591,0.0138593,-8.31894e-07
12441,44.0,9.0,0.000147746,      -1.00491,   64.4241E-03,   224.619E-03,0.0449288,0.0135507,-1.06697e-06
12446,43.0,9.0,0.00020034099999999998,      -1.00171,   64.4242E-03,   304.386E-03,0.0437193,0.0131884,-1.27467e-06
12447,42.0,9.0,0.000260505,  -997.540E-03,   64.4242E-03,   395.544E-03,0.0423356,0.012774,-1.43746e-06
12452,41.0,9.0,0.000328006,  -992.296E-03,   64.4243E-03,   497.724E-03,0.040783,0.012309,-1.54427e-06
12455,40.0,9.0,0.00040258300000000003,  -985.903E-03,   64.4244E-03,   610.511E-03,0.039068,0.0117952,-1.59132e-06
12456,39.0,9.0,0.00048394800000000005,  -978.303E-03,   64.4245E-03,   733.451E-03,0.0371973,0.0112347,-1.58171e-06
12461,38.0,9.0,0.000571782,  -969.458E-03,   64.4245E-03,   866.048E-03,0.0351785,0.0106298,-1.5241e-06
12462,37.0,9.0,0.0006657410000000001,  -959.347E-03,   64.4246E-03,       1.00777,0.0330196,0.00998278,-1.43085e-06
12467,36.0,9.0,0.0007654560000000001,  -947.972E-03,   64.4247E-03,       1.15805,0.0307293,0.00929623,-1.31566e-06
12470,35.0,9.0,0.0008705360000000001,  -935.352E-03,   64.4247E-03,       1.31629,0.0283167,0.0085729,-1.1916e-06
12471,34.0,9.0,0.000980565,  -921.528E-03,   64.4248E-03,       1.48186,0.0257914,0.00781566,-1.06907e-06
12476,33.0,9.0,0.00109511,  -906.559E-03,   64.4248E-03,       1.65410,0.0231635,0.00702753,-9.54732e-07
12477,32.0,9.0,0.00121372,  -890.522E-03,   64.4248E-03,       1.83234,0.0204432,0.00621164,-8.50753e-07
12482,31.0,9.0,0.00133592,  -873.510E-03,   64.4248E-03,       2.01586,0.0176415,0.00537122,-7.54994e-07
12485,30.0,9.0,0.00146124,  -855.632E-03,   64.4248E-03,       2.20396,0.0147694,0.00450961,-6.61625e-07
12486,29.0,9.0,0.00158917,  -837.011E-03,   64.4248E-03,       2.39590,0.0118381,0.0036302,-5.62312e-07
12491,28.0,9.0,0.00171921,  -817.781E-03,   64.4248E-03,       2.59092,0.00885931,0.00273648,-4.47578e-07
12492,27.0,9.0,0.00185085,  -798.086E-03,   64.4248E-03,       2.78826,0.00584468,0.00183195,-3.08312e-07
12497,26.0,9.0,0.00198356,  -778.077E-03,   64.4248E-03,       2.98715,0.0028061,0.000920188,-1.37094e-07
12500,25.0,9.0,0.00211682,  -757.908E-03,   64.4247E-03,       3.18682,-0.000244508,4.77263e-06,7.06831e-08
12501,24.0,9.0,0.0022501,  -737.740E-03,   64.4247E-03,       3.38650,-0.00329513,-0.00091069,3.16094e-07
12506,23.0,9.0,0.00238287,  -717.729E-03,   64.4246E-03,       3.58540,-0.00633379,-0.00182259,5.9633e-07
12507,22.0,9.0,0.00251461,  -698.032E-03,   64.4246E-03,       3.78275,-0.00934852,-0.00272735,9.0479e-07
12512,21.0,9.0,0.00264479,  -678.800E-03,   64.4246E-03,       3.97778,-0.0123275,-0.00362138,1.2315e-06
12515,20.0,9.0,0.00277291,  -660.175E-03,   64.4245E-03,       4.16973,-0.015259,-0.00450116,1.56387e-06
12516,19.0,9.0,0.00289844,  -642.294E-03,   64.4245E-03,       4.35785,-0.0181314,-0.00536321,1.88761e-06
12521,18.0,9.0,0.00302091,  -625.277E-03,   64.4245E-03,       4.54140,-0.0209335,-0.00620413,2.18787e-06
12522,17.0,9.0,0.00313981,  -609.235E-03,   64.4245E-03,       4.71966,-0.0236543,-0.00702061,2.45027e-06
12527,16.0,9.0,0.00325469,  -594.260E-03,   64.4245E-03,       4.89194,-0.0262829,-0.00780941,2.66207e-06
12530,15.0,9.0,0.00336508,  -580.430E-03,   64.4245E-03,       5.05754,-0.0288091,-0.00856744,2.81303e-06
12531,14.0,9.0,0.00347054,  -567.805E-03,   64.4245E-03,       5.21582,-0.0312228,-0.0092917,2.89626e-06
12536,13.0,9.0,0.00357067,  -556.423E-03,   64.4245E-03,       5.36614,-0.0335146,-0.00997933,2.90866e-06
12537,12.0,9.0,0.00366507,  -546.306E-03,   64.4246E-03,       5.50791,-0.0356753,-0.0106276,2.85121e-06
12542,11.0,9.0,0.00375335,  -537.454E-03,   64.4246E-03,       5.64055,-0.0376964,-0.0112341,2.72877e-06
12545,10.0,9.0,0.00383518,  -529.848E-03,   64.4246E-03,       5.76354,-0.0395699,-0.0117962,2.54972e-06
12546,9.0,9.0,0.00391022,  -523.450E-03,   64.4246E-03,       5.87638,-0.0412883,-0.0123119,2.32509e-06
12551,8.0,9.0,0.00397818,  -518.200E-03,   64.4246E-03,       5.97861,-0.0428448,-0.012779,2.06759e-06
12552,7.0,9.0,0.0040388,  -514.022E-03,   64.4246E-03,       6.06982,-0.0442333,-0.0131957,1.79038e-06
12557,6.0,9.0,0.00409183,  -510.824E-03,   64.4246E-03,       6.14963,-0.045448,-0.0135603,1.50578e-06
12560,5.0,9.0,0.00413706,  -508.496E-03,   64.4246E-03,       6.21773,-0.0464843,-0.0138714,1.22415e-06
12561,4.0,9.0,0.00417431,  -506.915E-03,   64.4245E-03,       6.27383,-0.0473379,-0.0141276,9.52912e-07
12566,3.0,9.0,0.00420344,  -505.947E-03,   64.4245E-03,       6.31771,-0.0480053,-0.0143281,6.96039e-07
12567,2.0,9.0,0.00422433,  -505.448E-03,   64.4245E-03,       6.34918,-0.0484841,-0.0144718,4.53905e-07
12572,1.0,9.0,0.00423689,  -505.265E-03,   64.4245E-03,       6.36811,-0.0487721,-0.0145583,2.23654e-07
12575,-2.8518599999999995e-30,9.0,0.00424109,  -505.241E-03,   64.4245E-03,       6.37443,-0.0488682,-0.0145872,5.32907e-15
12576,-1.0,9.0,0.00423689,  -505.217E-03,   64.4245E-03,       6.36811,-0.0487721,-0.0145583,-2.23655e-07
12581,-2.0,9.0,0.00422433,  -505.034E-03,   64.4245E-03,       6.34918,-0.0484841,-0.0144718,-4.53905e-07
12582,-3.0,9.0,0.00420344,  -504.535E-03,   64.4245E-03,       6.31771,-0.0480053,-0.0143281,-6.96039e-07
12587,-4.0,9.0,0.00417431,  -503.567E-03,   64.4245E-03,       6.27383,-0.0473379,-0.0141276,-9.52912e-07
12590,-5.0,9.0,0.00413706,  -501.986E-03,   64.4246E-03,       6.21773,-0.0464843,-0.0138714,-1.22415e-06
12591,-6.0,9.0,0.00409183,  -499.658E-03,   64.4246E-03,       6.14963,-0.045448,-0.0135603,-1.50578e-06
12596,-7.0,9.0,0.0040388,  -496.460E-03,   64.4246E-03,       6.06982,-0.0442333,-0.0131957,-1.79038e-06
12597,-8.0,9.0,0.00397818,  -492.282E-03,   64.4246E-03,       5.97861,-0.0428448,-0.012779,-2.06759e-06
12602,-9.0,9.0,0.00391022,  -487.032E-03,   64.4246E-03,       5.87638,-0.0412883,-0.0123119,-2.32509e-06
12605,-10.0,9.0,0.00383518,  -480.633E-03,   64.4246E-03,       5.76354,-0.0395699,-0.0117962,-2.54972e-06
12606,-11.0,9.0,0.00375335,  -473.028E-03,   64.4246E-03,       5.64055,-0.0376964,-0.0112341,-2.72877e-06
12611,-12.0,9.0,0.00366507,  -464.176E-03,   64.4246E-03,       5.50791,-0.0356753,-0.0106276,-2.85121e-06
12612,-13.0,9.0,0.00357067,  -454.059E-03,   64.4245E-03,       5.36614,-0.0335146,-0.00997933,-2.90866e-06
12617,-14.0,9.0,0.00347054,  -442.677E-03,   64.4245E-03,       5.21582,-0.0312228,-0.0092917,-2.89626e-06
12620,-15.0,9.0,0.00336508,  -430.051E-03,   64.4245E-03,       5.05754,-0.0288091,-0.00856744,-2.81303e-06
12621,-16.0,9.0,0.00325469,  -416.222E-03,   64.4245E-03,       4.89194,-0.0262829,-0.00780941,-2.66207e-06
12626,-17.0,9.0,0.00313981,  -401.247E-03,   64.4245E-03,       4.71966,-0.0236543,-0.00702061,-2.45027e-06
12627,-18.0,9.0,0.00302091,  -385.205E-03,   64.4245E-03,       4.54140,-0.0209335,-0.00620413,-2.18787e-06
12632,-19.0,9.0,0.00289844,  -368.188E-03,   64.4245E-03,       4.35785,-0.0181314,-0.00536321,-1.88761e-06
12635,-20.0,9.0,0.00277291,  -350.306E-03,   64.4245E-03,       4.16973,-0.015259,-0.00450116,-1.56387e-06
12636,-21.0,9.0,0.00264479,  -331.682E-03,   64.4246E-03,       3.97778,-0.0123275,-0.00362138,-1.2315e-06
12641,-22.0,9.0,0.00251461,  -312.450E-03,   64.4246E-03,       3.78275,-0.00934852,-0.00272735,-9.0479e-07
12642,-23.0,9.0,0.00238287,  -292.753E-03,   64.4246E-03,       3.58540,-0.00633379,-0.00182259,-5.9633e-07
12647,-24.0,9.0,0.0022501,  -272.742E-03,   64.4247E-03,       3.38650,-0.00329513,-0.00091069,-3.16094e-07
12650,-25.0,9.0,0.00211682,  -252.573E-03,   64.4247E-03,       3.18682,-0.000244508,4.77263e-06,-7.06831e-08
12651,-26.0,9.0,0.00198356,  -232.405E-03,   64.4248E-03,       2.98715,0.0028061,0.000920188,1.37094e-07
12656,-27.0,9.0,0.00185085,  -212.396E-03,   64.4248E-03,       2.78826,0.00584468,0.00183195,3.08313e-07
12657,-28.0,9.0,0.00171921,  -192.700E-03,   64.4248E-03,       2.59092,0.00885931,0.00273648,4.47578e-07
12662,-29.0,9.0,0.00158917,  -173.471E-03,   64.4248E-03,       2.39590,0.0118381,0.0036302,5.62312e-07
12665,-30.0,9.0,0.00146124,  -154.850E-03,   64.4248E-03,       2.20396,0.0147694,0.00450961,6.61625e-07
12666,-31.0,9.0,0.00133592,  -136.972E-03,   64.4248E-03,       2.01586,0.0176415,0.00537122,7.54994e-07
12671,-32.0,9.0,0.00121372,  -119.960E-03,   64.4248E-03,       1.83234,0.0204432,0.00621164,8.50753e-07
12672,-33.0,9.0,0.00109511,  -103.923E-03,   64.4248E-03,       1.65410,0.0231635,0.00702753,9.54732e-07
12677,-34.0,9.0,0.000980565,  -88.9533E-03,   64.4248E-03,       1.48186,0.0257914,0.00781566,1.06907e-06
12680,-35.0,9.0,0.0008705360000000001,  -75.1295E-03,   64.4247E-03,       1.31629,0.0283167,0.0085729,1.1916e-06
12681,-36.0,9.0,0.0007654560000000001,  -62.5098E-03,   64.4247E-03,       1.15805,0.0307293,0.00929623,1.31566e-06
12686,-37.0,9.0,0.0006657410000000001,  -51.1345E-03,   64.4246E-03,       1.00777,0.0330196,0.00998278,1.43085e-06
12687,-38.0,9.0,0.000571782,  -41.0239E-03,   64.4245E-03,   866.048E-03,0.0351785,0.0106298,1.5241e-06
12692,-39.0,9.0,0.00048394800000000005,  -32.1786E-03,   64.4245E-03,   733.451E-03,0.0371973,0.0112347,1.58171e-06
12695,-40.0,9.0,0.00040258300000000003,  -24.5790E-03,   64.4244E-03,   610.511E-03,0.039068,0.0117952,1.59132e-06
12696,-41.0,9.0,0.000328006,  -18.1860E-03,   64.4243E-03,   497.724E-03,0.040783,0.012309,1.54427e-06
12701,-42.0,9.0,0.000260505,  -12.9414E-03,   64.4242E-03,   395.544E-03,0.0423356,0.012774,1.43746e-06
12702,-43.0,9.0,0.00020034099999999998,  -8.76870E-03,   64.4242E-03,   304.386E-03,0.0437193,0.0131884,1.27467e-06
12707,-44.0,9.0,0.000147746,  -5.57439E-03,   64.4241E-03,   224.619E-03,0.0449288,0.0135507,1.06697e-06
12710,-45.0,9.0,0.00010291799999999999,  -3.24950E-03,   64.4241E-03,   156.567E-03,0.0459591,0.0138593,8.31894e-07
12711,-46.0,9.0,6.60257e-05,  -1.67123E-03,   64.4240E-03,   100.508E-03,0.0468061,0.0141131,5.91825e-07
12716,-47.0,9.0,3.72033e-05,  -704.956E-06,   64.4240E-03,   56.6686E-03,0.0474664,0.0143109,3.70766e-07
12717,-48.0,9.0,1.65523e-05,  -206.315E-06,   64.4240E-03,   25.2280E-03,0.0479373,0.0144521,1.91326e-07
12722,-49.0,9.0,4.14006e-06,  -23.5669E-06,   64.4240E-03,   6.31322E-03,0.0482171,0.014536,7.06148e-08
12725,-50.0,9.0,0.0,  -12.7588E-42,   64.4239E-03,           -0.,0.048309,0.0145635,2.65819e-08
12726,50.0,8.0,0.0,      -1.01048,   64.4229E-03,           -0.,0.0483092,0.0145638,-3.162e-08
12731,49.0,8.0,4.13556e-06,      -1.01046,   64.4229E-03,   6.31324E-03,0.0482173,0.0145362,-7.58632e-08
12732,48.0,8.0,1.6534300000000002e-05,      -1.01028,   64.4230E-03,   25.2281E-03,0.0479374,0.0144523,-1.88956e-07
12737,47.0,8.0,3.71629e-05,      -1.00978,   64.4230E-03,   56.6688E-03,0.0474664,0.0143112,-3.46337e-07
12740,46.0,8.0,6.595409999999999e-05,      -1.00881,   64.4230E-03,   100.508E-03,0.0468061,0.0141133,-5.35378e-07
12741,45.0,8.0,0.00010280700000000001,      -1.00723,   64.4230E-03,   156.568E-03,0.045959,0.0138595,-7.38907e-07
12746,44.0,8.0,0.000147586,      -1.00491,   64.4231E-03,   224.620E-03,0.0449287,0.0135508,-9.37833e-07
12747,43.0,8.0,0.000200126,      -1.00171,   64.4231E-03,   304.387E-03,0.0437193,0.0131885,-1.11435e-06
12752,42.0,8.0,0.000260226,  -997.540E-03,   64.4232E-03,   395.545E-03,0.0423355,0.012774,-1.25403e-06
12755,41.0,8.0,0.000327657,  -992.296E-03,   64.4232E-03,   497.725E-03,0.040783,0.0123089,-1.34766e-06
12756,40.0,8.0,0.000402158,  -985.903E-03,   64.4233E-03,   610.512E-03,0.0390679,0.0117951,-1.39173e-06
12761,39.0,8.0,0.00048344,  -978.303E-03,   64.4234E-03,   733.451E-03,0.0371973,0.0112346,-1.38834e-06
12762,38.0,8.0,0.000571186,  -969.458E-03,   64.4234E-03,   866.048E-03,0.0351785,0.0106297,-1.34413e-06
12767,37.0,8.0,0.000665053,  -959.347E-03,   64.4235E-03,       1.00777,0.0330196,0.00998262,-1.26883e-06
12770,36.0,8.0,0.0007646710000000001,  -947.972E-03,   64.4236E-03,       1.15805,0.0307293,0.00929607,-1.17345e-06
12771,35.0,8.0,0.00086965,  -935.352E-03,   64.4236E-03,       1.31629,0.0283167,0.00857273,-1.06853e-06
12776,34.0,8.0,0.000979576,  -921.529E-03,   64.4236E-03,       1.48186,0.0257914,0.0078155,-9.62691e-07
12777,33.0,8.0,0.00109402,  -906.559E-03,   64.4237E-03,       1.65410,0.0231634,0.00702738,-8.61495e-07
12782,32.0,8.0,0.00121252,  -890.522E-03,   64.4237E-03,       1.83234,0.0204432,0.00621151,-7.67003e-07
12785,31.0,8.0,0.00133461,  -873.510E-03,   64.4237E-03,       2.01586,0.0176415,0.0053711,-6.77736e-07
12786,30.0,8.0,0.00145982,  -855.632E-03,   64.4237E-03,       2.20396,0.0147694,0.0045095,-5.89244e-07
12791,29.0,8.0,0.00158764,  -837.012E-03,   64.4237E-03,       2.39590,0.0118381,0.00363011,-4.94968e-07
12792,28.0,8.0,0.00171757,  -817.782E-03,   64.4237E-03,       2.59092,0.00885936,0.0027364,-3.87405e-07
12797,27.0,8.0,0.00184909,  -798.087E-03,   64.4237E-03,       2.78826,0.00584478,0.00183188,-2.59274e-07
12800,26.0,8.0,0.00198169,  -778.077E-03,   64.4236E-03,       2.98715,0.00280624,0.00092012,-1.04658e-07
12801,25.0,8.0,0.00211484,  -757.909E-03,   64.4236E-03,       3.18682,-0.000244321,4.70955e-06,8.01047e-08
12806,24.0,8.0,0.00224801,  -737.740E-03,   64.4236E-03,       3.38650,-0.0032949,-0.000910749,2.95785e-07
12807,23.0,8.0,0.00238067,  -717.729E-03,   64.4235E-03,       3.58540,-0.00633352,-0.00182265,5.39992e-07
12812,22.0,8.0,0.00251231,  -698.032E-03,   64.4235E-03,       3.78275,-0.00934822,-0.0027274,8.07203e-07
12815,21.0,8.0,0.00264239,  -678.800E-03,   64.4235E-03,       3.97778,-0.0123272,-0.00362142,1.08914e-06
12816,20.0,8.0,0.00277041,  -660.176E-03,   64.4234E-03,       4.16973,-0.0152587,-0.0045012,1.37534e-06
12821,19.0,8.0,0.00289585,  -642.294E-03,   64.4234E-03,       4.35785,-0.0181311,-0.00536325,1.65399e-06
12822,18.0,8.0,0.00301822,  -625.278E-03,   64.4234E-03,       4.54140,-0.0209333,-0.00620418,1.91276e-06
12827,17.0,8.0,0.00313703,  -609.235E-03,   64.4234E-03,       4.71967,-0.0236541,-0.00702066,2.13975e-06
12830,16.0,8.0,0.00325182,  -594.260E-03,   64.4234E-03,       4.89194,-0.0262828,-0.00780947,2.32436e-06
12831,15.0,8.0,0.00336212,  -580.431E-03,   64.4234E-03,       5.05754,-0.028809,-0.0085675,2.45806e-06
12836,14.0,8.0,0.00346751,  -567.805E-03,   64.4234E-03,       5.21582,-0.0312229,-0.00929176,2.53502e-06
12837,13.0,8.0,0.00356757,  -556.423E-03,   64.4234E-03,       5.36614,-0.0335147,-0.0099794,2.55248e-06
12842,12.0,8.0,0.00366189,  -546.306E-03,   64.4235E-03,       5.50791,-0.0356755,-0.0106277,2.51093e-06
12845,11.0,8.0,0.00375011,  -537.454E-03,   64.4235E-03,       5.64055,-0.0376967,-0.0112341,2.41404e-06
12846,10.0,8.0,0.00383188,  -529.848E-03,   64.4235E-03,       5.76354,-0.0395702,-0.0117963,2.26824e-06
12851,9.0,8.0,0.00390687,  -523.450E-03,   64.4235E-03,       5.87638,-0.0412886,-0.0123119,2.08218e-06
12852,8.0,8.0,0.00397478,  -518.200E-03,   64.4235E-03,       5.97861,-0.0428451,-0.012779,1.86584e-06
12857,7.0,8.0,0.00403536,  -514.022E-03,   64.4235E-03,       6.06982,-0.0442335,-0.0131956,1.62963e-06
12860,6.0,8.0,0.00408835,  -510.824E-03,   64.4235E-03,       6.14964,-0.0454482,-0.0135602,1.38342e-06
12861,5.0,8.0,0.00413354,  -508.496E-03,   64.4235E-03,       6.21774,-0.0464844,-0.0138712,1.1356e-06
12866,4.0,8.0,0.00417077,  -506.915E-03,   64.4235E-03,       6.27384,-0.0473379,-0.0141274,8.92419e-07
12867,3.0,8.0,0.00419988,  -505.947E-03,   64.4234E-03,       6.31771,-0.0480053,-0.0143278,6.575e-07
12872,2.0,8.0,0.00422075,  -505.448E-03,   64.4234E-03,       6.34918,-0.048484,-0.0144715,4.31769e-07
12875,1.0,8.0,0.00423331,  -505.265E-03,   64.4234E-03,       6.36812,-0.0487719,-0.014558,2.13718e-07
12876,-3.6545699999999994e-30,8.0,0.0042375,  -505.241E-03,   64.4234E-03,       6.37444,-0.048868,-0.0145869,1.77636e-15
12881,-1.0,8.0,0.00423331,  -505.217E-03,   64.4234E-03,       6.36812,-0.0487719,-0.014558,-2.13718e-07
12882,-2.0,8.0,0.00422075,  -505.034E-03,   64.4234E-03,       6.34918,-0.048484,-0.0144715,-4.31769e-07
12887,-3.0,8.0,0.00419988,  -504.535E-03,   64.4234E-03,       6.31771,-0.0480053,-0.0143278,-6.575e-07
12890,-4.0,8.0,0.00417077,  -503.567E-03,   64.4235E-03,       6.27384,-0.0473379,-0.0141274,-8.92419e-07
12891,-5.0,8.0,0.00413354,  -501.986E-03,   64.4235E-03,       6.21774,-0.0464844,-0.0138712,-1.1356e-06
12896,-6.0,8.0,0.00408835,  -499.658E-03,   64.4235E-03,       6.14964,-0.0454482,-0.0135602,-1.38342e-06
12897,-7.0,8.0,0.00403536,  -496.460E-03,   64.4235E-03,       6.06982,-0.0442335,-0.0131956,-1.62963e-06
12902,-8.0,8.0,0.00397478,  -492.282E-03,   64.4235E-03,       5.97861,-0.0428451,-0.012779,-1.86584e-06
12905,-9.0,8.0,0.00390687,  -487.032E-03,   64.4235E-03,       5.87638,-0.0412886,-0.0123119,-2.08218e-06
12906,-10.0,8.0,0.00383188,  -480.633E-03,   64.4235E-03,       5.76354,-0.0395702,-0.0117963,-2.26824e-06
12911,-11.0,8.0,0.00375011,  -473.028E-03,   64.4235E-03,       5.64055,-0.0376967,-0.0112341,-2.41404e-06
12912,-12.0,8.0,0.00366189,  -464.176E-03,   64.4235E-03,       5.50791,-0.0356755,-0.0106277,-2.51093e-06
12917,-13.0,8.0,0.00356757,  -454.059E-03,   64.4234E-03,       5.36614,-0.0335147,-0.0099794,-2.55248e-06
12920,-14.0,8.0,0.00346751,  -442.677E-03,   64.4234E-03,       5.21582,-0.0312229,-0.00929176,-2.53502e-06
12921,-15.0,8.0,0.00336212,  -430.051E-03,   64.4234E-03,       5.05754,-0.028809,-0.0085675,-2.45806e-06
12926,-16.0,8.0,0.00325182,  -416.221E-03,   64.4234E-03,       4.89194,-0.0262828,-0.00780947,-2.32436e-06
12927,-17.0,8.0,0.00313703,  -401.247E-03,   64.4234E-03,       4.71967,-0.0236541,-0.00702066,-2.13975e-06
12932,-18.0,8.0,0.00301822,  -385.204E-03,   64.4234E-03,       4.54140,-0.0209333,-0.00620418,-1.91276e-06
12935,-19.0,8.0,0.00289585,  -368.188E-03,   64.4234E-03,       4.35785,-0.0181311,-0.00536325,-1.65399e-06
12936,-20.0,8.0,0.00277041,  -350.306E-03,   64.4234E-03,       4.16973,-0.0152587,-0.0045012,-1.37534e-06
12941,-21.0,8.0,0.00264239,  -331.682E-03,   64.4235E-03,       3.97778,-0.0123272,-0.00362142,-1.08914e-06
12942,-22.0,8.0,0.00251231,  -312.449E-03,   64.4235E-03,       3.78275,-0.00934822,-0.0027274,-8.07203e-07
12947,-23.0,8.0,0.00238067,  -292.752E-03,   64.4235E-03,       3.58540,-0.00633352,-0.00182265,-5.39992e-07
12950,-24.0,8.0,0.00224801,  -272.742E-03,   64.4236E-03,       3.38650,-0.0032949,-0.000910749,-2.95785e-07
12951,-25.0,8.0,0.00211484,  -252.573E-03,   64.4236E-03,       3.18682,-0.000244321,4.70955e-06,-8.01047e-08
12956,-26.0,8.0,0.00198169,  -232.405E-03,   64.4236E-03,       2.98715,0.00280624,0.00092012,1.04658e-07
12957,-27.0,8.0,0.00184909,  -212.395E-03,   64.4237E-03,       2.78826,0.00584478,0.00183188,2.59274e-07
12962,-28.0,8.0,0.00171757,  -192.700E-03,   64.4237E-03,       2.59092,0.00885936,0.0027364,3.87405e-07
12965,-29.0,8.0,0.00158764,  -173.470E-03,   64.4237E-03,       2.39590,0.0118381,0.00363011,4.94968e-07
12966,-30.0,8.0,0.00145982,  -154.849E-03,   64.4237E-03,       2.20396,0.0147694,0.0045095,5.89243e-07
12971,-31.0,8.0,0.00133461,  -136.972E-03,   64.4237E-03,       2.01586,0.0176415,0.0053711,6.77736e-07
12972,-32.0,8.0,0.00121252,  -119.960E-03,   64.4237E-03,       1.83234,0.0204432,0.00621151,7.67004e-07
12977,-33.0,8.0,0.00109402,  -103.922E-03,   64.4237E-03,       1.65410,0.0231634,0.00702738,8.61495e-07
12980,-34.0,8.0,0.000979576,  -88.9532E-03,   64.4236E-03,       1.48186,0.0257914,0.0078155,9.62691e-07
12981,-35.0,8.0,0.00086965,  -75.1294E-03,   64.4236E-03,       1.31629,0.0283167,0.00857273,1.06853e-06
12986,-36.0,8.0,0.0007646710000000001,  -62.5098E-03,   64.4236E-03,       1.15805,0.0307293,0.00929607,1.17345e-06
12987,-37.0,8.0,0.000665053,  -51.1344E-03,   64.4235E-03,       1.00777,0.0330196,0.00998262,1.26883e-06
12992,-38.0,8.0,0.000571186,  -41.0239E-03,   64.4234E-03,   866.048E-03,0.0351785,0.0106297,1.34413e-06
12995,-39.0,8.0,0.00048344,  -32.1785E-03,   64.4234E-03,   733.451E-03,0.0371973,0.0112346,1.38834e-06
12996,-40.0,8.0,0.000402158,  -24.5790E-03,   64.4233E-03,   610.512E-03,0.0390679,0.0117951,1.39173e-06
13001,-41.0,8.0,0.000327657,  -18.1860E-03,   64.4232E-03,   497.725E-03,0.040783,0.0123089,1.34766e-06
13002,-42.0,8.0,0.000260226,  -12.9414E-03,   64.4232E-03,   395.545E-03,0.0423355,0.012774,1.25403e-06
13007,-43.0,8.0,0.000200126,  -8.76872E-03,   64.4231E-03,   304.387E-03,0.0437193,0.0131885,1.11435e-06
13010,-44.0,8.0,0.000147586,  -5.57440E-03,   64.4231E-03,   224.620E-03,0.0449287,0.0135508,9.37833e-07
13011,-45.0,8.0,0.00010280700000000001,  -3.24951E-03,   64.4230E-03,   156.568E-03,0.045959,0.0138595,7.38907e-07
13016,-46.0,8.0,6.595409999999999e-05,  -1.67124E-03,   64.4230E-03,   100.508E-03,0.0468061,0.0141133,5.35378e-07
13017,-47.0,8.0,3.71629e-05,  -704.962E-06,   64.4230E-03,   56.6688E-03,0.0474664,0.0143112,3.46337e-07
13022,-48.0,8.0,1.6534300000000002e-05,  -206.317E-06,   64.4230E-03,   25.2281E-03,0.0479374,0.0144523,1.88955e-07
13025,-49.0,8.0,4.13556e-06,  -23.5677E-06,   64.4229E-03,   6.31324E-03,0.0482173,0.0145362,7.5863e-08
13026,-50.0,8.0,0.0,  -12.7574E-42,   64.4229E-03,           -0.,0.0483092,0.0145638,3.16199e-08
13031,50.0,7.0,0.0,      -1.01048,   64.4219E-03,           -0.,0.0483094,0.0145641,-3.33324e-08
13032,49.0,7.0,4.13164e-06,      -1.01046,   64.4219E-03,   6.31327E-03,0.0482174,0.0145365,-7.59354e-08
13037,48.0,7.0,1.6518599999999998e-05,      -1.01028,   64.4219E-03,   25.2282E-03,0.0479375,0.0144526,-1.79054e-07
13040,47.0,7.0,3.71276e-05,      -1.00978,   64.4220E-03,   56.6689E-03,0.0474665,0.0143114,-3.14989e-07
13041,46.0,7.0,6.589149999999999e-05,      -1.00881,   64.4220E-03,   100.508E-03,0.0468061,0.0141135,-4.74819e-07
13046,45.0,7.0,0.000102709,      -1.00723,   64.4220E-03,   156.568E-03,0.045959,0.0138596,-6.45398e-07
13047,44.0,7.0,0.000147447,      -1.00491,   64.4220E-03,   224.620E-03,0.0449287,0.013551,-8.11984e-07
13052,43.0,7.0,0.00019993799999999998,      -1.00171,   64.4221E-03,   304.387E-03,0.0437192,0.0131886,-9.60317e-07
13055,42.0,7.0,0.000259983,  -997.540E-03,   64.4221E-03,   395.546E-03,0.0423354,0.0127741,-1.07882e-06
13056,41.0,7.0,0.000327352,  -992.296E-03,   64.4222E-03,   497.725E-03,0.0407829,0.0123089,-1.15979e-06
13061,40.0,7.0,0.000401786,  -985.903E-03,   64.4222E-03,   610.512E-03,0.0390679,0.0117951,-1.2001e-06
13062,39.0,7.0,0.00048299599999999997,  -978.303E-03,   64.4223E-03,   733.452E-03,0.0371972,0.0112346,-1.20106e-06
13067,38.0,7.0,0.000570665,  -969.458E-03,   64.4224E-03,   866.049E-03,0.0351784,0.0106296,-1.16771e-06
13070,37.0,7.0,0.00066445,  -959.347E-03,   64.4224E-03,       1.00777,0.0330196,0.00998248,-1.10762e-06
13071,36.0,7.0,0.000763984,  -947.972E-03,   64.4225E-03,       1.15805,0.0307293,0.00929592,-1.02951e-06
13076,35.0,7.0,0.000868874,  -935.353E-03,   64.4225E-03,       1.31629,0.0283167,0.00857258,-9.41843e-07
13077,34.0,7.0,0.000978709,  -921.529E-03,   64.4225E-03,       1.48186,0.0257914,0.00781536,-8.51615e-07
13082,33.0,7.0,0.00109306,  -906.560E-03,   64.4226E-03,       1.65410,0.0231634,0.00702725,-7.63489e-07
13085,32.0,7.0,0.00121146,  -890.522E-03,   64.4226E-03,       1.83234,0.0204432,0.00621139,-6.79308e-07
13086,31.0,7.0,0.00133346,  -873.510E-03,   64.4226E-03,       2.01586,0.0176415,0.005371,-5.98132e-07
13091,30.0,7.0,0.00145857,  -855.633E-03,   64.4226E-03,       2.20396,0.0147694,0.00450941,-5.16585e-07
13092,29.0,7.0,0.00158629,  -837.012E-03,   64.4226E-03,       2.39590,0.0118382,0.00363003,-4.29597e-07
13097,28.0,7.0,0.00171612,  -817.782E-03,   64.4226E-03,       2.59091,0.00885941,0.00273632,-3.31272e-07
13100,27.0,7.0,0.00184755,  -798.087E-03,   64.4226E-03,       2.78826,0.00584486,0.00183181,-2.15881e-07
13101,26.0,7.0,0.00198005,  -778.077E-03,   64.4225E-03,       2.98715,0.00280636,0.000920058,-7.87472e-08
13106,25.0,7.0,0.0021131,  -757.909E-03,   64.4225E-03,       3.18682,-0.00024416,4.65287e-06,8.2988e-08
13107,24.0,7.0,0.00224617,  -737.741E-03,   64.4225E-03,       3.38650,-0.0032947,-0.000910801,2.69869e-07
13112,23.0,7.0,0.00237875,  -717.730E-03,   64.4224E-03,       3.58540,-0.00633329,-0.0018227,4.79865e-07
13115,22.0,7.0,0.00251029,  -698.033E-03,   64.4224E-03,       3.78275,-0.00934797,-0.00272744,7.08419e-07
13116,21.0,7.0,0.00264028,  -678.800E-03,   64.4224E-03,       3.97778,-0.0123269,-0.00362146,9.48712e-07
13121,20.0,7.0,0.00276821,  -660.176E-03,   64.4224E-03,       4.16973,-0.0152584,-0.00450124,1.19217e-06
13122,19.0,7.0,0.00289356,  -642.295E-03,   64.4223E-03,       4.35785,-0.0181309,-0.00536329,1.42909e-06
13127,18.0,7.0,0.00301585,  -625.278E-03,   64.4223E-03,       4.54140,-0.0209331,-0.00620422,1.64938e-06
13130,17.0,7.0,0.00313458,  -609.235E-03,   64.4223E-03,       4.71967,-0.0236539,-0.0070207,1.84327e-06
13131,16.0,7.0,0.0032493,  -594.261E-03,   64.4223E-03,       4.89194,-0.0262827,-0.00780952,2.00206e-06
13136,15.0,7.0,0.00335953,  -580.431E-03,   64.4223E-03,       5.05754,-0.028809,-0.00856755,2.1187e-06
13137,14.0,7.0,0.00346485,  -567.805E-03,   64.4223E-03,       5.21582,-0.0312229,-0.00929182,2.18831e-06
13142,13.0,7.0,0.00356484,  -556.423E-03,   64.4224E-03,       5.36614,-0.0335148,-0.00997945,2.20846e-06
13145,12.0,7.0,0.00365911,  -546.306E-03,   64.4224E-03,       5.50791,-0.0356757,-0.0106278,2.17933e-06
13146,11.0,7.0,0.00374727,  -537.454E-03,   64.4224E-03,       5.64056,-0.0376969,-0.0112342,2.1036e-06
13151,10.0,7.0,0.00382898,  -529.848E-03,   64.4224E-03,       5.76355,-0.0395704,-0.0117963,1.98616e-06
13152,9.0,7.0,0.00390393,  -523.450E-03,   64.4224E-03,       5.87638,-0.0412889,-0.0123119,1.83367e-06
13157,8.0,7.0,0.0039718,  -518.200E-03,   64.4224E-03,       5.97862,-0.0428454,-0.0127789,1.65387e-06
13160,7.0,7.0,0.00403233,  -514.022E-03,   64.4224E-03,       6.06983,-0.0442337,-0.0131956,1.45491e-06
13161,6.0,7.0,0.00408529,  -510.824E-03,   64.4224E-03,       6.14964,-0.0454484,-0.0135601,1.2446e-06
13166,5.0,7.0,0.00413046,  -508.496E-03,   64.4224E-03,       6.21774,-0.0464845,-0.0138711,1.02967e-06
13167,4.0,7.0,0.00416766,  -506.915E-03,   64.4224E-03,       6.27384,-0.0473379,-0.0141273,8.15301e-07
13172,3.0,7.0,0.00419675,  -505.947E-03,   64.4224E-03,       6.31772,-0.0480053,-0.0143276,6.04747e-07
13175,2.0,7.0,0.00421761,  -505.448E-03,   64.4224E-03,       6.34919,-0.0484839,-0.0144713,3.99267e-07
13176,1.0,7.0,0.00423016,  -505.265E-03,   64.4224E-03,       6.36812,-0.0487718,-0.0145577,1.98318e-07
13181,5.0166e-30,7.0,0.00423435,  -505.241E-03,   64.4223E-03,       6.37444,-0.0488679,-0.0145866,-3.55271e-15
13182,-1.0,7.0,0.00423016,  -505.217E-03,   64.4224E-03,       6.36812,-0.0487718,-0.0145577,-1.98318e-07
13187,-2.0,7.0,0.00421761,  -505.034E-03,   64.4224E-03,       6.34919,-0.0484839,-0.0144713,-3.99267e-07
13190,-3.0,7.0,0.00419675,  -504.535E-03,   64.4224E-03,       6.31772,-0.0480053,-0.0143276,-6.04747e-07
13191,-4.0,7.0,0.00416766,  -503.567E-03,   64.4224E-03,       6.27384,-0.0473379,-0.0141273,-8.15301e-07
13196,-5.0,7.0,0.00413046,  -501.986E-03,   64.4224E-03,       6.21774,-0.0464845,-0.0138711,-1.02967e-06
13197,-6.0,7.0,0.00408529,  -499.658E-03,   64.4224E-03,       6.14964,-0.0454484,-0.0135601,-1.2446e-06
13202,-7.0,7.0,0.00403233,  -496.460E-03,   64.4224E-03,       6.06983,-0.0442337,-0.0131956,-1.45491e-06
13205,-8.0,7.0,0.0039718,  -492.282E-03,   64.4224E-03,       5.97862,-0.0428454,-0.0127789,-1.65387e-06
13206,-9.0,7.0,0.00390393,  -487.032E-03,   64.4224E-03,       5.87638,-0.0412889,-0.0123119,-1.83367e-06
13211,-10.0,7.0,0.00382898,  -480.633E-03,   64.4224E-03,       5.76355,-0.0395704,-0.0117963,-1.98616e-06
13212,-11.0,7.0,0.00374727,  -473.028E-03,   64.4224E-03,       5.64056,-0.0376969,-0.0112342,-2.1036e-06
13217,-12.0,7.0,0.00365911,  -464.176E-03,   64.4224E-03,       5.50791,-0.0356757,-0.0106278,-2.17933e-06
13220,-13.0,7.0,0.00356484,  -454.059E-03,   64.4224E-03,       5.36614,-0.0335148,-0.00997945,-2.20846e-06
13221,-14.0,7.0,0.00346485,  -442.677E-03,   64.4223E-03,       5.21582,-0.0312229,-0.00929182,-2.18831e-06
13226,-15.0,7.0,0.00335953,  -430.051E-03,   64.4223E-03,       5.05754,-0.028809,-0.00856755,-2.1187e-06
13227,-16.0,7.0,0.0032493,  -416.221E-03,   64.4223E-03,       4.89194,-0.0262827,-0.00780952,-2.00206e-06
13232,-17.0,7.0,0.00313458,  -401.246E-03,   64.4223E-03,       4.71967,-0.0236539,-0.0070207,-1.84327e-06
13235,-18.0,7.0,0.00301585,  -385.204E-03,   64.4223E-03,       4.54140,-0.0209331,-0.00620422,-1.64938e-06
13236,-19.0,7.0,0.00289356,  -368.187E-03,   64.4223E-03,       4.35785,-0.0181309,-0.00536329,-1.42909e-06
13241,-20.0,7.0,0.00276821,  -350.305E-03,   64.4224E-03,       4.16973,-0.0152584,-0.00450124,-1.19217e-06
13242,-21.0,7.0,0.00264028,  -331.681E-03,   64.4224E-03,       3.97778,-0.0123269,-0.00362146,-9.48712e-07
13247,-22.0,7.0,0.00251029,  -312.449E-03,   64.4224E-03,       3.78275,-0.00934797,-0.00272744,-7.08419e-07
13250,-23.0,7.0,0.00237875,  -292.752E-03,   64.4224E-03,       3.58540,-0.00633329,-0.0018227,-4.79866e-07
13251,-24.0,7.0,0.00224617,  -272.741E-03,   64.4225E-03,       3.38650,-0.0032947,-0.000910801,-2.69869e-07
13256,-25.0,7.0,0.0021131,  -252.573E-03,   64.4225E-03,       3.18682,-0.00024416,4.65287e-06,-8.2988e-08
13257,-26.0,7.0,0.00198005,  -232.404E-03,   64.4225E-03,       2.98715,0.00280636,0.000920058,7.87472e-08
13262,-27.0,7.0,0.00184755,  -212.395E-03,   64.4226E-03,       2.78826,0.00584486,0.00183181,2.15881e-07
13265,-28.0,7.0,0.00171612,  -192.700E-03,   64.4226E-03,       2.59091,0.00885941,0.00273632,3.31272e-07
13266,-29.0,7.0,0.00158629,  -173.470E-03,   64.4226E-03,       2.39590,0.0118382,0.00363003,4.29597e-07
13271,-30.0,7.0,0.00145857,  -154.849E-03,   64.4226E-03,       2.20396,0.0147694,0.00450941,5.16585e-07
13272,-31.0,7.0,0.00133346,  -136.972E-03,   64.4226E-03,       2.01586,0.0176415,0.005371,5.98132e-07
13277,-32.0,7.0,0.00121146,  -119.960E-03,   64.4226E-03,       1.83234,0.0204432,0.00621139,6.79308e-07
13280,-33.0,7.0,0.00109306,  -103.922E-03,   64.4226E-03,       1.65410,0.0231634,0.00702725,7.63489e-07
13281,-34.0,7.0,0.000978709,  -88.9531E-03,   64.4225E-03,       1.48186,0.0257914,0.00781536,8.51615e-07
13286,-35.0,7.0,0.000868874,  -75.1293E-03,   64.4225E-03,       1.31629,0.0283167,0.00857258,9.41843e-07
13287,-36.0,7.0,0.000763984,  -62.5097E-03,   64.4225E-03,       1.15805,0.0307293,0.00929592,1.02951e-06
13292,-37.0,7.0,0.00066445,  -51.1344E-03,   64.4224E-03,       1.00777,0.0330196,0.00998248,1.10762e-06
13295,-38.0,7.0,0.000570665,  -41.0238E-03,   64.4224E-03,   866.049E-03,0.0351784,0.0106296,1.16771e-06
13296,-39.0,7.0,0.00048299599999999997,  -32.1785E-03,   64.4223E-03,   733.452E-03,0.0371972,0.0112346,1.20106e-06
13301,-40.0,7.0,0.000401786,  -24.5790E-03,   64.4222E-03,   610.512E-03,0.0390679,0.0117951,1.2001e-06
13302,-41.0,7.0,0.000327352,  -18.1860E-03,   64.4222E-03,   497.725E-03,0.0407829,0.0123089,1.15979e-06
13307,-42.0,7.0,0.000259983,  -12.9415E-03,   64.4221E-03,   395.546E-03,0.0423354,0.0127741,1.07882e-06
13310,-43.0,7.0,0.00019993799999999998,  -8.76873E-03,   64.4221E-03,   304.387E-03,0.0437192,0.0131886,9.60317e-07
13311,-44.0,7.0,0.000147447,  -5.57442E-03,   64.4220E-03,   224.620E-03,0.0449287,0.013551,8.11984e-07
13316,-45.0,7.0,0.000102709,  -3.24952E-03,   64.4220E-03,   156.568E-03,0.045959,0.0138596,6.45398e-07
13317,-46.0,7.0,6.589149999999999e-05,  -1.67125E-03,   64.4220E-03,   100.508E-03,0.0468061,0.0141135,4.74819e-07
13322,-47.0,7.0,3.71276e-05,  -704.967E-06,   64.4220E-03,   56.6689E-03,0.0474665,0.0143114,3.14989e-07
13325,-48.0,7.0,1.6518599999999998e-05,  -206.320E-06,   64.4219E-03,   25.2282E-03,0.0479375,0.0144526,1.79054e-07
13326,-49.0,7.0,4.13164e-06,  -23.5685E-06,   64.4219E-03,   6.31327E-03,0.0482174,0.0145365,7.59353e-08
13331,-50.0,7.0,0.0,  -12.7560E-42,   64.4219E-03,           -0.,0.0483094,0.0145641,3.33323e-08
13332,50.0,6.0,0.0,      -1.01048,   64.4209E-03,           -0.,0.0483096,0.0145643,-3.27107e-08
13337,49.0,6.0,4.12828e-06,      -1.01046,   64.4209E-03,   6.31329E-03,0.0482176,0.0145367,-7.18209e-08
13340,48.0,6.0,1.65051e-05,      -1.01028,   64.4209E-03,   25.2282E-03,0.0479376,0.0144528,-1.63084e-07
13341,47.0,6.0,3.70973e-05,      -1.00978,   64.4209E-03,   56.6691E-03,0.0474665,0.0143116,-2.78287e-07
13346,46.0,6.0,6.58378e-05,      -1.00881,   64.4209E-03,   100.508E-03,0.0468061,0.0141136,-4.11144e-07
13347,45.0,6.0,0.000102626,      -1.00723,   64.4210E-03,   156.568E-03,0.045959,0.0138598,-5.51954e-07
13352,44.0,6.0,0.000147327,      -1.00491,   64.4210E-03,   224.620E-03,0.0449286,0.0135511,-6.89281e-07
13355,43.0,6.0,0.00019977599999999998,      -1.00171,   64.4210E-03,   304.388E-03,0.0437191,0.0131887,-8.12032e-07
13356,42.0,6.0,0.000259773,  -997.540E-03,   64.4211E-03,   395.546E-03,0.0423353,0.0127741,-9.10906e-07
13361,41.0,6.0,0.000327089,  -992.296E-03,   64.4211E-03,   497.726E-03,0.0407828,0.0123089,-9.79642e-07
13362,40.0,6.0,0.000401466,  -985.903E-03,   64.4212E-03,   610.513E-03,0.0390678,0.011795,-1.01549e-06
13367,39.0,6.0,0.000482613,  -978.303E-03,   64.4212E-03,   733.452E-03,0.0371972,0.0112345,-1.0192e-06
13370,38.0,6.0,0.000570215,  -969.458E-03,   64.4213E-03,   866.049E-03,0.0351784,0.0106294,-9.94525e-07
13371,37.0,6.0,0.0006639310000000001,  -959.347E-03,   64.4213E-03,       1.00777,0.0330196,0.00998236,-9.4727e-07
13376,36.0,6.0,0.0007633910000000001,  -947.972E-03,   64.4214E-03,       1.15805,0.0307293,0.00929579,-8.84254e-07
13377,35.0,6.0,0.0008682060000000001,  -935.353E-03,   64.4214E-03,       1.31629,0.0283167,0.00857246,-8.12164e-07
13382,34.0,6.0,0.000977962,  -921.529E-03,   64.4214E-03,       1.48186,0.0257914,0.00781524,-7.36621e-07
13383,33.0,6.0,0.00109223,  -906.560E-03,   64.4214E-03,       1.65410,0.0231634,0.00702713,-6.61431e-07
13388,32.0,6.0,0.00121055,  -890.522E-03,   64.4215E-03,       1.83234,0.0204432,0.00621128,-5.88238e-07
13389,31.0,6.0,0.00133247,  -873.510E-03,   64.4215E-03,       2.01586,0.0176415,0.0053709,-5.16459e-07
13394,30.0,6.0,0.00145749,  -855.633E-03,   64.4215E-03,       2.20396,0.0147694,0.00450933,-4.436e-07
13397,29.0,6.0,0.00158513,  -837.012E-03,   64.4215E-03,       2.39590,0.0118382,0.00362995,-3.65778e-07
13398,28.0,6.0,0.00171487,  -817.782E-03,   64.4215E-03,       2.59091,0.00885946,0.00273626,-2.78448e-07
13403,27.0,6.0,0.00184621,  -798.087E-03,   64.4214E-03,       2.78825,0.00584494,0.00183175,-1.77153e-07
13404,26.0,6.0,0.00197863,  -778.078E-03,   64.4214E-03,       2.98715,0.00280646,0.000920004,-5.8265e-08
13409,25.0,6.0,0.0021116,  -757.910E-03,   64.4214E-03,       3.18682,-0.000244022,4.60281e-06,8.04253e-08
13412,24.0,6.0,0.00224459,  -737.741E-03,   64.4214E-03,       3.38650,-0.00329453,-0.000910847,2.39275e-07
13413,23.0,6.0,0.00237708,  -717.730E-03,   64.4213E-03,       3.58540,-0.00633309,-0.00182274,4.16597e-07
13418,22.0,6.0,0.00250854,  -698.033E-03,   64.4213E-03,       3.78275,-0.00934776,-0.00272748,6.08673e-07
13419,21.0,6.0,0.00263846,  -678.801E-03,   64.4213E-03,       3.97778,-0.0123267,-0.0036215,8.09981e-07
13424,20.0,6.0,0.00276631,  -660.177E-03,   64.4213E-03,       4.16973,-0.0152582,-0.00450127,1.01358e-06
13427,19.0,6.0,0.00289159,  -642.295E-03,   64.4213E-03,       4.35785,-0.0181307,-0.00536333,1.21164e-06
13428,18.0,6.0,0.00301381,  -625.278E-03,   64.4212E-03,       4.54140,-0.0209329,-0.00620426,1.39599e-06
13433,17.0,6.0,0.00313247,  -609.236E-03,   64.4212E-03,       4.71967,-0.0236538,-0.00702074,1.55875e-06
13434,16.0,6.0,0.00324712,  -594.261E-03,   64.4212E-03,       4.89194,-0.0262826,-0.00780956,1.69286e-06
13439,15.0,6.0,0.00335729,  -580.431E-03,   64.4212E-03,       5.05755,-0.028809,-0.0085676,1.7926e-06
13442,14.0,6.0,0.00346255,  -567.805E-03,   64.4213E-03,       5.21582,-0.0312229,-0.00929186,1.85393e-06
13443,13.0,6.0,0.00356249,  -556.423E-03,   64.4213E-03,       5.36615,-0.0335149,-0.00997951,1.87478e-06
13448,12.0,6.0,0.0036567,  -546.306E-03,   64.4213E-03,       5.50791,-0.0356758,-0.0106278,1.85509e-06
13449,11.0,6.0,0.00374481,  -537.454E-03,   64.4213E-03,       5.64056,-0.0376971,-0.0112342,1.79679e-06
13454,10.0,6.0,0.00382648,  -529.848E-03,   64.4213E-03,       5.76355,-0.0395706,-0.0117963,1.70353e-06
13457,9.0,6.0,0.00390138,  -523.450E-03,   64.4213E-03,       5.87639,-0.0412891,-0.0123119,1.58034e-06
13458,8.0,6.0,0.00396922,  -518.200E-03,   64.4213E-03,       5.97862,-0.0428456,-0.0127789,1.43317e-06
13463,7.0,6.0,0.00402972,  -514.022E-03,   64.4213E-03,       6.06983,-0.0442339,-0.0131955,1.26828e-06
13464,6.0,6.0,0.00408265,  -510.824E-03,   64.4213E-03,       6.14965,-0.0454485,-0.01356,1.09174e-06
13469,5.0,6.0,0.00412779,  -508.496E-03,   64.4213E-03,       6.21774,-0.0464846,-0.013871,9.08905e-07
13472,4.0,6.0,0.00416497,  -506.915E-03,   64.4213E-03,       6.27385,-0.047338,-0.0141271,7.24001e-07
13473,3.0,6.0,0.00419405,  -505.947E-03,   64.4213E-03,       6.31772,-0.0480053,-0.0143274,5.3987e-07
13478,2.0,6.0,0.0042149,  -505.448E-03,   64.4213E-03,       6.34919,-0.0484839,-0.0144711,3.5792e-07
13479,1.0,6.0,0.00422744,  -505.265E-03,   64.4213E-03,       6.36812,-0.0487718,-0.0145575,1.78256e-07
13484,0.0,6.0,0.00423163,  -505.241E-03,   64.4213E-03,       6.37444,-0.0488679,-0.0145864,-8.88178e-15
13487,-1.0,6.0,0.00422744,  -505.217E-03,   64.4213E-03,       6.36812,-0.0487718,-0.0145575,-1.78256e-07
13488,-2.0,6.0,0.0042149,  -505.034E-03,   64.4213E-03,       6.34919,-0.0484839,-0.0144711,-3.5792e-07
13493,-3.0,6.0,0.00419405,  -504.535E-03,   64.4213E-03,       6.31772,-0.0480053,-0.0143274,-5.3987e-07
13494,-4.0,6.0,0.00416497,  -503.567E-03,   64.4213E-03,       6.27385,-0.047338,-0.0141271,-7.24001e-07
13499,-5.0,6.0,0.00412779,  -501.986E-03,   64.4213E-03,       6.21774,-0.0464846,-0.013871,-9.08905e-07
13502,-6.0,6.0,0.00408265,  -499.658E-03,   64.4213E-03,       6.14965,-0.0454485,-0.01356,-1.09174e-06
13503,-7.0,6.0,0.00402972,  -496.460E-03,   64.4213E-03,       6.06983,-0.0442339,-0.0131955,-1.26828e-06
13508,-8.0,6.0,0.00396922,  -492.282E-03,   64.4213E-03,       5.97862,-0.0428456,-0.0127789,-1.43317e-06
13509,-9.0,6.0,0.00390138,  -487.032E-03,   64.4213E-03,       5.87639,-0.0412891,-0.0123119,-1.58034e-06
13514,-10.0,6.0,0.00382648,  -480.633E-03,   64.4213E-03,       5.76355,-0.0395706,-0.0117963,-1.70353e-06
13517,-11.0,6.0,0.00374481,  -473.028E-03,   64.4213E-03,       5.64056,-0.0376971,-0.0112342,-1.79679e-06
13518,-12.0,6.0,0.0036567,  -464.176E-03,   64.4213E-03,       5.50791,-0.0356758,-0.0106278,-1.85509e-06
13523,-13.0,6.0,0.00356249,  -454.059E-03,   64.4213E-03,       5.36615,-0.0335149,-0.00997951,-1.87478e-06
13524,-14.0,6.0,0.00346255,  -442.677E-03,   64.4213E-03,       5.21582,-0.0312229,-0.00929186,-1.85393e-06
13529,-15.0,6.0,0.00335729,  -430.051E-03,   64.4212E-03,       5.05755,-0.028809,-0.0085676,-1.7926e-06
13532,-16.0,6.0,0.00324712,  -416.221E-03,   64.4212E-03,       4.89194,-0.0262826,-0.00780956,-1.69286e-06
13533,-17.0,6.0,0.00313247,  -401.246E-03,   64.4212E-03,       4.71967,-0.0236538,-0.00702074,-1.55875e-06
13538,-18.0,6.0,0.00301381,  -385.203E-03,   64.4212E-03,       4.54140,-0.0209329,-0.00620426,-1.39599e-06
13539,-19.0,6.0,0.00289159,  -368.187E-03,   64.4213E-03,       4.35785,-0.0181307,-0.00536333,-1.21164e-06
13544,-20.0,6.0,0.00276631,  -350.305E-03,   64.4213E-03,       4.16973,-0.0152582,-0.00450127,-1.01358e-06
13547,-21.0,6.0,0.00263846,  -331.681E-03,   64.4213E-03,       3.97778,-0.0123267,-0.0036215,-8.09981e-07
13548,-22.0,6.0,0.00250854,  -312.449E-03,   64.4213E-03,       3.78275,-0.00934776,-0.00272748,-6.08673e-07
13553,-23.0,6.0,0.00237708,  -292.751E-03,   64.4213E-03,       3.58540,-0.00633309,-0.00182274,-4.16597e-07
13554,-24.0,6.0,0.00224459,  -272.741E-03,   64.4214E-03,       3.38650,-0.00329453,-0.000910847,-2.39275e-07
13559,-25.0,6.0,0.0021116,  -252.572E-03,   64.4214E-03,       3.18682,-0.000244022,4.60281e-06,-8.04253e-08
13562,-26.0,6.0,0.00197863,  -232.404E-03,   64.4214E-03,       2.98715,0.00280646,0.000920004,5.8265e-08
13563,-27.0,6.0,0.00184621,  -212.395E-03,   64.4214E-03,       2.78825,0.00584494,0.00183175,1.77153e-07
13568,-28.0,6.0,0.00171487,  -192.699E-03,   64.4215E-03,       2.59091,0.00885946,0.00273626,2.78448e-07
13569,-29.0,6.0,0.00158513,  -173.470E-03,   64.4215E-03,       2.39590,0.0118382,0.00362995,3.65778e-07
13574,-30.0,6.0,0.00145749,  -154.849E-03,   64.4215E-03,       2.20396,0.0147694,0.00450933,4.436e-07
13577,-31.0,6.0,0.00133247,  -136.971E-03,   64.4215E-03,       2.01586,0.0176415,0.0053709,5.16459e-07
13578,-32.0,6.0,0.00121055,  -119.959E-03,   64.4215E-03,       1.83234,0.0204432,0.00621128,5.88238e-07
13583,-33.0,6.0,0.00109223,  -103.922E-03,   64.4214E-03,       1.65410,0.0231634,0.00702713,6.61431e-07
13584,-34.0,6.0,0.000977962,  -88.9530E-03,   64.4214E-03,       1.48186,0.0257914,0.00781524,7.36621e-07
13589,-35.0,6.0,0.0008682060000000001,  -75.1292E-03,   64.4214E-03,       1.31629,0.0283167,0.00857246,8.12164e-07
13592,-36.0,6.0,0.0007633910000000001,  -62.5096E-03,   64.4214E-03,       1.15805,0.0307293,0.00929579,8.84254e-07
13593,-37.0,6.0,0.0006639310000000001,  -51.1343E-03,   64.4213E-03,       1.00777,0.0330196,0.00998236,9.4727e-07
13598,-38.0,6.0,0.000570215,  -41.0238E-03,   64.4213E-03,   866.049E-03,0.0351784,0.0106294,9.94525e-07
13599,-39.0,6.0,0.000482613,  -32.1785E-03,   64.4212E-03,   733.452E-03,0.0371972,0.0112345,1.0192e-06
13604,-40.0,6.0,0.000401466,  -24.5790E-03,   64.4212E-03,   610.513E-03,0.0390678,0.011795,1.01549e-06
13607,-41.0,6.0,0.000327089,  -18.1861E-03,   64.4211E-03,   497.726E-03,0.0407828,0.0123089,9.79642e-07
13608,-42.0,6.0,0.000259773,  -12.9415E-03,   64.4211E-03,   395.546E-03,0.0423353,0.0127741,9.10906e-07
13613,-43.0,6.0,0.00019977599999999998,  -8.76874E-03,   64.4210E-03,   304.388E-03,0.0437191,0.0131887,8.12031e-07
13614,-44.0,6.0,0.000147327,  -5.57443E-03,   64.4210E-03,   224.620E-03,0.0449286,0.0135511,6.89281e-07
13619,-45.0,6.0,0.000102626,  -3.24953E-03,   64.4210E-03,   156.568E-03,0.045959,0.0138598,5.51954e-07
13622,-46.0,6.0,6.58378e-05,  -1.67126E-03,   64.4209E-03,   100.508E-03,0.0468061,0.0141136,4.11145e-07
13623,-47.0,6.0,3.70973e-05,  -704.972E-06,   64.4209E-03,   56.6691E-03,0.0474665,0.0143116,2.78287e-07
13628,-48.0,6.0,1.65051e-05,  -206.322E-06,   64.4209E-03,   25.2282E-03,0.0479376,0.0144528,1.63084e-07
13629,-49.0,6.0,4.12828e-06,  -23.5693E-06,   64.4209E-03,   6.31329E-03,0.0482176,0.0145367,7.18209e-08
13634,-50.0,6.0,0.0,  -12.7560E-42,   64.4209E-03,           -0.,0.0483096,0.0145643,3.27107e-08
13637,50.0,5.0,0.0,      -1.01048,   64.4199E-03,           -0.,0.0483097,0.0145644,-2.99502e-08
13638,49.0,5.0,4.12546e-06,      -1.01046,   64.4199E-03,   6.31330E-03,0.0482177,0.0145369,-6.43922e-08
13643,48.0,5.0,1.64938e-05,      -1.01028,   64.4199E-03,   25.2283E-03,0.0479377,0.0144529,-1.42359e-07
13644,47.0,5.0,3.70719e-05,      -1.00978,   64.4199E-03,   56.6692E-03,0.0474665,0.0143117,-2.3738e-07
13649,46.0,5.0,6.57927e-05,      -1.00881,   64.4199E-03,   100.509E-03,0.0468061,0.0141138,-3.45259e-07
13652,45.0,5.0,0.000102556,      -1.00723,   64.4199E-03,   156.568E-03,0.045959,0.0138599,-4.58826e-07
13653,44.0,5.0,0.00014722700000000002,      -1.00491,   64.4200E-03,   224.621E-03,0.0449286,0.0135512,-5.69529e-07
13658,43.0,5.0,0.00019964,      -1.00171,   64.4200E-03,   304.388E-03,0.0437191,0.0131887,-6.68771e-07
13659,42.0,5.0,0.00025959700000000003,  -997.540E-03,   64.4200E-03,   395.546E-03,0.0423353,0.0127741,-7.49326e-07
13664,41.0,5.0,0.00032686900000000003,  -992.296E-03,   64.4201E-03,   497.726E-03,0.0407828,0.0123089,-8.06153e-07
13667,40.0,5.0,0.000401196,  -985.903E-03,   64.4201E-03,   610.513E-03,0.0390678,0.011795,-8.36931e-07
13668,39.0,5.0,0.000482291,  -978.303E-03,   64.4201E-03,   733.453E-03,0.0371971,0.0112344,-8.42042e-07
13673,38.0,5.0,0.000569838,  -969.458E-03,   64.4202E-03,   866.049E-03,0.0351784,0.0106294,-8.24199e-07
13674,37.0,5.0,0.0006634939999999999,  -959.347E-03,   64.4202E-03,       1.00777,0.0330195,0.00998226,-7.87789e-07
13679,36.0,5.0,0.0007628919999999999,  -947.972E-03,   64.4203E-03,       1.15805,0.0307292,0.00929568,-7.38021e-07
13682,35.0,5.0,0.0008676430000000001,  -935.353E-03,   64.4203E-03,       1.31629,0.0283167,0.00857234,-6.80093e-07
13683,34.0,5.0,0.000977333,  -921.529E-03,   64.4203E-03,       1.48186,0.0257914,0.00781513,-6.18407e-07
13688,33.0,5.0,0.00109153,  -906.560E-03,   64.4203E-03,       1.65410,0.0231634,0.00702703,-5.56026e-07
13689,32.0,5.0,0.00120978,  -890.522E-03,   64.4203E-03,       1.83234,0.0204432,0.00621119,-4.94336e-07
13694,31.0,5.0,0.00133163,  -873.511E-03,   64.4203E-03,       2.01586,0.0176415,0.00537082,-4.33025e-07
13697,30.0,5.0,0.00145658,  -855.633E-03,   64.4203E-03,       2.20396,0.0147694,0.00450925,-3.70272e-07
13698,29.0,5.0,0.00158415,  -837.012E-03,   64.4203E-03,       2.39590,0.0118382,0.00362989,-3.03178e-07
13703,28.0,5.0,0.00171382,  -817.783E-03,   64.4203E-03,       2.59091,0.0088595,0.0027362,-2.28294e-07
13704,27.0,5.0,0.00184509,  -798.088E-03,   64.4203E-03,       2.78825,0.005845,0.0018317,-1.42231e-07
13709,26.0,5.0,0.00197744,  -778.078E-03,   64.4203E-03,       2.98715,0.00280655,0.000919956,-4.22216e-08
13712,25.0,5.0,0.00211033,  -757.910E-03,   64.4203E-03,       3.18682,-0.000243907,4.55968e-06,7.33963e-08
13713,24.0,5.0,0.00224326,  -737.741E-03,   64.4203E-03,       3.38650,-0.00329439,-0.000910886,2.04851e-07
13718,23.0,5.0,0.00237568,  -717.731E-03,   64.4202E-03,       3.58540,-0.00633293,-0.00182277,3.50767e-07
13719,22.0,5.0,0.00250707,  -698.034E-03,   64.4202E-03,       3.78275,-0.00934758,-0.00272751,5.08181e-07
13724,21.0,5.0,0.00263692,  -678.801E-03,   64.4202E-03,       3.97778,-0.0123265,-0.00362153,6.72708e-07
13727,20.0,5.0,0.00276471,  -660.177E-03,   64.4202E-03,       4.16973,-0.015258,-0.0045013,8.38857e-07
13728,19.0,5.0,0.00288993,  -642.295E-03,   64.4202E-03,       4.35785,-0.0181305,-0.00536336,1.00043e-06
13733,18.0,5.0,0.00301208,  -625.279E-03,   64.4202E-03,       4.54140,-0.0209327,-0.00620429,1.15096e-06
13734,17.0,5.0,0.00313069,  -609.236E-03,   64.4202E-03,       4.71967,-0.0236537,-0.00702077,1.28421e-06
13739,16.0,5.0,0.00324528,  -594.261E-03,   64.4202E-03,       4.89194,-0.0262825,-0.0078096,1.3946e-06
13742,15.0,5.0,0.0033554,  -580.431E-03,   64.4202E-03,       5.05755,-0.028809,-0.00856764,1.47756e-06
13743,14.0,5.0,0.00346061,  -567.805E-03,   64.4202E-03,       5.21583,-0.031223,-0.00929191,1.52984e-06
13748,13.0,5.0,0.0035605,  -556.423E-03,   64.4202E-03,       5.36615,-0.033515,-0.00997955,1.5497e-06
13749,12.0,5.0,0.00365467,  -546.306E-03,   64.4202E-03,       5.50792,-0.0356759,-0.0106278,1.53697e-06
13754,11.0,5.0,0.00374274,  -537.454E-03,   64.4202E-03,       5.64056,-0.0376972,-0.0112342,1.49298e-06
13757,10.0,5.0,0.00382437,  -529.848E-03,   64.4202E-03,       5.76355,-0.0395708,-0.0117963,1.4204e-06
13758,9.0,5.0,0.00389924,  -523.450E-03,   64.4202E-03,       5.87639,-0.0412892,-0.0123119,1.32298e-06
13763,8.0,5.0,0.00396704,  -518.200E-03,   64.4202E-03,       5.97862,-0.0428457,-0.0127789,1.20515e-06
13764,7.0,5.0,0.00402751,  -514.022E-03,   64.4202E-03,       6.06983,-0.044234,-0.0131955,1.07165e-06
13769,6.0,5.0,0.00408042,  -510.824E-03,   64.4202E-03,       6.14965,-0.0454486,-0.0135599,9.27126e-07
13772,5.0,5.0,0.00412554,  -508.496E-03,   64.4202E-03,       6.21775,-0.0464846,-0.0138709,7.75727e-07
13773,4.0,5.0,0.00416271,  -506.915E-03,   64.4202E-03,       6.27385,-0.047338,-0.014127,6.20829e-07
13778,3.0,5.0,0.00419177,  -505.947E-03,   64.4202E-03,       6.31772,-0.0480053,-0.0143273,4.64843e-07
13779,2.0,5.0,0.00421261,  -505.448E-03,   64.4202E-03,       6.34919,-0.0484838,-0.0144709,3.0917e-07
13784,1.0,5.0,0.00422514,  -505.265E-03,   64.4202E-03,       6.36813,-0.0487717,-0.0145573,1.54293e-07
13787,-9.48563e-30,5.0,0.00422933,  -505.241E-03,   64.4202E-03,       6.37445,-0.0488678,-0.0145862,-1.59872e-14
13788,-1.0,5.0,0.00422514,  -505.217E-03,   64.4202E-03,       6.36813,-0.0487717,-0.0145573,-1.54293e-07
13793,-2.0,5.0,0.00421261,  -505.034E-03,   64.4202E-03,       6.34919,-0.0484838,-0.0144709,-3.0917e-07
13794,-3.0,5.0,0.00419177,  -504.535E-03,   64.4202E-03,       6.31772,-0.0480053,-0.0143273,-4.64843e-07
13799,-4.0,5.0,0.00416271,  -503.567E-03,   64.4202E-03,       6.27385,-0.047338,-0.014127,-6.20829e-07
13802,-5.0,5.0,0.00412554,  -501.986E-03,   64.4202E-03,       6.21775,-0.0464846,-0.0138709,-7.75727e-07
13803,-6.0,5.0,0.00408042,  -499.658E-03,   64.4202E-03,       6.14965,-0.0454486,-0.0135599,-9.27126e-07
13808,-7.0,5.0,0.00402751,  -496.460E-03,   64.4202E-03,       6.06983,-0.044234,-0.0131955,-1.07165e-06
13809,-8.0,5.0,0.00396704,  -492.282E-03,   64.4202E-03,       5.97862,-0.0428457,-0.0127789,-1.20515e-06
13814,-9.0,5.0,0.00389924,  -487.032E-03,   64.4202E-03,       5.87639,-0.0412892,-0.0123119,-1.32298e-06
13817,-10.0,5.0,0.00382437,  -480.633E-03,   64.4202E-03,       5.76355,-0.0395708,-0.0117963,-1.4204e-06
13818,-11.0,5.0,0.00374274,  -473.028E-03,   64.4202E-03,       5.64056,-0.0376972,-0.0112342,-1.49298e-06
13823,-12.0,5.0,0.00365467,  -464.176E-03,   64.4202E-03,       5.50792,-0.0356759,-0.0106278,-1.53697e-06
13824,-13.0,5.0,0.0035605,  -454.058E-03,   64.4202E-03,       5.36615,-0.033515,-0.00997955,-1.5497e-06
13829,-14.0,5.0,0.00346061,  -442.677E-03,   64.4202E-03,       5.21583,-0.031223,-0.00929191,-1.52984e-06
13832,-15.0,5.0,0.0033554,  -430.051E-03,   64.4202E-03,       5.05755,-0.028809,-0.00856764,-1.47756e-06
13833,-16.0,5.0,0.00324528,  -416.221E-03,   64.4202E-03,       4.89194,-0.0262825,-0.0078096,-1.3946e-06
13838,-17.0,5.0,0.00313069,  -401.246E-03,   64.4202E-03,       4.71967,-0.0236537,-0.00702077,-1.28421e-06
13839,-18.0,5.0,0.00301208,  -385.203E-03,   64.4202E-03,       4.54140,-0.0209327,-0.00620429,-1.15096e-06
13844,-19.0,5.0,0.00288993,  -368.186E-03,   64.4202E-03,       4.35785,-0.0181305,-0.00536336,-1.00043e-06
13847,-20.0,5.0,0.00276471,  -350.305E-03,   64.4202E-03,       4.16973,-0.015258,-0.0045013,-8.38857e-07
13848,-21.0,5.0,0.00263692,  -331.681E-03,   64.4202E-03,       3.97778,-0.0123265,-0.00362153,-6.72708e-07
13853,-22.0,5.0,0.00250707,  -312.448E-03,   64.4202E-03,       3.78275,-0.00934758,-0.00272751,-5.08181e-07
13854,-23.0,5.0,0.00237568,  -292.751E-03,   64.4202E-03,       3.58540,-0.00633293,-0.00182277,-3.50767e-07
13859,-24.0,5.0,0.00224326,  -272.740E-03,   64.4203E-03,       3.38650,-0.00329439,-0.000910886,-2.04852e-07
13862,-25.0,5.0,0.00211033,  -252.572E-03,   64.4203E-03,       3.18682,-0.000243907,4.55968e-06,-7.33963e-08
13863,-26.0,5.0,0.00197744,  -232.404E-03,   64.4203E-03,       2.98715,0.00280655,0.000919956,4.22216e-08
13868,-27.0,5.0,0.00184509,  -212.394E-03,   64.4203E-03,       2.78825,0.005845,0.0018317,1.42231e-07
13869,-28.0,5.0,0.00171382,  -192.699E-03,   64.4203E-03,       2.59091,0.0088595,0.0027362,2.28294e-07
13874,-29.0,5.0,0.00158415,  -173.470E-03,   64.4203E-03,       2.39590,0.0118382,0.00362989,3.03178e-07
13877,-30.0,5.0,0.00145658,  -154.849E-03,   64.4203E-03,       2.20396,0.0147694,0.00450925,3.70272e-07
13878,-31.0,5.0,0.00133163,  -136.971E-03,   64.4203E-03,       2.01586,0.0176415,0.00537082,4.33025e-07
13883,-32.0,5.0,0.00120978,  -119.959E-03,   64.4203E-03,       1.83234,0.0204432,0.00621119,4.94336e-07
13884,-33.0,5.0,0.00109153,  -103.922E-03,   64.4203E-03,       1.65410,0.0231634,0.00702703,5.56026e-07
13889,-34.0,5.0,0.000977333,  -88.9529E-03,   64.4203E-03,       1.48186,0.0257914,0.00781513,6.18407e-07
13892,-35.0,5.0,0.0008676430000000001,  -75.1291E-03,   64.4203E-03,       1.31629,0.0283167,0.00857234,6.80093e-07
13893,-36.0,5.0,0.0007628919999999999,  -62.5096E-03,   64.4203E-03,       1.15805,0.0307292,0.00929568,7.38021e-07
13898,-37.0,5.0,0.0006634939999999999,  -51.1343E-03,   64.4202E-03,       1.00777,0.0330195,0.00998226,7.87789e-07
13899,-38.0,5.0,0.000569838,  -41.0238E-03,   64.4202E-03,   866.049E-03,0.0351784,0.0106294,8.24199e-07
13904,-39.0,5.0,0.000482291,  -32.1785E-03,   64.4201E-03,   733.453E-03,0.0371971,0.0112344,8.42042e-07
13907,-40.0,5.0,0.000401196,  -24.5790E-03,   64.4201E-03,   610.513E-03,0.0390678,0.011795,8.36931e-07
13908,-41.0,5.0,0.00032686900000000003,  -18.1861E-03,   64.4201E-03,   497.726E-03,0.0407828,0.0123089,8.06154e-07
13913,-42.0,5.0,0.00025959700000000003,  -12.9415E-03,   64.4200E-03,   395.546E-03,0.0423353,0.0127741,7.49326e-07
13914,-43.0,5.0,0.00019964,  -8.76875E-03,   64.4200E-03,   304.388E-03,0.0437191,0.0131887,6.68772e-07
13919,-44.0,5.0,0.00014722700000000002,  -5.57444E-03,   64.4200E-03,   224.621E-03,0.0449286,0.0135512,5.69529e-07
13922,-45.0,5.0,0.000102556,  -3.24954E-03,   64.4199E-03,   156.568E-03,0.045959,0.0138599,4.58826e-07
13923,-46.0,5.0,6.57927e-05,  -1.67127E-03,   64.4199E-03,   100.509E-03,0.0468061,0.0141138,3.45259e-07
13928,-47.0,5.0,3.70719e-05,  -704.975E-06,   64.4199E-03,   56.6692E-03,0.0474665,0.0143117,2.3738e-07
13929,-48.0,5.0,1.64938e-05,  -206.324E-06,   64.4199E-03,   25.2283E-03,0.0479377,0.0144529,1.42359e-07
13934,-49.0,5.0,4.12546e-06,  -23.5699E-06,   64.4199E-03,   6.31330E-03,0.0482177,0.0145369,6.43922e-08
13937,-50.0,5.0,0.0,  -12.7546E-42,   64.4199E-03,           -0.,0.0483097,0.0145644,2.99503e-08
13938,50.0,4.0,0.0,      -1.01048,   64.4189E-03,           -0.,0.0483098,0.0145646,-2.57328e-08
13943,49.0,4.0,4.123169999999999e-06,      -1.01046,   64.4189E-03,   6.31331E-03,0.0482177,0.014537,-5.43684e-08
13944,48.0,4.0,1.64847e-05,      -1.01028,   64.4189E-03,   25.2283E-03,0.0479377,0.0144531,-1.17926e-07
13949,47.0,4.0,3.70513e-05,      -1.00978,   64.4189E-03,   56.6693E-03,0.0474665,0.0143118,-1.93312e-07
13952,46.0,4.0,6.575609999999999e-05,      -1.00881,   64.4189E-03,   100.509E-03,0.0468061,0.0141139,-2.77754e-07
13953,45.0,4.0,0.000102499,      -1.00723,   64.4189E-03,   156.569E-03,0.0459589,0.01386,-3.66206e-07
13958,44.0,4.0,0.000147145,      -1.00491,   64.4189E-03,   224.621E-03,0.0449285,0.0135512,-4.52344e-07
13959,43.0,4.0,0.00019952900000000002,      -1.00171,   64.4189E-03,   304.388E-03,0.043719,0.0131888,-5.29798e-07
13964,42.0,4.0,0.000259454,  -997.540E-03,   64.4190E-03,   395.547E-03,0.0423352,0.0127741,-5.93052e-07
13967,41.0,4.0,0.000326689,  -992.296E-03,   64.4190E-03,   497.726E-03,0.0407827,0.0123089,-6.38233e-07
13968,40.0,4.0,0.00040097699999999995,  -985.903E-03,   64.4190E-03,   610.514E-03,0.0390677,0.011795,-6.63445e-07
13973,39.0,4.0,0.00048202900000000003,  -978.303E-03,   64.4191E-03,   733.453E-03,0.0371971,0.0112344,-6.68836e-07
13974,38.0,4.0,0.00056953,  -969.458E-03,   64.4191E-03,   866.050E-03,0.0351783,0.0106293,-6.56326e-07
13979,37.0,4.0,0.0006631380000000001,  -959.347E-03,   64.4191E-03,       1.00777,0.0330195,0.00998218,-6.29118e-07
13982,36.0,4.0,0.000762486,  -947.972E-03,   64.4192E-03,       1.15805,0.0307292,0.00929559,-5.9109e-07
13983,35.0,4.0,0.0008671839999999999,  -935.353E-03,   64.4192E-03,       1.31629,0.0283166,0.00857225,-5.46142e-07
13988,34.0,4.0,0.00097682,  -921.529E-03,   64.4192E-03,       1.48186,0.0257913,0.00781504,-4.9763e-07
13989,33.0,4.0,0.00109096,  -906.560E-03,   64.4192E-03,       1.65410,0.0231634,0.00702695,-4.47916e-07
13994,32.0,4.0,0.00120916,  -890.523E-03,   64.4192E-03,       1.83234,0.0204432,0.00621111,-3.98135e-07
13997,31.0,4.0,0.00133095,  -873.511E-03,   64.4192E-03,       2.01586,0.0176415,0.00537075,-3.48133e-07
13998,30.0,4.0,0.00145584,  -855.633E-03,   64.4192E-03,       2.20396,0.0147694,0.00450919,-2.96631e-07
14003,29.0,4.0,0.00158335,  -837.012E-03,   64.4192E-03,       2.39590,0.0118382,0.00362984,-2.41516e-07
14004,28.0,4.0,0.00171296,  -817.783E-03,   64.4192E-03,       2.59091,0.00885953,0.00273615,-1.80254e-07
14009,27.0,4.0,0.00184417,  -798.088E-03,   64.4192E-03,       2.78825,0.00584505,0.00183166,-1.1034e-07
14012,26.0,4.0,0.00197646,  -778.078E-03,   64.4192E-03,       2.98715,0.00280662,0.000919917,-2.97305e-08
14013,25.0,4.0,0.0021093,  -757.910E-03,   64.4192E-03,       3.18682,-0.000243815,4.52383e-06,6.27937e-08
14018,24.0,4.0,0.00224217,  -737.742E-03,   64.4192E-03,       3.38650,-0.00329428,-0.000910919,1.67365e-07
14019,23.0,4.0,0.00237453,  -717.731E-03,   64.4191E-03,       3.58540,-0.0063328,-0.0018228,2.82904e-07
14024,22.0,4.0,0.00250587,  -698.034E-03,   64.4191E-03,       3.78275,-0.00934744,-0.00272754,4.07125e-07
14027,21.0,4.0,0.00263567,  -678.801E-03,   64.4191E-03,       3.97778,-0.0123264,-0.00362156,5.36665e-07
14028,20.0,4.0,0.0027634,  -660.177E-03,   64.4191E-03,       4.16973,-0.0152578,-0.00450133,6.67313e-07
14033,19.0,4.0,0.00288857,  -642.296E-03,   64.4191E-03,       4.35785,-0.0181304,-0.00536338,7.94324e-07
14034,18.0,4.0,0.00301068,  -625.279E-03,   64.4191E-03,       4.54140,-0.0209326,-0.00620431,9.12756e-07
14039,17.0,4.0,0.00312924,  -609.236E-03,   64.4191E-03,       4.71967,-0.0236536,-0.0070208,1.01783e-06
14042,16.0,4.0,0.00324378,  -594.261E-03,   64.4191E-03,       4.89194,-0.0262825,-0.00780963,1.10526e-06
14043,15.0,4.0,0.00335386,  -580.431E-03,   64.4191E-03,       5.05755,-0.0288089,-0.00856767,1.17153e-06
14048,14.0,4.0,0.00345903,  -567.805E-03,   64.4191E-03,       5.21583,-0.031223,-0.00929194,1.21412e-06
14049,13.0,4.0,0.00355888,  -556.423E-03,   64.4191E-03,       5.36615,-0.033515,-0.00997958,1.23162e-06
14054,12.0,4.0,0.00365301,  -546.306E-03,   64.4191E-03,       5.50792,-0.035676,-0.0106279,1.22381e-06
14057,11.0,4.0,0.00374105,  -537.454E-03,   64.4191E-03,       5.64056,-0.0376973,-0.0112343,1.1916e-06
14058,10.0,4.0,0.00382265,  -529.848E-03,   64.4191E-03,       5.76355,-0.0395709,-0.0117964,1.13686e-06
14063,9.0,4.0,0.00389749,  -523.450E-03,   64.4191E-03,       5.87639,-0.0412894,-0.0123119,1.0623e-06
14064,8.0,4.0,0.00396526,  -518.200E-03,   64.4191E-03,       5.97862,-0.0428458,-0.0127789,9.7114e-07
14069,7.0,4.0,0.00402571,  -514.022E-03,   64.4191E-03,       6.06983,-0.0442341,-0.0131954,8.66868e-07
14072,6.0,4.0,0.0040786,  -510.824E-03,   64.4191E-03,       6.14965,-0.0454487,-0.0135599,7.52919e-07
14073,5.0,4.0,0.0041237,  -508.496E-03,   64.4191E-03,       6.21775,-0.0464847,-0.0138708,6.32418e-07
14078,4.0,4.0,0.00416086,  -506.915E-03,   64.4191E-03,       6.27385,-0.047338,-0.0141269,5.07973e-07
14079,3.0,4.0,0.00418991,  -505.947E-03,   64.4191E-03,       6.31773,-0.0480053,-0.0143271,3.81539e-07
14084,2.0,4.0,0.00421074,  -505.448E-03,   64.4191E-03,       6.34920,-0.0484838,-0.0144708,2.54383e-07
14087,1.0,4.0,0.00422327,  -505.265E-03,   64.4191E-03,       6.36813,-0.0487717,-0.0145572,1.27148e-07
14088,-9.16919e-30,4.0,0.00422745,  -505.241E-03,   64.4191E-03,       6.37445,-0.0488678,-0.014586,-1.77636e-14
14093,-1.0,4.0,0.00422327,  -505.217E-03,   64.4191E-03,       6.36813,-0.0487717,-0.0145572,-1.27148e-07
14094,-2.0,4.0,0.00421074,  -505.034E-03,   64.4191E-03,       6.34920,-0.0484838,-0.0144708,-2.54383e-07
14099,-3.0,4.0,0.00418991,  -504.535E-03,   64.4191E-03,       6.31773,-0.0480053,-0.0143271,-3.81539e-07
14102,-4.0,4.0,0.00416086,  -503.567E-03,   64.4191E-03,       6.27385,-0.047338,-0.0141269,-5.07973e-07
14103,-5.0,4.0,0.0041237,  -501.986E-03,   64.4191E-03,       6.21775,-0.0464847,-0.0138708,-6.32418e-07
14108,-6.0,4.0,0.0040786,  -499.658E-03,   64.4191E-03,       6.14965,-0.0454487,-0.0135599,-7.52919e-07
14109,-7.0,4.0,0.00402571,  -496.460E-03,   64.4191E-03,       6.06983,-0.0442341,-0.0131954,-8.66868e-07
14114,-8.0,4.0,0.00396526,  -492.282E-03,   64.4191E-03,       5.97862,-0.0428458,-0.0127789,-9.7114e-07
14117,-9.0,4.0,0.00389749,  -487.032E-03,   64.4191E-03,       5.87639,-0.0412894,-0.0123119,-1.0623e-06
14118,-10.0,4.0,0.00382265,  -480.633E-03,   64.4191E-03,       5.76355,-0.0395709,-0.0117964,-1.13686e-06
14123,-11.0,4.0,0.00374105,  -473.027E-03,   64.4191E-03,       5.64056,-0.0376973,-0.0112343,-1.1916e-06
14124,-12.0,4.0,0.00365301,  -464.176E-03,   64.4191E-03,       5.50792,-0.035676,-0.0106279,-1.22381e-06
14129,-13.0,4.0,0.00355888,  -454.058E-03,   64.4191E-03,       5.36615,-0.033515,-0.00997958,-1.23162e-06
14132,-14.0,4.0,0.00345903,  -442.677E-03,   64.4191E-03,       5.21583,-0.031223,-0.00929194,-1.21412e-06
14133,-15.0,4.0,0.00335386,  -430.050E-03,   64.4191E-03,       5.05755,-0.0288089,-0.00856767,-1.17153e-06
14138,-16.0,4.0,0.00324378,  -416.220E-03,   64.4191E-03,       4.89194,-0.0262825,-0.00780963,-1.10526e-06
14139,-17.0,4.0,0.00312924,  -401.246E-03,   64.4191E-03,       4.71967,-0.0236536,-0.0070208,-1.01783e-06
14144,-18.0,4.0,0.00301068,  -385.203E-03,   64.4191E-03,       4.54140,-0.0209326,-0.00620431,-9.12756e-07
14147,-19.0,4.0,0.00288857,  -368.186E-03,   64.4191E-03,       4.35785,-0.0181304,-0.00536338,-7.94324e-07
14148,-20.0,4.0,0.0027634,  -350.304E-03,   64.4191E-03,       4.16973,-0.0152578,-0.00450133,-6.67313e-07
14153,-21.0,4.0,0.00263567,  -331.680E-03,   64.4191E-03,       3.97778,-0.0123264,-0.00362156,-5.36665e-07
14154,-22.0,4.0,0.00250587,  -312.448E-03,   64.4191E-03,       3.78275,-0.00934744,-0.00272754,-4.07125e-07
14159,-23.0,4.0,0.00237453,  -292.751E-03,   64.4191E-03,       3.58540,-0.0063328,-0.0018228,-2.82904e-07
14162,-24.0,4.0,0.00224217,  -272.740E-03,   64.4192E-03,       3.38650,-0.00329428,-0.000910919,-1.67365e-07
14163,-25.0,4.0,0.0021093,  -252.572E-03,   64.4192E-03,       3.18682,-0.000243815,4.52383e-06,-6.27938e-08
14168,-26.0,4.0,0.00197646,  -232.404E-03,   64.4192E-03,       2.98715,0.00280662,0.000919917,2.97305e-08
14169,-27.0,4.0,0.00184417,  -212.394E-03,   64.4192E-03,       2.78825,0.00584505,0.00183166,1.1034e-07
14174,-28.0,4.0,0.00171296,  -192.699E-03,   64.4192E-03,       2.59091,0.00885953,0.00273615,1.80254e-07
14177,-29.0,4.0,0.00158335,  -173.469E-03,   64.4192E-03,       2.39590,0.0118382,0.00362984,2.41516e-07
14178,-30.0,4.0,0.00145584,  -154.849E-03,   64.4192E-03,       2.20396,0.0147694,0.00450919,2.96631e-07
14183,-31.0,4.0,0.00133095,  -136.971E-03,   64.4192E-03,       2.01586,0.0176415,0.00537075,3.48133e-07
14184,-32.0,4.0,0.00120916,  -119.959E-03,   64.4192E-03,       1.83234,0.0204432,0.00621111,3.98135e-07
14189,-33.0,4.0,0.00109096,  -103.922E-03,   64.4192E-03,       1.65410,0.0231634,0.00702695,4.47916e-07
14192,-34.0,4.0,0.00097682,  -88.9528E-03,   64.4192E-03,       1.48186,0.0257913,0.00781504,4.9763e-07
14193,-35.0,4.0,0.0008671839999999999,  -75.1291E-03,   64.4192E-03,       1.31629,0.0283166,0.00857225,5.46142e-07
14198,-36.0,4.0,0.000762486,  -62.5095E-03,   64.4192E-03,       1.15805,0.0307292,0.00929559,5.9109e-07
14199,-37.0,4.0,0.0006631380000000001,  -51.1343E-03,   64.4191E-03,       1.00777,0.0330195,0.00998218,6.29118e-07
14204,-38.0,4.0,0.00056953,  -41.0238E-03,   64.4191E-03,   866.050E-03,0.0351783,0.0106293,6.56326e-07
14207,-39.0,4.0,0.00048202900000000003,  -32.1785E-03,   64.4191E-03,   733.453E-03,0.0371971,0.0112344,6.68836e-07
14208,-40.0,4.0,0.00040097699999999995,  -24.5790E-03,   64.4190E-03,   610.514E-03,0.0390677,0.011795,6.63445e-07
14213,-41.0,4.0,0.000326689,  -18.1861E-03,   64.4190E-03,   497.726E-03,0.0407827,0.0123089,6.38233e-07
14214,-42.0,4.0,0.000259454,  -12.9415E-03,   64.4190E-03,   395.547E-03,0.0423352,0.0127741,5.93052e-07
14219,-43.0,4.0,0.00019952900000000002,  -8.76876E-03,   64.4189E-03,   304.388E-03,0.043719,0.0131888,5.29798e-07
14222,-44.0,4.0,0.000147145,  -5.57445E-03,   64.4189E-03,   224.621E-03,0.0449285,0.0135512,4.52345e-07
14223,-45.0,4.0,0.000102499,  -3.24955E-03,   64.4189E-03,   156.569E-03,0.0459589,0.01386,3.66206e-07
14228,-46.0,4.0,6.575609999999999e-05,  -1.67127E-03,   64.4189E-03,   100.509E-03,0.0468061,0.0141139,2.77753e-07
14229,-47.0,4.0,3.70513e-05,  -704.978E-06,   64.4189E-03,   56.6693E-03,0.0474665,0.0143118,1.93312e-07
14234,-48.0,4.0,1.64847e-05,  -206.325E-06,   64.4189E-03,   25.2283E-03,0.0479377,0.0144531,1.17926e-07
14237,-49.0,4.0,4.123169999999999e-06,  -23.5705E-06,   64.4189E-03,   6.31331E-03,0.0482177,0.014537,5.43683e-08
14238,-50.0,4.0,0.0,  -12.7546E-42,   64.4189E-03,           -0.,0.0483098,0.0145646,2.57327e-08
14243,50.0,3.0,0.0,      -1.01048,   64.4178E-03,           -0.,0.0483098,0.0145647,-2.02502e-08
14244,49.0,3.0,4.1214e-06,      -1.01046,   64.4178E-03,   6.31332E-03,0.0482178,0.0145371,-4.23924e-08
14249,48.0,3.0,1.64776e-05,      -1.01028,   64.4178E-03,   25.2284E-03,0.0479378,0.0144532,-9.07247e-08
14252,47.0,3.0,3.70353e-05,      -1.00978,   64.4178E-03,   56.6693E-03,0.0474666,0.0143119,-1.46877e-07
14253,46.0,3.0,6.572779999999999e-05,      -1.00881,   64.4179E-03,   100.509E-03,0.0468061,0.014114,-2.09152e-07
14258,45.0,3.0,0.00010245399999999999,      -1.00723,   64.4179E-03,   156.569E-03,0.0459589,0.0138601,-2.74091e-07
14259,44.0,3.0,0.000147082,      -1.00491,   64.4179E-03,   224.621E-03,0.0449285,0.0135513,-3.37317e-07
14264,43.0,3.0,0.000199444,      -1.00171,   64.4179E-03,   304.388E-03,0.043719,0.0131888,-3.94281e-07
14267,42.0,3.0,0.000259343,  -997.540E-03,   64.4179E-03,   395.547E-03,0.0423352,0.0127742,-4.41047e-07
14268,41.0,3.0,0.00032655,  -992.296E-03,   64.4179E-03,   497.727E-03,0.0407827,0.0123089,-4.7477e-07
14273,40.0,3.0,0.000400807,  -985.903E-03,   64.4180E-03,   610.514E-03,0.0390677,0.0117949,-4.94023e-07
14274,39.0,3.0,0.000481826,  -978.303E-03,   64.4180E-03,   733.453E-03,0.0371971,0.0112343,-4.9882e-07
14279,38.0,3.0,0.000569291,  -969.458E-03,   64.4180E-03,   866.050E-03,0.0351783,0.0106292,-4.90455e-07
14282,37.0,3.0,0.000662862,  -959.348E-03,   64.4180E-03,       1.00777,0.0330195,0.00998211,-4.71161e-07
14283,36.0,3.0,0.0007621710000000001,  -947.972E-03,   64.4181E-03,       1.15805,0.0307292,0.00929552,-4.43672e-07
14288,35.0,3.0,0.000866828,  -935.353E-03,   64.4181E-03,       1.31629,0.0283166,0.00857218,-4.10774e-07
14289,34.0,3.0,0.000976422,  -921.529E-03,   64.4181E-03,       1.48186,0.0257913,0.00781497,-3.74877e-07
14294,33.0,3.0,0.00109052,  -906.560E-03,   64.4181E-03,       1.65410,0.0231634,0.00702689,-3.37711e-07
14297,32.0,3.0,0.00120867,  -890.523E-03,   64.4181E-03,       1.83234,0.0204431,0.00621105,-3.00133e-07
14298,31.0,3.0,0.00133042,  -873.511E-03,   64.4181E-03,       2.01586,0.0176415,0.0053707,-2.62091e-07
14303,30.0,3.0,0.00145526,  -855.633E-03,   64.4181E-03,       2.20396,0.0147694,0.00450914,-2.2272e-07
14304,29.0,3.0,0.00158273,  -837.013E-03,   64.4181E-03,       2.39590,0.0118382,0.00362979,-1.80559e-07
14309,28.0,3.0,0.0017123,  -817.783E-03,   64.4181E-03,       2.59091,0.00885956,0.00273611,-1.33834e-07
14312,27.0,3.0,0.00184346,  -798.088E-03,   64.4181E-03,       2.78825,0.00584509,0.00183162,-8.07871e-08
14313,26.0,3.0,0.0019757,  -778.078E-03,   64.4181E-03,       2.98715,0.00280668,0.000919886,-1.99822e-08
14318,25.0,3.0,0.0021085,  -757.910E-03,   64.4181E-03,       3.18682,-0.000243743,4.49556e-06,4.94274e-08
14319,24.0,3.0,0.00224132,  -737.742E-03,   64.4181E-03,       3.38650,-0.0032942,-0.000910944,1.27515e-07
14324,23.0,3.0,0.00237364,  -717.731E-03,   64.4180E-03,       3.58540,-0.0063327,-0.00182283,2.13481e-07
14327,22.0,3.0,0.00250494,  -698.034E-03,   64.4180E-03,       3.78275,-0.00934733,-0.00272756,3.05662e-07
14328,21.0,3.0,0.00263469,  -678.802E-03,   64.4180E-03,       3.97778,-0.0123262,-0.00362158,4.01615e-07
14333,20.0,3.0,0.00276239,  -660.178E-03,   64.4180E-03,       4.16973,-0.0152577,-0.00450135,4.98293e-07
14334,19.0,3.0,0.00288752,  -642.296E-03,   64.4180E-03,       4.35785,-0.0181303,-0.0053634,5.92257e-07
14339,18.0,3.0,0.00300958,  -625.279E-03,   64.4180E-03,       4.54140,-0.0209325,-0.00620433,6.79933e-07
14340,17.0,3.0,0.00312811,  -609.236E-03,   64.4180E-03,       4.71967,-0.0236535,-0.00702082,7.57859e-07
14345,16.0,3.0,0.00324262,  -594.261E-03,   64.4180E-03,       4.89194,-0.0262824,-0.00780965,8.22925e-07
14346,15.0,3.0,0.00335266,  -580.431E-03,   64.4180E-03,       5.05755,-0.0288089,-0.0085677,8.72576e-07
14351,14.0,3.0,0.0034578,  -567.805E-03,   64.4180E-03,       5.21583,-0.031223,-0.00929197,9.04959e-07
14354,13.0,3.0,0.00355762,  -556.423E-03,   64.4180E-03,       5.36615,-0.0335151,-0.00997961,9.19022e-07
14355,12.0,3.0,0.00365172,  -546.306E-03,   64.4180E-03,       5.50792,-0.0356761,-0.0106279,9.14543e-07
14360,11.0,3.0,0.00373973,  -537.454E-03,   64.4180E-03,       5.64056,-0.0376974,-0.0112343,8.92096e-07
14361,10.0,3.0,0.00382131,  -529.848E-03,   64.4180E-03,       5.76355,-0.039571,-0.0117964,8.52962e-07
14366,9.0,3.0,0.00389613,  -523.450E-03,   64.4180E-03,       5.87639,-0.0412895,-0.0123119,7.9899e-07
14369,8.0,3.0,0.00396388,  -518.200E-03,   64.4180E-03,       5.97863,-0.0428459,-0.0127789,7.32416e-07
14370,7.0,3.0,0.00402432,  -514.022E-03,   64.4180E-03,       6.06983,-0.0442342,-0.0131954,6.55669e-07
14375,6.0,3.0,0.00407719,  -510.824E-03,   64.4180E-03,       6.14965,-0.0454488,-0.0135598,5.71169e-07
14376,5.0,3.0,0.00412228,  -508.496E-03,   64.4180E-03,       6.21775,-0.0464848,-0.0138707,4.81149e-07
14381,4.0,3.0,0.00415942,  -506.915E-03,   64.4180E-03,       6.27385,-0.0473381,-0.0141268,3.8751e-07
14384,3.0,3.0,0.00418846,  -505.947E-03,   64.4180E-03,       6.31773,-0.0480053,-0.014327,2.91733e-07
14385,2.0,3.0,0.00420929,  -505.448E-03,   64.4180E-03,       6.34920,-0.0484838,-0.0144707,1.94855e-07
14390,1.0,3.0,0.00422182,  -505.265E-03,   64.4180E-03,       6.36813,-0.0487717,-0.0145571,9.75042e-08
14391,-4.6755599999999995e-30,3.0,0.004226,  -505.241E-03,   64.4180E-03,       6.37445,-0.0488677,-0.0145859,-1.15463e-14
14396,-1.0,3.0,0.00422182,  -505.217E-03,   64.4180E-03,       6.36813,-0.0487717,-0.0145571,-9.75043e-08
14399,-2.0,3.0,0.00420929,  -505.034E-03,   64.4180E-03,       6.34920,-0.0484838,-0.0144707,-1.94855e-07
14400,-3.0,3.0,0.00418846,  -504.535E-03,   64.4180E-03,       6.31773,-0.0480053,-0.014327,-2.91733e-07
14405,-4.0,3.0,0.00415942,  -503.567E-03,   64.4180E-03,       6.27385,-0.0473381,-0.0141268,-3.8751e-07
14406,-5.0,3.0,0.00412228,  -501.986E-03,   64.4180E-03,       6.21775,-0.0464848,-0.0138707,-4.81149e-07
14411,-6.0,3.0,0.00407719,  -499.658E-03,   64.4180E-03,       6.14965,-0.0454488,-0.0135598,-5.71169e-07
14414,-7.0,3.0,0.00402432,  -496.460E-03,   64.4180E-03,       6.06983,-0.0442342,-0.0131954,-6.55669e-07
14415,-8.0,3.0,0.00396388,  -492.282E-03,   64.4180E-03,       5.97863,-0.0428459,-0.0127789,-7.32416e-07
14420,-9.0,3.0,0.00389613,  -487.032E-03,   64.4180E-03,       5.87639,-0.0412895,-0.0123119,-7.9899e-07
14421,-10.0,3.0,0.00382131,  -480.633E-03,   64.4180E-03,       5.76355,-0.039571,-0.0117964,-8.52962e-07
14426,-11.0,3.0,0.00373973,  -473.027E-03,   64.4180E-03,       5.64056,-0.0376974,-0.0112343,-8.92096e-07
14429,-12.0,3.0,0.00365172,  -464.176E-03,   64.4180E-03,       5.50792,-0.0356761,-0.0106279,-9.14543e-07
14430,-13.0,3.0,0.00355762,  -454.058E-03,   64.4180E-03,       5.36615,-0.0335151,-0.00997961,-9.19022e-07
14435,-14.0,3.0,0.0034578,  -442.676E-03,   64.4180E-03,       5.21583,-0.031223,-0.00929197,-9.04959e-07
14436,-15.0,3.0,0.00335266,  -430.050E-03,   64.4180E-03,       5.05755,-0.0288089,-0.0085677,-8.72576e-07
14441,-16.0,3.0,0.00324262,  -416.220E-03,   64.4180E-03,       4.89194,-0.0262824,-0.00780965,-8.22925e-07
14444,-17.0,3.0,0.00312811,  -401.245E-03,   64.4180E-03,       4.71967,-0.0236535,-0.00702082,-7.57859e-07
14445,-18.0,3.0,0.00300958,  -385.203E-03,   64.4180E-03,       4.54140,-0.0209325,-0.00620433,-6.79933e-07
14450,-19.0,3.0,0.00288752,  -368.186E-03,   64.4180E-03,       4.35785,-0.0181303,-0.0053634,-5.92257e-07
14451,-20.0,3.0,0.00276239,  -350.304E-03,   64.4180E-03,       4.16973,-0.0152577,-0.00450135,-4.98293e-07
14456,-21.0,3.0,0.00263469,  -331.680E-03,   64.4180E-03,       3.97778,-0.0123262,-0.00362158,-4.01615e-07
14459,-22.0,3.0,0.00250494,  -312.448E-03,   64.4180E-03,       3.78275,-0.00934733,-0.00272756,-3.05662e-07
14460,-23.0,3.0,0.00237364,  -292.751E-03,   64.4180E-03,       3.58540,-0.0063327,-0.00182283,-2.13481e-07
14465,-24.0,3.0,0.00224132,  -272.740E-03,   64.4181E-03,       3.38650,-0.0032942,-0.000910944,-1.27515e-07
14466,-25.0,3.0,0.0021085,  -252.571E-03,   64.4181E-03,       3.18682,-0.000243743,4.49556e-06,-4.94273e-08
14471,-26.0,3.0,0.0019757,  -232.403E-03,   64.4181E-03,       2.98715,0.00280668,0.000919886,1.99822e-08
14474,-27.0,3.0,0.00184346,  -212.394E-03,   64.4181E-03,       2.78825,0.00584509,0.00183162,8.07871e-08
14475,-28.0,3.0,0.0017123,  -192.699E-03,   64.4181E-03,       2.59091,0.00885956,0.00273611,1.33834e-07
14480,-29.0,3.0,0.00158273,  -173.469E-03,   64.4181E-03,       2.39590,0.0118382,0.00362979,1.80559e-07
14481,-30.0,3.0,0.00145526,  -154.849E-03,   64.4181E-03,       2.20396,0.0147694,0.00450914,2.2272e-07
14486,-31.0,3.0,0.00133042,  -136.971E-03,   64.4181E-03,       2.01586,0.0176415,0.0053707,2.62091e-07
14489,-32.0,3.0,0.00120867,  -119.959E-03,   64.4181E-03,       1.83234,0.0204431,0.00621105,3.00133e-07
14490,-33.0,3.0,0.00109052,  -103.922E-03,   64.4181E-03,       1.65410,0.0231634,0.00702689,3.37711e-07
14495,-34.0,3.0,0.000976422,  -88.9528E-03,   64.4181E-03,       1.48186,0.0257913,0.00781497,3.74877e-07
14496,-35.0,3.0,0.000866828,  -75.1290E-03,   64.4181E-03,       1.31629,0.0283166,0.00857218,4.10774e-07
14501,-36.0,3.0,0.0007621710000000001,  -62.5095E-03,   64.4181E-03,       1.15805,0.0307292,0.00929552,4.43672e-07
14504,-37.0,3.0,0.000662862,  -51.1343E-03,   64.4180E-03,       1.00777,0.0330195,0.00998211,4.71161e-07
14505,-38.0,3.0,0.000569291,  -41.0238E-03,   64.4180E-03,   866.050E-03,0.0351783,0.0106292,4.90455e-07
14510,-39.0,3.0,0.000481826,  -32.1785E-03,   64.4180E-03,   733.453E-03,0.0371971,0.0112343,4.9882e-07
14511,-40.0,3.0,0.000400807,  -24.5790E-03,   64.4180E-03,   610.514E-03,0.0390677,0.0117949,4.94023e-07
14516,-41.0,3.0,0.00032655,  -18.1861E-03,   64.4179E-03,   497.727E-03,0.0407827,0.0123089,4.7477e-07
14519,-42.0,3.0,0.000259343,  -12.9415E-03,   64.4179E-03,   395.547E-03,0.0423352,0.0127742,4.41047e-07
14520,-43.0,3.0,0.000199444,  -8.76877E-03,   64.4179E-03,   304.388E-03,0.043719,0.0131888,3.94281e-07
14525,-44.0,3.0,0.000147082,  -5.57445E-03,   64.4179E-03,   224.621E-03,0.0449285,0.0135513,3.37317e-07
14526,-45.0,3.0,0.00010245399999999999,  -3.24955E-03,   64.4179E-03,   156.569E-03,0.0459589,0.0138601,2.74091e-07
14531,-46.0,3.0,6.572779999999999e-05,  -1.67127E-03,   64.4179E-03,   100.509E-03,0.0468061,0.014114,2.09152e-07
14534,-47.0,3.0,3.70353e-05,  -704.980E-06,   64.4178E-03,   56.6693E-03,0.0474666,0.0143119,1.46877e-07
14535,-48.0,3.0,1.64776e-05,  -206.326E-06,   64.4178E-03,   25.2284E-03,0.0479378,0.0144532,9.07248e-08
14540,-49.0,3.0,4.1214e-06,  -23.5709E-06,   64.4178E-03,   6.31332E-03,0.0482178,0.0145371,4.23924e-08
14541,-50.0,3.0,0.0,  -12.7532E-42,   64.4178E-03,           -0.,0.0483098,0.0145647,2.02501e-08
14546,50.0,2.0,0.0,      -1.01048,   64.4168E-03,           -0.,0.0483099,0.0145648,-1.39745e-08
14549,49.0,2.0,4.12014e-06,      -1.01046,   64.4168E-03,   6.31332E-03,0.0482178,0.0145372,-2.90106e-08
14550,48.0,2.0,1.64725e-05,      -1.01028,   64.4168E-03,   25.2284E-03,0.0479378,0.0144532,-6.1537e-08
14555,47.0,2.0,3.7024e-05,      -1.00978,   64.4168E-03,   56.6694E-03,0.0474666,0.014312,-9.87939e-08
14556,46.0,2.0,6.57076e-05,      -1.00881,   64.4168E-03,   100.509E-03,0.0468061,0.014114,-1.39801e-07
14561,45.0,2.0,0.00010242299999999999,      -1.00723,   64.4168E-03,   156.569E-03,0.0459589,0.0138601,-1.82445e-07
14564,44.0,2.0,0.000147037,      -1.00491,   64.4168E-03,   224.621E-03,0.0449285,0.0135513,-2.23938e-07
14565,43.0,2.0,0.000199383,      -1.00171,   64.4169E-03,   304.388E-03,0.043719,0.0131889,-2.61391e-07
14570,42.0,2.0,0.000259264,  -997.540E-03,   64.4169E-03,   395.547E-03,0.0423352,0.0127742,-2.92247e-07
14571,41.0,2.0,0.000326451,  -992.296E-03,   64.4169E-03,   497.727E-03,0.0407827,0.0123089,-3.14655e-07
14576,40.0,2.0,0.000400686,  -985.903E-03,   64.4169E-03,   610.514E-03,0.0390677,0.0117949,-3.27652e-07
14579,39.0,2.0,0.00048168099999999997,  -978.303E-03,   64.4169E-03,   733.453E-03,0.0371971,0.0112343,-3.31206e-07
14580,38.0,2.0,0.0005691219999999999,  -969.458E-03,   64.4169E-03,   866.050E-03,0.0351783,0.0106292,-3.26111e-07
14585,37.0,2.0,0.000662665,  -959.348E-03,   64.4169E-03,       1.00777,0.0330195,0.00998207,-3.13773e-07
14586,36.0,2.0,0.0007619460000000001,  -947.972E-03,   64.4170E-03,       1.15805,0.0307292,0.00929547,-2.95938e-07
14591,35.0,2.0,0.000866575,  -935.353E-03,   64.4170E-03,       1.31629,0.0283166,0.00857213,-2.74389e-07
14594,34.0,2.0,0.0009761389999999999,  -921.529E-03,   64.4170E-03,       1.48186,0.0257913,0.00781492,-2.50692e-07
14595,33.0,2.0,0.00109021,  -906.560E-03,   64.4170E-03,       1.65410,0.0231633,0.00702684,-2.25973e-07
14600,32.0,2.0,0.00120833,  -890.523E-03,   64.4170E-03,       1.83234,0.0204431,0.00621101,-2.00811e-07
14601,31.0,2.0,0.00133004,  -873.511E-03,   64.4170E-03,       2.01586,0.0176415,0.00537066,-1.75196e-07
14606,30.0,2.0,0.00145485,  -855.633E-03,   64.4170E-03,       2.20396,0.0147694,0.00450911,-1.486e-07
14609,29.0,2.0,0.00158228,  -837.013E-03,   64.4170E-03,       2.39590,0.0118382,0.00362976,-1.20104e-07
14610,28.0,2.0,0.00171182,  -817.783E-03,   64.4170E-03,       2.59091,0.00885958,0.00273608,-8.8588e-08
14615,27.0,2.0,0.00184296,  -798.088E-03,   64.4170E-03,       2.78825,0.00584512,0.0018316,-5.29352e-08
14616,26.0,2.0,0.00197517,  -778.079E-03,   64.4170E-03,       2.98715,0.00280672,0.000919863,-1.22354e-08
14621,25.0,2.0,0.00210793,  -757.910E-03,   64.4170E-03,       3.18682,-0.000243693,4.47514e-06,3.40461e-08
14624,24.0,2.0,0.00224072,  -737.742E-03,   64.4170E-03,       3.38650,-0.00329413,-0.000910963,8.59431e-08
14625,23.0,2.0,0.00237301,  -717.731E-03,   64.4169E-03,       3.58540,-0.00633263,-0.00182284,1.4293e-07
14630,22.0,2.0,0.00250427,  -698.034E-03,   64.4169E-03,       3.78275,-0.00934725,-0.00272758,2.03918e-07
14631,21.0,2.0,0.002634,  -678.802E-03,   64.4169E-03,       3.97778,-0.0123262,-0.00362159,2.6732e-07
14636,20.0,2.0,0.00276166,  -660.178E-03,   64.4169E-03,       4.16973,-0.0152577,-0.00450136,3.31154e-07
14639,19.0,2.0,0.00288676,  -642.296E-03,   64.4169E-03,       4.35785,-0.0181302,-0.00536341,3.93187e-07
14640,18.0,2.0,0.00300881,  -625.279E-03,   64.4169E-03,       4.54140,-0.0209325,-0.00620434,4.51096e-07
14645,17.0,2.0,0.0031273,  -609.236E-03,   64.4169E-03,       4.71967,-0.0236535,-0.00702084,5.02631e-07
14646,16.0,2.0,0.00324179,  -594.262E-03,   64.4169E-03,       4.89194,-0.0262824,-0.00780967,5.45771e-07
14651,15.0,2.0,0.00335181,  -580.431E-03,   64.4169E-03,       5.05755,-0.0288089,-0.00856771,5.78848e-07
14654,14.0,2.0,0.00345692,  -567.805E-03,   64.4169E-03,       5.21583,-0.031223,-0.00929199,6.00648e-07
14655,13.0,2.0,0.00355672,  -556.423E-03,   64.4169E-03,       5.36615,-0.0335151,-0.00997963,6.10466e-07
14660,12.0,2.0,0.0036508,  -546.306E-03,   64.4169E-03,       5.50792,-0.0356761,-0.0106279,6.08131e-07
14661,11.0,2.0,0.0037388,  -537.454E-03,   64.4169E-03,       5.64057,-0.0376974,-0.0112343,5.93978e-07
14666,10.0,2.0,0.00382036,  -529.849E-03,   64.4169E-03,       5.76356,-0.0395711,-0.0117964,5.68796e-07
14669,9.0,2.0,0.00389516,  -523.450E-03,   64.4169E-03,       5.87639,-0.0412895,-0.0123119,5.33735e-07
14670,8.0,2.0,0.0039629,  -518.200E-03,   64.4169E-03,       5.97863,-0.042846,-0.0127789,4.90199e-07
14675,7.0,2.0,0.00402332,  -514.022E-03,   64.4169E-03,       6.06984,-0.0442343,-0.0131954,4.39722e-07
14676,6.0,2.0,0.00407618,  -510.824E-03,   64.4169E-03,       6.14965,-0.0454488,-0.0135598,3.83842e-07
14681,5.0,2.0,0.00412126,  -508.496E-03,   64.4169E-03,       6.21775,-0.0464848,-0.0138707,3.23996e-07
14684,4.0,2.0,0.0041584,  -506.915E-03,   64.4169E-03,       6.27385,-0.0473381,-0.0141267,2.61425e-07
14685,3.0,2.0,0.00418743,  -505.947E-03,   64.4169E-03,       6.31773,-0.0480053,-0.014327,1.97125e-07
14690,2.0,2.0,0.00420825,  -505.448E-03,   64.4169E-03,       6.34920,-0.0484838,-0.0144706,1.31825e-07
14691,1.0,2.0,0.00422078,  -505.265E-03,   64.4169E-03,       6.36813,-0.0487716,-0.014557,6.60154e-08
14696,-5.5735599999999995e-30,2.0,0.00422496,  -505.241E-03,   64.4169E-03,       6.37445,-0.0488677,-0.0145858,-1.11022e-14
14699,-1.0,2.0,0.00422078,  -505.217E-03,   64.4169E-03,       6.36813,-0.0487716,-0.014557,-6.60154e-08
14700,-2.0,2.0,0.00420825,  -505.034E-03,   64.4169E-03,       6.34920,-0.0484838,-0.0144706,-1.31825e-07
14705,-3.0,2.0,0.00418743,  -504.535E-03,   64.4169E-03,       6.31773,-0.0480053,-0.014327,-1.97125e-07
14706,-4.0,2.0,0.0041584,  -503.567E-03,   64.4169E-03,       6.27385,-0.0473381,-0.0141267,-2.61425e-07
14711,-5.0,2.0,0.00412126,  -501.986E-03,   64.4169E-03,       6.21775,-0.0464848,-0.0138707,-3.23996e-07
14714,-6.0,2.0,0.00407618,  -499.658E-03,   64.4169E-03,       6.14965,-0.0454488,-0.0135598,-3.83842e-07
14715,-7.0,2.0,0.00402332,  -496.460E-03,   64.4169E-03,       6.06984,-0.0442343,-0.0131954,-4.39722e-07
14720,-8.0,2.0,0.0039629,  -492.282E-03,   64.4169E-03,       5.97863,-0.042846,-0.0127789,-4.90199e-07
14721,-9.0,2.0,0.00389516,  -487.032E-03,   64.4169E-03,       5.87639,-0.0412895,-0.0123119,-5.33735e-07
14726,-10.0,2.0,0.00382036,  -480.633E-03,   64.4169E-03,       5.76356,-0.0395711,-0.0117964,-5.68796e-07
14729,-11.0,2.0,0.0037388,  -473.027E-03,   64.4169E-03,       5.64057,-0.0376974,-0.0112343,-5.93978e-07
14730,-12.0,2.0,0.0036508,  -464.176E-03,   64.4169E-03,       5.50792,-0.0356761,-0.0106279,-6.08131e-07
14735,-13.0,2.0,0.00355672,  -454.058E-03,   64.4169E-03,       5.36615,-0.0335151,-0.00997963,-6.10466e-07
14736,-14.0,2.0,0.00345692,  -442.676E-03,   64.4169E-03,       5.21583,-0.031223,-0.00929199,-6.00648e-07
14741,-15.0,2.0,0.00335181,  -430.050E-03,   64.4169E-03,       5.05755,-0.0288089,-0.00856771,-5.78848e-07
14744,-16.0,2.0,0.00324179,  -416.220E-03,   64.4169E-03,       4.89194,-0.0262824,-0.00780967,-5.45771e-07
14745,-17.0,2.0,0.0031273,  -401.245E-03,   64.4169E-03,       4.71967,-0.0236535,-0.00702084,-5.02631e-07
14750,-18.0,2.0,0.00300881,  -385.203E-03,   64.4169E-03,       4.54140,-0.0209325,-0.00620434,-4.51096e-07
14751,-19.0,2.0,0.00288676,  -368.186E-03,   64.4169E-03,       4.35785,-0.0181302,-0.00536341,-3.93187e-07
14756,-20.0,2.0,0.00276166,  -350.304E-03,   64.4169E-03,       4.16973,-0.0152577,-0.00450136,-3.31154e-07
14759,-21.0,2.0,0.002634,  -331.680E-03,   64.4169E-03,       3.97778,-0.0123262,-0.00362159,-2.6732e-07
14760,-22.0,2.0,0.00250427,  -312.448E-03,   64.4169E-03,       3.78275,-0.00934725,-0.00272758,-2.03918e-07
14765,-23.0,2.0,0.00237301,  -292.751E-03,   64.4169E-03,       3.58540,-0.00633263,-0.00182284,-1.4293e-07
14766,-24.0,2.0,0.00224072,  -272.740E-03,   64.4170E-03,       3.38650,-0.00329413,-0.000910963,-8.59431e-08
14771,-25.0,2.0,0.00210793,  -252.571E-03,   64.4170E-03,       3.18682,-0.000243693,4.47514e-06,-3.4046e-08
14774,-26.0,2.0,0.00197517,  -232.403E-03,   64.4170E-03,       2.98715,0.00280672,0.000919863,1.22354e-08
14775,-27.0,2.0,0.00184296,  -212.394E-03,   64.4170E-03,       2.78825,0.00584512,0.0018316,5.29352e-08
14780,-28.0,2.0,0.00171182,  -192.699E-03,   64.4170E-03,       2.59091,0.00885958,0.00273608,8.8588e-08
14781,-29.0,2.0,0.00158228,  -173.469E-03,   64.4170E-03,       2.39590,0.0118382,0.00362976,1.20104e-07
14786,-30.0,2.0,0.00145485,  -154.849E-03,   64.4170E-03,       2.20396,0.0147694,0.00450911,1.486e-07
14789,-31.0,2.0,0.00133004,  -136.971E-03,   64.4170E-03,       2.01586,0.0176415,0.00537066,1.75196e-07
14790,-32.0,2.0,0.00120833,  -119.959E-03,   64.4170E-03,       1.83234,0.0204431,0.00621101,2.00811e-07
14795,-33.0,2.0,0.00109021,  -103.922E-03,   64.4170E-03,       1.65410,0.0231633,0.00702684,2.25973e-07
14796,-34.0,2.0,0.0009761389999999999,  -88.9527E-03,   64.4170E-03,       1.48186,0.0257913,0.00781492,2.50692e-07
14801,-35.0,2.0,0.000866575,  -75.1290E-03,   64.4170E-03,       1.31629,0.0283166,0.00857213,2.74389e-07
14804,-36.0,2.0,0.0007619460000000001,  -62.5095E-03,   64.4170E-03,       1.15805,0.0307292,0.00929547,2.95938e-07
14805,-37.0,2.0,0.000662665,  -51.1343E-03,   64.4169E-03,       1.00777,0.0330195,0.00998207,3.13773e-07
14810,-38.0,2.0,0.0005691219999999999,  -41.0238E-03,   64.4169E-03,   866.050E-03,0.0351783,0.0106292,3.26111e-07
14811,-39.0,2.0,0.00048168099999999997,  -32.1785E-03,   64.4169E-03,   733.453E-03,0.0371971,0.0112343,3.31206e-07
14816,-40.0,2.0,0.000400686,  -24.5790E-03,   64.4169E-03,   610.514E-03,0.0390677,0.0117949,3.27652e-07
14817,-41.0,2.0,0.000326451,  -18.1861E-03,   64.4169E-03,   497.727E-03,0.0407827,0.0123089,3.14655e-07
14822,-42.0,2.0,0.000259264,  -12.9415E-03,   64.4169E-03,   395.547E-03,0.0423352,0.0127742,2.92246e-07
14823,-43.0,2.0,0.000199383,  -8.76877E-03,   64.4169E-03,   304.388E-03,0.043719,0.0131889,2.61391e-07
14828,-44.0,2.0,0.000147037,  -5.57446E-03,   64.4168E-03,   224.621E-03,0.0449285,0.0135513,2.23938e-07
14831,-45.0,2.0,0.00010242299999999999,  -3.24956E-03,   64.4168E-03,   156.569E-03,0.0459589,0.0138601,1.82445e-07
14832,-46.0,2.0,6.57076e-05,  -1.67128E-03,   64.4168E-03,   100.509E-03,0.0468061,0.014114,1.39801e-07
14837,-47.0,2.0,3.7024e-05,  -704.982E-06,   64.4168E-03,   56.6694E-03,0.0474666,0.014312,9.87939e-08
14838,-48.0,2.0,1.64725e-05,  -206.327E-06,   64.4168E-03,   25.2284E-03,0.0479378,0.0144532,6.1537e-08
14843,-49.0,2.0,4.12014e-06,  -23.5712E-06,   64.4168E-03,   6.31332E-03,0.0482178,0.0145372,2.90107e-08
14846,-50.0,2.0,0.0,  -12.7532E-42,   64.4168E-03,           -0.,0.0483099,0.0145648,1.39746e-08
14847,50.0,1.0,0.0,      -1.01048,   64.4158E-03,           -0.,0.0483099,0.0145648,-7.11273e-09
14852,49.0,1.0,4.11939e-06,      -1.01046,   64.4158E-03,   6.31333E-03,0.0482178,0.0145372,-1.47273e-08
14853,48.0,1.0,1.64695e-05,      -1.01028,   64.4158E-03,   25.2284E-03,0.0479378,0.0144533,-3.10803e-08
14858,47.0,1.0,3.7017199999999995e-05,      -1.00978,   64.4158E-03,   56.6694E-03,0.0474666,0.014312,-4.96515e-08
14861,46.0,1.0,6.569550000000001e-05,      -1.00881,   64.4158E-03,   100.509E-03,0.0468061,0.0141141,-7.00076e-08
14862,45.0,1.0,0.00010240399999999999,      -1.00723,   64.4158E-03,   156.569E-03,0.0459589,0.0138602,-9.11316e-08
14867,44.0,1.0,0.00014701,      -1.00491,   64.4158E-03,   224.621E-03,0.0449285,0.0135514,-1.11687e-07
14868,43.0,1.0,0.000199347,      -1.00171,   64.4158E-03,   304.389E-03,0.043719,0.0131889,-1.30255e-07
14873,42.0,1.0,0.000259217,  -997.540E-03,   64.4158E-03,   395.547E-03,0.0423352,0.0127742,-1.45588e-07
14876,41.0,1.0,0.000326392,  -992.296E-03,   64.4158E-03,   497.727E-03,0.0407827,0.0123089,-1.5677e-07
14877,40.0,1.0,0.00040061400000000004,  -985.903E-03,   64.4158E-03,   610.514E-03,0.0390677,0.0117949,-1.63317e-07
14882,39.0,1.0,0.000481595,  -978.303E-03,   64.4158E-03,   733.453E-03,0.037197,0.0112343,-1.652e-07
14883,38.0,1.0,0.00056902,  -969.458E-03,   64.4158E-03,   866.050E-03,0.0351783,0.0106292,-1.62796e-07
14888,37.0,1.0,0.000662548,  -959.348E-03,   64.4158E-03,       1.00777,0.0330194,0.00998204,-1.56785e-07
14891,36.0,1.0,0.000761812,  -947.972E-03,   64.4159E-03,       1.15805,0.0307292,0.00929544,-1.48013e-07
14892,35.0,1.0,0.0008664230000000001,  -935.353E-03,   64.4159E-03,       1.31629,0.0283166,0.0085721,-1.37354e-07
14897,34.0,1.0,0.0009759689999999999,  -921.529E-03,   64.4159E-03,       1.48186,0.0257913,0.00781489,-1.25575e-07
14898,33.0,1.0,0.00109002,  -906.560E-03,   64.4159E-03,       1.65410,0.0231633,0.00702681,-1.13234e-07
14903,32.0,1.0,0.00120812,  -890.523E-03,   64.4159E-03,       1.83234,0.0204431,0.00621098,-1.0062e-07
14906,31.0,1.0,0.00132981,  -873.511E-03,   64.4159E-03,       2.01586,0.0176415,0.00537064,-8.77381e-08
14907,30.0,1.0,0.00145461,  -855.633E-03,   64.4159E-03,       2.20396,0.0147694,0.00450909,-7.43361e-08
14912,29.0,1.0,0.00158202,  -837.013E-03,   64.4159E-03,       2.39590,0.0118382,0.00362974,-5.99729e-08
14913,28.0,1.0,0.00171154,  -817.783E-03,   64.4159E-03,       2.59091,0.00885959,0.00273607,-4.41058e-08
14918,27.0,1.0,0.00184265,  -798.088E-03,   64.4159E-03,       2.78825,0.00584514,0.00183158,-2.61937e-08
14921,26.0,1.0,0.00197484,  -778.079E-03,   64.4159E-03,       2.98715,0.00280674,0.00091985,-5.79487e-09
14922,25.0,1.0,0.00210759,  -757.911E-03,   64.4159E-03,       3.18682,-0.000243662,4.4628e-06,1.7348e-08
14927,24.0,1.0,0.00224036,  -737.742E-03,   64.4159E-03,       3.38650,-0.0032941,-0.000910974,4.32486e-08
14928,23.0,1.0,0.00237263,  -717.731E-03,   64.4158E-03,       3.58540,-0.00633259,-0.00182285,7.16449e-08
14933,22.0,1.0,0.00250388,  -698.034E-03,   64.4158E-03,       3.78275,-0.00934721,-0.00272759,1.02001e-07
14936,21.0,1.0,0.00263358,  -678.802E-03,   64.4158E-03,       3.97778,-0.0123261,-0.0036216,1.33533e-07
14937,20.0,1.0,0.00276123,  -660.178E-03,   64.4158E-03,       4.16973,-0.0152576,-0.00450137,1.65265e-07
14942,19.0,1.0,0.00288631,  -642.296E-03,   64.4158E-03,       4.35785,-0.0181301,-0.00536342,1.961e-07
14943,18.0,1.0,0.00300834,  -625.279E-03,   64.4158E-03,       4.54140,-0.0209324,-0.00620435,2.24893e-07
14948,17.0,1.0,0.00312682,  -609.236E-03,   64.4158E-03,       4.71967,-0.0236534,-0.00702085,2.50537e-07
14951,16.0,1.0,0.00324129,  -594.262E-03,   64.4158E-03,       4.89194,-0.0262824,-0.00780968,2.72036e-07
14952,15.0,1.0,0.0033513,  -580.432E-03,   64.4158E-03,       5.05755,-0.0288089,-0.00856772,2.88568e-07
14957,14.0,1.0,0.0034564,  -567.805E-03,   64.4158E-03,       5.21583,-0.031223,-0.009292,2.99531e-07
14958,13.0,1.0,0.00355618,  -556.423E-03,   64.4158E-03,       5.36615,-0.0335151,-0.00997964,3.04573e-07
14963,12.0,1.0,0.00365025,  -546.306E-03,   64.4158E-03,       5.50792,-0.0356761,-0.0106279,3.03599e-07
14966,11.0,1.0,0.00373824,  -537.454E-03,   64.4158E-03,       5.64057,-0.0376975,-0.0112343,2.96765e-07
14967,10.0,1.0,0.00381978,  -529.849E-03,   64.4158E-03,       5.76356,-0.0395711,-0.0117964,2.84445e-07
14972,9.0,1.0,0.00389457,  -523.450E-03,   64.4158E-03,       5.87640,-0.0412896,-0.0123119,2.67189e-07
14973,8.0,1.0,0.00396231,  -518.200E-03,   64.4158E-03,       5.97863,-0.0428461,-0.0127789,2.45674e-07
14978,7.0,1.0,0.00402272,  -514.022E-03,   64.4158E-03,       6.06984,-0.0442343,-0.0131954,2.2064e-07
14981,6.0,1.0,0.00407557,  -510.824E-03,   64.4158E-03,       6.14965,-0.0454488,-0.0135598,1.92835e-07
14982,5.0,1.0,0.00412065,  -508.496E-03,   64.4158E-03,       6.21775,-0.0464848,-0.0138706,1.62962e-07
14987,4.0,1.0,0.00415778,  -506.915E-03,   64.4158E-03,       6.27385,-0.0473381,-0.0141267,1.31633e-07
14988,3.0,1.0,0.00418681,  -505.947E-03,   64.4158E-03,       6.31773,-0.0480053,-0.0143269,9.93488e-08
14993,2.0,1.0,0.00420763,  -505.448E-03,   64.4158E-03,       6.34920,-0.0484838,-0.0144705,6.6486e-08
14996,1.0,1.0,0.00422016,  -505.265E-03,   64.4158E-03,       6.36813,-0.0487716,-0.0145569,3.33098e-08
14997,3.19846e-30,1.0,0.00422434,  -505.241E-03,   64.4158E-03,       6.37445,-0.0488677,-0.0145858,-5.9952e-15
15002,-1.0,1.0,0.00422016,  -505.217E-03,   64.4158E-03,       6.36813,-0.0487716,-0.0145569,-3.33098e-08
15003,-2.0,1.0,0.00420763,  -505.034E-03,   64.4158E-03,       6.34920,-0.0484838,-0.0144705,-6.6486e-08
15008,-3.0,1.0,0.00418681,  -504.535E-03,   64.4158E-03,       6.31773,-0.0480053,-0.0143269,-9.93488e-08
15011,-4.0,1.0,0.00415778,  -503.567E-03,   64.4158E-03,       6.27385,-0.0473381,-0.0141267,-1.31633e-07
15012,-5.0,1.0,0.00412065,  -501.986E-03,   64.4158E-03,       6.21775,-0.0464848,-0.0138706,-1.62962e-07
15017,-6.0,1.0,0.00407557,  -499.658E-03,   64.4158E-03,       6.14965,-0.0454488,-0.0135598,-1.92835e-07
15018,-7.0,1.0,0.00402272,  -496.460E-03,   64.4158E-03,       6.06984,-0.0442343,-0.0131954,-2.2064e-07
15023,-8.0,1.0,0.00396231,  -492.282E-03,   64.4158E-03,       5.97863,-0.0428461,-0.0127789,-2.45674e-07
15026,-9.0,1.0,0.00389457,  -487.032E-03,   64.4158E-03,       5.87640,-0.0412896,-0.0123119,-2.67189e-07
15027,-10.0,1.0,0.00381978,  -480.633E-03,   64.4158E-03,       5.76356,-0.0395711,-0.0117964,-2.84445e-07
15032,-11.0,1.0,0.00373824,  -473.027E-03,   64.4158E-03,       5.64057,-0.0376975,-0.0112343,-2.96765e-07
15033,-12.0,1.0,0.00365025,  -464.176E-03,   64.4158E-03,       5.50792,-0.0356761,-0.0106279,-3.03599e-07
15038,-13.0,1.0,0.00355618,  -454.058E-03,   64.4158E-03,       5.36615,-0.0335151,-0.00997964,-3.04573e-07
15041,-14.0,1.0,0.0034564,  -442.676E-03,   64.4158E-03,       5.21583,-0.031223,-0.009292,-2.99531e-07
15042,-15.0,1.0,0.0033513,  -430.050E-03,   64.4158E-03,       5.05755,-0.0288089,-0.00856772,-2.88568e-07
15047,-16.0,1.0,0.00324129,  -416.220E-03,   64.4158E-03,       4.89194,-0.0262824,-0.00780968,-2.72036e-07
15048,-17.0,1.0,0.00312682,  -401.245E-03,   64.4158E-03,       4.71967,-0.0236534,-0.00702085,-2.50537e-07
15053,-18.0,1.0,0.00300834,  -385.203E-03,   64.4158E-03,       4.54140,-0.0209324,-0.00620435,-2.24893e-07
15056,-19.0,1.0,0.00288631,  -368.186E-03,   64.4158E-03,       4.35785,-0.0181301,-0.00536342,-1.961e-07
15057,-20.0,1.0,0.00276123,  -350.304E-03,   64.4158E-03,       4.16973,-0.0152576,-0.00450137,-1.65265e-07
15062,-21.0,1.0,0.00263358,  -331.680E-03,   64.4158E-03,       3.97778,-0.0123261,-0.0036216,-1.33533e-07
15063,-22.0,1.0,0.00250388,  -312.447E-03,   64.4158E-03,       3.78275,-0.00934721,-0.00272759,-1.02001e-07
15068,-23.0,1.0,0.00237263,  -292.750E-03,   64.4158E-03,       3.58540,-0.00633259,-0.00182285,-7.16449e-08
15071,-24.0,1.0,0.00224036,  -272.740E-03,   64.4159E-03,       3.38650,-0.0032941,-0.000910974,-4.32486e-08
15072,-25.0,1.0,0.00210759,  -252.571E-03,   64.4159E-03,       3.18682,-0.000243662,4.4628e-06,-1.7348e-08
15077,-26.0,1.0,0.00197484,  -232.403E-03,   64.4159E-03,       2.98715,0.00280674,0.00091985,5.79494e-09
15078,-27.0,1.0,0.00184265,  -212.394E-03,   64.4159E-03,       2.78825,0.00584514,0.00183158,2.61937e-08
15083,-28.0,1.0,0.00171154,  -192.699E-03,   64.4159E-03,       2.59091,0.00885959,0.00273607,4.41058e-08
15086,-29.0,1.0,0.00158202,  -173.469E-03,   64.4159E-03,       2.39590,0.0118382,0.00362974,5.99729e-08
15087,-30.0,1.0,0.00145461,  -154.848E-03,   64.4159E-03,       2.20396,0.0147694,0.00450909,7.43361e-08
15092,-31.0,1.0,0.00132981,  -136.971E-03,   64.4159E-03,       2.01586,0.0176415,0.00537064,8.77381e-08
15093,-32.0,1.0,0.00120812,  -119.959E-03,   64.4159E-03,       1.83234,0.0204431,0.00621098,1.0062e-07
15098,-33.0,1.0,0.00109002,  -103.922E-03,   64.4159E-03,       1.65410,0.0231633,0.00702681,1.13234e-07
15101,-34.0,1.0,0.0009759689999999999,  -88.9527E-03,   64.4159E-03,       1.48186,0.0257913,0.00781489,1.25575e-07
15102,-35.0,1.0,0.0008664230000000001,  -75.1290E-03,   64.4159E-03,       1.31629,0.0283166,0.0085721,1.37354e-07
15107,-36.0,1.0,0.000761812,  -62.5095E-03,   64.4159E-03,       1.15805,0.0307292,0.00929544,1.48013e-07
15108,-37.0,1.0,0.000662548,  -51.1343E-03,   64.4158E-03,       1.00777,0.0330194,0.00998204,1.56785e-07
15113,-38.0,1.0,0.00056902,  -41.0238E-03,   64.4158E-03,   866.050E-03,0.0351783,0.0106292,1.62796e-07
15116,-39.0,1.0,0.000481595,  -32.1785E-03,   64.4158E-03,   733.453E-03,0.037197,0.0112343,1.652e-07
15117,-40.0,1.0,0.00040061400000000004,  -24.5790E-03,   64.4158E-03,   610.514E-03,0.0390677,0.0117949,1.63317e-07
15122,-41.0,1.0,0.000326392,  -18.1861E-03,   64.4158E-03,   497.727E-03,0.0407827,0.0123089,1.5677e-07
15123,-42.0,1.0,0.000259217,  -12.9415E-03,   64.4158E-03,   395.547E-03,0.0423352,0.0127742,1.45588e-07
15128,-43.0,1.0,0.000199347,  -8.76878E-03,   64.4158E-03,   304.389E-03,0.043719,0.0131889,1.30254e-07
15131,-44.0,1.0,0.00014701,  -5.57446E-03,   64.4158E-03,   224.621E-03,0.0449285,0.0135514,1.11686e-07
15132,-45.0,1.0,0.00010240399999999999,  -3.24956E-03,   64.4158E-03,   156.569E-03,0.0459589,0.0138602,9.11316e-08
15137,-46.0,1.0,6.569550000000001e-05,  -1.67128E-03,   64.4158E-03,   100.509E-03,0.0468061,0.0141141,7.00076e-08
15138,-47.0,1.0,3.7017199999999995e-05,  -704.983E-06,   64.4158E-03,   56.6694E-03,0.0474666,0.014312,4.96515e-08
15143,-48.0,1.0,1.64695e-05,  -206.328E-06,   64.4158E-03,   25.2284E-03,0.0479378,0.0144533,3.10802e-08
15146,-49.0,1.0,4.11939e-06,  -23.5714E-06,   64.4158E-03,   6.31333E-03,0.0482178,0.0145372,1.47274e-08
15147,-50.0,1.0,0.0,  -12.7532E-42,   64.4158E-03,           -0.,0.0483099,0.0145648,7.1129e-09
15152,50.0,6.59554e-23,0.0,      -1.01048,   64.4148E-03,           -0.,0.0483099,0.0145648,2.75335e-14
15153,49.0,6.59554e-23,4.1191399999999995e-06,      -1.01046,   64.4148E-03,   6.31333E-03,0.0482179,0.0145372,1.93179e-14
15158,48.0,6.59554e-23,1.64685e-05,      -1.01028,   64.4148E-03,   25.2284E-03,0.0479378,0.0144533,1.93179e-14
15161,47.0,6.59554e-23,3.70149e-05,      -1.00978,   64.4148E-03,   56.6694E-03,0.0474666,0.0143121,5.86198e-14
15162,46.0,6.59554e-23,6.56915e-05,      -1.00881,   64.4148E-03,   100.509E-03,0.0468061,0.0141141,5.72875e-14
15167,45.0,6.59554e-23,0.00010239799999999999,      -1.00723,   64.4148E-03,   156.569E-03,0.0459589,0.0138602,-3.64153e-14
15168,44.0,6.59554e-23,0.000147001,      -1.00491,   64.4148E-03,   224.621E-03,0.0449285,0.0135514,-1.25233e-13
15173,43.0,6.59554e-23,0.000199334,      -1.00171,   64.4148E-03,   304.389E-03,0.043719,0.0131889,-6.21725e-14
15176,42.0,6.59554e-23,0.000259201,  -997.540E-03,   64.4148E-03,   395.547E-03,0.0423352,0.0127742,1.95399e-14
15177,41.0,6.59554e-23,0.000326372,  -992.296E-03,   64.4148E-03,   497.727E-03,0.0407827,0.0123089,-1.06581e-14
15182,40.0,6.59554e-23,0.00040059,  -985.903E-03,   64.4148E-03,   610.514E-03,0.0390677,0.0117949,-7.10543e-15
15183,39.0,6.59554e-23,0.000481566,  -978.303E-03,   64.4148E-03,   733.453E-03,0.037197,0.0112343,4.79616e-14
15188,38.0,6.59554e-23,0.000568986,  -969.458E-03,   64.4148E-03,   866.050E-03,0.0351783,0.0106292,3.73035e-14
15191,37.0,6.59554e-23,0.0006625089999999999,  -959.348E-03,   64.4148E-03,       1.00777,0.0330194,0.00998203,-3.37508e-14
15192,36.0,6.59554e-23,0.000761767,  -947.972E-03,   64.4148E-03,       1.15805,0.0307292,0.00929543,-5.32907e-14
15197,35.0,6.59554e-23,0.000866372,  -935.353E-03,   64.4148E-03,       1.31629,0.0283166,0.00857209,2.84217e-14
15198,34.0,6.59554e-23,0.000975912,  -921.529E-03,   64.4148E-03,       1.48186,0.0257913,0.00781488,9.05942e-14
15203,33.0,6.59554e-23,0.00108996,  -906.560E-03,   64.4148E-03,       1.65410,0.0231633,0.0070268,3.73035e-14
15206,32.0,6.59554e-23,0.00120805,  -890.523E-03,   64.4148E-03,       1.83234,0.0204431,0.00621097,-2.84217e-14
15207,31.0,6.59554e-23,0.00132974,  -873.511E-03,   64.4148E-03,       2.01586,0.0176415,0.00537063,-3.64153e-14
15212,30.0,6.59554e-23,0.00145453,  -855.633E-03,   64.4148E-03,       2.20396,0.0147694,0.00450908,-1.77636e-14
15213,29.0,6.59554e-23,0.00158193,  -837.013E-03,   64.4148E-03,       2.39590,0.0118382,0.00362974,8.88178e-16
15218,28.0,6.59554e-23,0.00171144,  -817.783E-03,   64.4148E-03,       2.59091,0.00885959,0.00273606,1.82077e-14
15221,27.0,6.59554e-23,0.00184255,  -798.088E-03,   64.4148E-03,       2.78825,0.00584514,0.00183158,3.33067e-15
15222,26.0,6.59554e-23,0.00197473,  -778.079E-03,   64.4148E-03,       2.98715,0.00280675,0.000919845,-1.16018e-14
15227,25.0,6.59554e-23,0.00210747,  -757.911E-03,   64.4148E-03,       3.18682,-0.000243652,4.45868e-06,-1.7597e-14
15228,24.0,6.59554e-23,0.00224024,  -737.742E-03,   64.4148E-03,       3.38650,-0.00329409,-0.000910978,-2.4869e-14
15233,23.0,6.59554e-23,0.0023725,  -717.731E-03,   64.4148E-03,       3.58540,-0.00633258,-0.00182286,-9.32587e-15
15236,22.0,6.59554e-23,0.00250374,  -698.034E-03,   64.4148E-03,       3.78275,-0.00934719,-0.00272759,-1.77636e-14
15237,21.0,6.59554e-23,0.00263344,  -678.802E-03,   64.4148E-03,       3.97778,-0.0123261,-0.0036216,-1.06581e-14
15242,20.0,6.59554e-23,0.00276108,  -660.178E-03,   64.4148E-03,       4.16973,-0.0152576,-0.00450137,1.06581e-14
15243,19.0,6.59554e-23,0.00288616,  -642.296E-03,   64.4148E-03,       4.35785,-0.0181301,-0.00536342,-1.77636e-15
15248,18.0,6.59554e-23,0.00300818,  -625.279E-03,   64.4148E-03,       4.54140,-0.0209324,-0.00620436,-4.79616e-14
15251,17.0,6.59554e-23,0.00312666,  -609.237E-03,   64.4148E-03,       4.71967,-0.0236534,-0.00702085,-4.79616e-14
15252,16.0,6.59554e-23,0.00324113,  -594.262E-03,   64.4148E-03,       4.89194,-0.0262824,-0.00780968,0.0
15257,15.0,6.59554e-23,0.00335112,  -580.432E-03,   64.4148E-03,       5.05755,-0.0288089,-0.00856773,0.0
15258,14.0,6.59554e-23,0.00345622,  -567.805E-03,   64.4148E-03,       5.21583,-0.031223,-0.009292,1.42109e-14
15263,13.0,6.59554e-23,0.003556,  -556.423E-03,   64.4148E-03,       5.36615,-0.0335151,-0.00997965,1.06581e-14
15266,12.0,6.59554e-23,0.00365007,  -546.306E-03,   64.4148E-03,       5.50792,-0.0356761,-0.0106279,-3.55271e-14
15267,11.0,6.59554e-23,0.00373805,  -537.454E-03,   64.4148E-03,       5.64057,-0.0376975,-0.0112343,-1.42109e-14
15272,10.0,6.59554e-23,0.00381959,  -529.849E-03,   64.4148E-03,       5.76356,-0.0395711,-0.0117964,1.06581e-14
15273,9.0,6.59554e-23,0.00389438,  -523.450E-03,   64.4148E-03,       5.87640,-0.0412896,-0.0123119,-7.10543e-15
15278,8.0,6.59554e-23,0.00396211,  -518.200E-03,   64.4148E-03,       5.97863,-0.0428461,-0.0127789,-8.88178e-15
15281,7.0,6.59554e-23,0.00402252,  -514.022E-03,   64.4148E-03,       6.06984,-0.0442343,-0.0131954,-1.24345e-14
15282,6.0,6.59554e-23,0.00407537,  -510.824E-03,   64.4148E-03,       6.14965,-0.0454489,-0.0135598,-1.06581e-14
15287,5.0,6.59554e-23,0.00412045,  -508.496E-03,   64.4148E-03,       6.21775,-0.0464848,-0.0138706,-2.13163e-14
15288,4.0,6.59554e-23,0.00415758,  -506.915E-03,   64.4148E-03,       6.27385,-0.0473381,-0.0141267,-1.86517e-14
15293,3.0,6.59554e-23,0.00418661,  -505.947E-03,   64.4148E-03,       6.31773,-0.0480053,-0.0143269,8.88178e-16
15294,2.0,6.59554e-23,0.00420743,  -505.448E-03,   64.4148E-03,       6.34920,-0.0484838,-0.0144705,4.44089e-16
15299,1.0,6.59554e-23,0.00421995,  -505.265E-03,   64.4148E-03,       6.36813,-0.0487716,-0.0145569,0.0
15300,-4.3154e-30,6.59554e-23,0.00422413,  -505.241E-03,   64.4148E-03,       6.37445,-0.0488677,-0.0145857,2.44249e-15
15305,-1.0,6.59554e-23,0.00421995,  -505.217E-03,   64.4148E-03,       6.36813,-0.0487716,-0.0145569,-1.17684e-14
15308,-2.0,6.59554e-23,0.00420743,  -505.034E-03,   64.4148E-03,       6.34920,-0.0484838,-0.0144705,-2.53131e-14
15309,-3.0,6.59554e-23,0.00418661,  -504.535E-03,   64.4148E-03,       6.31773,-0.0480053,-0.0143269,-1.5099e-14
15314,-4.0,6.59554e-23,0.00415758,  -503.567E-03,   64.4148E-03,       6.27385,-0.0473381,-0.0141267,7.99361e-15
15315,-5.0,6.59554e-23,0.00412045,  -501.986E-03,   64.4148E-03,       6.21775,-0.0464848,-0.0138706,1.42109e-14
15320,-6.0,6.59554e-23,0.00407537,  -499.658E-03,   64.4148E-03,       6.14965,-0.0454489,-0.0135598,0.0
15323,-7.0,6.59554e-23,0.00402252,  -496.460E-03,   64.4148E-03,       6.06984,-0.0442343,-0.0131954,-3.55271e-15
15324,-8.0,6.59554e-23,0.00396211,  -492.282E-03,   64.4148E-03,       5.97863,-0.0428461,-0.0127789,-2.13163e-14
15329,-9.0,6.59554e-23,0.00389438,  -487.032E-03,   64.4148E-03,       5.87640,-0.0412896,-0.0123119,-2.4869e-14
15330,-10.0,6.59554e-23,0.00381959,  -480.633E-03,   64.4148E-03,       5.76356,-0.0395711,-0.0117964,-1.42109e-14
15335,-11.0,6.59554e-23,0.00373805,  -473.027E-03,   64.4148E-03,       5.64057,-0.0376975,-0.0112343,-7.10543e-15
15338,-12.0,6.59554e-23,0.00365007,  -464.176E-03,   64.4148E-03,       5.50792,-0.0356761,-0.0106279,-1.06581e-14
15339,-13.0,6.59554e-23,0.003556,  -454.058E-03,   64.4148E-03,       5.36615,-0.0335151,-0.00997965,-3.55271e-14
15344,-14.0,6.59554e-23,0.00345622,  -442.676E-03,   64.4148E-03,       5.21583,-0.031223,-0.009292,-1.77636e-14
15345,-15.0,6.59554e-23,0.00335112,  -430.050E-03,   64.4148E-03,       5.05755,-0.0288089,-0.00856773,1.42109e-14
15350,-16.0,6.59554e-23,0.00324113,  -416.220E-03,   64.4148E-03,       4.89194,-0.0262824,-0.00780968,3.55271e-14
15353,-17.0,6.59554e-23,0.00312666,  -401.245E-03,   64.4148E-03,       4.71967,-0.0236534,-0.00702085,1.59872e-14
15354,-18.0,6.59554e-23,0.00300818,  -385.203E-03,   64.4148E-03,       4.54140,-0.0209324,-0.00620436,1.42109e-14
15359,-19.0,6.59554e-23,0.00288616,  -368.186E-03,   64.4148E-03,       4.35785,-0.0181301,-0.00536342,2.13163e-14
15360,-20.0,6.59554e-23,0.00276108,  -350.304E-03,   64.4148E-03,       4.16973,-0.0152576,-0.00450137,-8.88178e-15
15365,-21.0,6.59554e-23,0.00263344,  -331.680E-03,   64.4148E-03,       3.97778,-0.0123261,-0.0036216,5.24025e-14
15368,-22.0,6.59554e-23,0.00250374,  -312.447E-03,   64.4148E-03,       3.78275,-0.00934719,-0.00272759,8.26006e-14
15369,-23.0,6.59554e-23,0.0023725,  -292.750E-03,   64.4148E-03,       3.58540,-0.00633258,-0.00182286,3.24185e-14
15374,-24.0,6.59554e-23,0.00224024,  -272.740E-03,   64.4148E-03,       3.38650,-0.00329409,-0.000910978,-1.33227e-14
15375,-25.0,6.59554e-23,0.00210747,  -252.571E-03,   64.4148E-03,       3.18682,-0.000243652,4.45868e-06,-2.62013e-14
15380,-26.0,6.59554e-23,0.00197473,  -232.403E-03,   64.4148E-03,       2.98715,0.00280675,0.000919845,1.9762e-14
15383,-27.0,6.59554e-23,0.00184255,  -212.394E-03,   64.4148E-03,       2.78825,0.00584514,0.00183158,2.10942e-14
15384,-28.0,6.59554e-23,0.00171144,  -192.699E-03,   64.4148E-03,       2.59091,0.00885959,0.00273606,-1.02141e-14
15389,-29.0,6.59554e-23,0.00158193,  -173.469E-03,   64.4148E-03,       2.39590,0.0118382,0.00362974,7.99361e-15
15390,-30.0,6.59554e-23,0.00145453,  -154.848E-03,   64.4148E-03,       2.20396,0.0147694,0.00450908,9.76996e-15
15395,-31.0,6.59554e-23,0.00132974,  -136.971E-03,   64.4148E-03,       2.01586,0.0176415,0.00537063,-2.30926e-14
15398,-32.0,6.59554e-23,0.00120805,  -119.959E-03,   64.4148E-03,       1.83234,0.0204431,0.00621097,3.55271e-15
15399,-33.0,6.59554e-23,0.00108996,  -103.922E-03,   64.4148E-03,       1.65410,0.0231633,0.0070268,4.70735e-14
15404,-34.0,6.59554e-23,0.000975912,  -88.9527E-03,   64.4148E-03,       1.48186,0.0257913,0.00781488,1.24345e-14
15405,-35.0,6.59554e-23,0.000866372,  -75.1290E-03,   64.4148E-03,       1.31629,0.0283166,0.00857209,5.32907e-15
15410,-36.0,6.59554e-23,0.000761767,  -62.5095E-03,   64.4148E-03,       1.15805,0.0307292,0.00929543,7.81597e-14
15413,-37.0,6.59554e-23,0.0006625089999999999,  -51.1343E-03,   64.4148E-03,       1.00777,0.0330194,0.00998203,7.28306e-14
15414,-38.0,6.59554e-23,0.000568986,  -41.0238E-03,   64.4148E-03,   866.050E-03,0.0351783,0.0106292,-3.55271e-14
15419,-39.0,6.59554e-23,0.000481566,  -32.1785E-03,   64.4148E-03,   733.453E-03,0.037197,0.0112343,-2.13163e-14
15420,-40.0,6.59554e-23,0.00040059,  -24.5790E-03,   64.4148E-03,   610.514E-03,0.0390677,0.0117949,4.61853e-14
15425,-41.0,6.59554e-23,0.000326372,  -18.1861E-03,   64.4148E-03,   497.727E-03,0.0407827,0.0123089,3.55271e-14
15428,-42.0,6.59554e-23,0.000259201,  -12.9415E-03,   64.4148E-03,   395.547E-03,0.0423352,0.0127742,8.88178e-15
15429,-43.0,6.59554e-23,0.000199334,  -8.76878E-03,   64.4148E-03,   304.389E-03,0.043719,0.0131889,3.37508e-14
15434,-44.0,6.59554e-23,0.000147001,  -5.57446E-03,   64.4148E-03,   224.621E-03,0.0449285,0.0135514,3.37508e-14
15435,-45.0,6.59554e-23,0.00010239799999999999,  -3.24956E-03,   64.4148E-03,   156.569E-03,0.0459589,0.0138602,1.5099e-14
15440,-46.0,6.59554e-23,6.56915e-05,  -1.67128E-03,   64.4148E-03,   100.509E-03,0.0468061,0.0141141,5.06262e-14
15443,-47.0,6.59554e-23,3.70149e-05,  -704.983E-06,   64.4148E-03,   56.6694E-03,0.0474666,0.0143121,1.18572e-13
15444,-48.0,6.59554e-23,1.64685e-05,  -206.328E-06,   64.4148E-03,   25.2284E-03,0.0479378,0.0144533,7.08322e-14
15449,-49.0,6.59554e-23,4.1191399999999995e-06,  -23.5715E-06,   64.4148E-03,   6.31333E-03,0.0482179,0.0145372,2.74225e-14
15450,-50.0,6.59554e-23,0.0,  -12.7518E-42,   64.4148E-03,           -0.,0.0483099,0.0145648,9.70335e-14
15455,50.0,-1.0,0.0,      -1.01048,   64.4137E-03,           -0.,0.0483099,0.0145648,7.11284e-09
15458,49.0,-1.0,4.11939e-06,      -1.01046,   64.4137E-03,   6.31333E-03,0.0482178,0.0145372,1.47273e-08
15459,48.0,-1.0,1.64695e-05,      -1.01028,   64.4137E-03,   25.2284E-03,0.0479378,0.0144533,3.10802e-08
15464,47.0,-1.0,3.7017199999999995e-05,      -1.00978,   64.4137E-03,   56.6694E-03,0.0474666,0.014312,4.96515e-08
15465,46.0,-1.0,6.569550000000001e-05,      -1.00881,   64.4137E-03,   100.509E-03,0.0468061,0.0141141,7.00077e-08
15470,45.0,-1.0,0.00010240399999999999,      -1.00723,   64.4137E-03,   156.569E-03,0.0459589,0.0138602,9.11316e-08
15473,44.0,-1.0,0.00014701,      -1.00491,   64.4137E-03,   224.621E-03,0.0449285,0.0135514,1.11686e-07
15474,43.0,-1.0,0.000199347,      -1.00171,   64.4137E-03,   304.389E-03,0.043719,0.0131889,1.30254e-07
15479,42.0,-1.0,0.000259217,  -997.540E-03,   64.4137E-03,   395.547E-03,0.0423352,0.0127742,1.45588e-07
15480,41.0,-1.0,0.000326392,  -992.296E-03,   64.4137E-03,   497.727E-03,0.0407827,0.0123089,1.5677e-07
15485,40.0,-1.0,0.00040061400000000004,  -985.903E-03,   64.4137E-03,   610.514E-03,0.0390677,0.0117949,1.63317e-07
15488,39.0,-1.0,0.000481595,  -978.303E-03,   64.4137E-03,   733.453E-03,0.037197,0.0112343,1.652e-07
15489,38.0,-1.0,0.00056902,  -969.458E-03,   64.4137E-03,   866.050E-03,0.0351783,0.0106292,1.62796e-07
15494,37.0,-1.0,0.000662548,  -959.348E-03,   64.4137E-03,       1.00777,0.0330194,0.00998204,1.56785e-07
15495,36.0,-1.0,0.000761812,  -947.972E-03,   64.4137E-03,       1.15805,0.0307292,0.00929544,1.48013e-07
15500,35.0,-1.0,0.0008664230000000001,  -935.353E-03,   64.4137E-03,       1.31629,0.0283166,0.0085721,1.37354e-07
15503,34.0,-1.0,0.0009759689999999999,  -921.529E-03,   64.4136E-03,       1.48186,0.0257913,0.00781489,1.25575e-07
15504,33.0,-1.0,0.00109002,  -906.560E-03,   64.4136E-03,       1.65410,0.0231633,0.00702681,1.13234e-07
15509,32.0,-1.0,0.00120812,  -890.523E-03,   64.4136E-03,       1.83234,0.0204431,0.00621098,1.0062e-07
15510,31.0,-1.0,0.00132981,  -873.511E-03,   64.4136E-03,       2.01586,0.0176415,0.00537064,8.77381e-08
15515,30.0,-1.0,0.00145461,  -855.633E-03,   64.4136E-03,       2.20396,0.0147694,0.00450909,7.43361e-08
15518,29.0,-1.0,0.00158202,  -837.013E-03,   64.4136E-03,       2.39590,0.0118382,0.00362974,5.99729e-08
15519,28.0,-1.0,0.00171154,  -817.783E-03,   64.4136E-03,       2.59091,0.00885959,0.00273607,4.41058e-08
15524,27.0,-1.0,0.00184265,  -798.088E-03,   64.4136E-03,       2.78825,0.00584514,0.00183158,2.61937e-08
15525,26.0,-1.0,0.00197484,  -778.079E-03,   64.4137E-03,       2.98715,0.00280674,0.00091985,5.79487e-09
15530,25.0,-1.0,0.00210759,  -757.911E-03,   64.4137E-03,       3.18682,-0.000243662,4.4628e-06,-1.7348e-08
15533,24.0,-1.0,0.00224036,  -737.742E-03,   64.4137E-03,       3.38650,-0.0032941,-0.000910974,-4.32487e-08
15534,23.0,-1.0,0.00237263,  -717.731E-03,   64.4137E-03,       3.58540,-0.00633259,-0.00182285,-7.1645e-08
15539,22.0,-1.0,0.00250388,  -698.034E-03,   64.4137E-03,       3.78275,-0.00934721,-0.00272759,-1.02001e-07
15540,21.0,-1.0,0.00263358,  -678.802E-03,   64.4137E-03,       3.97778,-0.0123261,-0.0036216,-1.33533e-07
15545,20.0,-1.0,0.00276123,  -660.178E-03,   64.4137E-03,       4.16973,-0.0152576,-0.00450137,-1.65265e-07
15548,19.0,-1.0,0.00288631,  -642.296E-03,   64.4137E-03,       4.35785,-0.0181301,-0.00536342,-1.961e-07
15549,18.0,-1.0,0.00300834,  -625.279E-03,   64.4137E-03,       4.54140,-0.0209324,-0.00620435,-2.24893e-07
15554,17.0,-1.0,0.00312682,  -609.236E-03,   64.4137E-03,       4.71967,-0.0236534,-0.00702085,-2.50537e-07
15555,16.0,-1.0,0.00324129,  -594.262E-03,   64.4137E-03,       4.89194,-0.0262824,-0.00780968,-2.72036e-07
15560,15.0,-1.0,0.0033513,  -580.432E-03,   64.4137E-03,       5.05755,-0.0288089,-0.00856772,-2.88568e-07
15563,14.0,-1.0,0.0034564,  -567.805E-03,   64.4137E-03,       5.21583,-0.031223,-0.009292,-2.99531e-07
15564,13.0,-1.0,0.00355618,  -556.423E-03,   64.4137E-03,       5.36615,-0.0335151,-0.00997964,-3.04573e-07
15569,12.0,-1.0,0.00365025,  -546.306E-03,   64.4137E-03,       5.50792,-0.0356761,-0.0106279,-3.03599e-07
15570,11.0,-1.0,0.00373824,  -537.454E-03,   64.4137E-03,       5.64057,-0.0376975,-0.0112343,-2.96765e-07
15575,10.0,-1.0,0.00381978,  -529.849E-03,   64.4137E-03,       5.76356,-0.0395711,-0.0117964,-2.84445e-07
15578,9.0,-1.0,0.00389457,  -523.450E-03,   64.4137E-03,       5.87640,-0.0412896,-0.0123119,-2.67189e-07
15579,8.0,-1.0,0.00396231,  -518.200E-03,   64.4137E-03,       5.97863,-0.0428461,-0.0127789,-2.45674e-07
15584,7.0,-1.0,0.00402272,  -514.022E-03,   64.4137E-03,       6.06984,-0.0442343,-0.0131954,-2.2064e-07
15585,6.0,-1.0,0.00407557,  -510.824E-03,   64.4137E-03,       6.14965,-0.0454488,-0.0135598,-1.92835e-07
15590,5.0,-1.0,0.00412065,  -508.496E-03,   64.4137E-03,       6.21775,-0.0464848,-0.0138706,-1.62962e-07
15593,4.0,-1.0,0.00415778,  -506.915E-03,   64.4137E-03,       6.27385,-0.0473381,-0.0141267,-1.31633e-07
15594,3.0,-1.0,0.00418681,  -505.947E-03,   64.4137E-03,       6.31773,-0.0480053,-0.0143269,-9.93488e-08
15599,2.0,-1.0,0.00420763,  -505.448E-03,   64.4137E-03,       6.34920,-0.0484838,-0.0144705,-6.6486e-08
15600,1.0,-1.0,0.00422016,  -505.265E-03,   64.4137E-03,       6.36813,-0.0487716,-0.0145569,-3.33098e-08
15605,3.96269e-30,-1.0,0.00422434,  -505.241E-03,   64.4137E-03,       6.37445,-0.0488677,-0.0145858,-3.55271e-15
15608,-1.0,-1.0,0.00422016,  -505.217E-03,   64.4137E-03,       6.36813,-0.0487716,-0.0145569,3.33098e-08
15609,-2.0,-1.0,0.00420763,  -505.034E-03,   64.4137E-03,       6.34920,-0.0484838,-0.0144705,6.6486e-08
15614,-3.0,-1.0,0.00418681,  -504.535E-03,   64.4137E-03,       6.31773,-0.0480053,-0.0143269,9.93488e-08
15615,-4.0,-1.0,0.00415778,  -503.567E-03,   64.4137E-03,       6.27385,-0.0473381,-0.0141267,1.31633e-07
15620,-5.0,-1.0,0.00412065,  -501.986E-03,   64.4137E-03,       6.21775,-0.0464848,-0.0138706,1.62962e-07
15623,-6.0,-1.0,0.00407557,  -499.658E-03,   64.4137E-03,       6.14965,-0.0454488,-0.0135598,1.92835e-07
15624,-7.0,-1.0,0.00402272,  -496.460E-03,   64.4137E-03,       6.06984,-0.0442343,-0.0131954,2.2064e-07
15629,-8.0,-1.0,0.00396231,  -492.282E-03,   64.4137E-03,       5.97863,-0.0428461,-0.0127789,2.45674e-07
15630,-9.0,-1.0,0.00389457,  -487.032E-03,   64.4137E-03,       5.87640,-0.0412896,-0.0123119,2.67189e-07
15635,-10.0,-1.0,0.00381978,  -480.633E-03,   64.4137E-03,       5.76356,-0.0395711,-0.0117964,2.84445e-07
15638,-11.0,-1.0,0.00373824,  -473.027E-03,   64.4137E-03,       5.64057,-0.0376975,-0.0112343,2.96765e-07
15639,-12.0,-1.0,0.00365025,  -464.176E-03,   64.4137E-03,       5.50792,-0.0356761,-0.0106279,3.03599e-07
15644,-13.0,-1.0,0.00355618,  -454.058E-03,   64.4137E-03,       5.36615,-0.0335151,-0.00997964,3.04573e-07
15645,-14.0,-1.0,0.0034564,  -442.676E-03,   64.4137E-03,       5.21583,-0.031223,-0.009292,2.99531e-07
15650,-15.0,-1.0,0.0033513,  -430.050E-03,   64.4137E-03,       5.05755,-0.0288089,-0.00856772,2.88568e-07
15653,-16.0,-1.0,0.00324129,  -416.220E-03,   64.4137E-03,       4.89194,-0.0262824,-0.00780968,2.72036e-07
15654,-17.0,-1.0,0.00312682,  -401.245E-03,   64.4137E-03,       4.71967,-0.0236534,-0.00702085,2.50537e-07
15659,-18.0,-1.0,0.00300834,  -385.203E-03,   64.4137E-03,       4.54140,-0.0209324,-0.00620435,2.24893e-07
15660,-19.0,-1.0,0.00288631,  -368.186E-03,   64.4137E-03,       4.35785,-0.0181301,-0.00536342,1.961e-07
15665,-20.0,-1.0,0.00276123,  -350.304E-03,   64.4137E-03,       4.16973,-0.0152576,-0.00450137,1.65265e-07
15668,-21.0,-1.0,0.00263358,  -331.680E-03,   64.4137E-03,       3.97778,-0.0123261,-0.0036216,1.33533e-07
15669,-22.0,-1.0,0.00250388,  -312.447E-03,   64.4137E-03,       3.78275,-0.00934721,-0.00272759,1.02001e-07
15674,-23.0,-1.0,0.00237263,  -292.750E-03,   64.4137E-03,       3.58540,-0.00633259,-0.00182285,7.16449e-08
15675,-24.0,-1.0,0.00224036,  -272.740E-03,   64.4137E-03,       3.38650,-0.0032941,-0.000910974,4.32486e-08
15680,-25.0,-1.0,0.00210759,  -252.571E-03,   64.4137E-03,       3.18682,-0.000243662,4.4628e-06,1.7348e-08
15683,-26.0,-1.0,0.00197484,  -232.403E-03,   64.4137E-03,       2.98715,0.00280674,0.00091985,-5.79486e-09
15684,-27.0,-1.0,0.00184265,  -212.394E-03,   64.4136E-03,       2.78825,0.00584514,0.00183158,-2.61937e-08
15689,-28.0,-1.0,0.00171154,  -192.699E-03,   64.4136E-03,       2.59091,0.00885959,0.00273607,-4.41058e-08
15690,-29.0,-1.0,0.00158202,  -173.469E-03,   64.4136E-03,       2.39590,0.0118382,0.00362974,-5.99729e-08
15695,-30.0,-1.0,0.00145461,  -154.848E-03,   64.4136E-03,       2.20396,0.0147694,0.00450909,-7.43361e-08
15698,-31.0,-1.0,0.00132981,  -136.971E-03,   64.4136E-03,       2.01586,0.0176415,0.00537064,-8.77381e-08
15699,-32.0,-1.0,0.00120812,  -119.959E-03,   64.4136E-03,       1.83234,0.0204431,0.00621098,-1.0062e-07
15704,-33.0,-1.0,0.00109002,  -103.922E-03,   64.4136E-03,       1.65410,0.0231633,0.00702681,-1.13234e-07
15705,-34.0,-1.0,0.0009759689999999999,  -88.9527E-03,   64.4136E-03,       1.48186,0.0257913,0.00781489,-1.25575e-07
15710,-35.0,-1.0,0.0008664230000000001,  -75.1290E-03,   64.4137E-03,       1.31629,0.0283166,0.0085721,-1.37354e-07
15713,-36.0,-1.0,0.000761812,  -62.5095E-03,   64.4137E-03,       1.15805,0.0307292,0.00929544,-1.48013e-07
15714,-37.0,-1.0,0.000662548,  -51.1343E-03,   64.4137E-03,       1.00777,0.0330194,0.00998204,-1.56785e-07
15719,-38.0,-1.0,0.00056902,  -41.0238E-03,   64.4137E-03,   866.050E-03,0.0351783,0.0106292,-1.62796e-07
15720,-39.0,-1.0,0.000481595,  -32.1785E-03,   64.4137E-03,   733.453E-03,0.037197,0.0112343,-1.652e-07
15725,-40.0,-1.0,0.00040061400000000004,  -24.5790E-03,   64.4137E-03,   610.514E-03,0.0390677,0.0117949,-1.63317e-07
15728,-41.0,-1.0,0.000326392,  -18.1861E-03,   64.4137E-03,   497.727E-03,0.0407827,0.0123089,-1.5677e-07
15729,-42.0,-1.0,0.000259217,  -12.9415E-03,   64.4137E-03,   395.547E-03,0.0423352,0.0127742,-1.45588e-07
15734,-43.0,-1.0,0.000199347,  -8.76878E-03,   64.4137E-03,   304.389E-03,0.043719,0.0131889,-1.30254e-07
15735,-44.0,-1.0,0.00014701,  -5.57446E-03,   64.4137E-03,   224.621E-03,0.0449285,0.0135514,-1.11686e-07
15740,-45.0,-1.0,0.00010240399999999999,  -3.24956E-03,   64.4137E-03,   156.569E-03,0.0459589,0.0138602,-9.11316e-08
15743,-46.0,-1.0,6.569550000000001e-05,  -1.67128E-03,   64.4137E-03,   100.509E-03,0.0468061,0.0141141,-7.00076e-08
15744,-47.0,-1.0,3.7017199999999995e-05,  -704.983E-06,   64.4137E-03,   56.6694E-03,0.0474666,0.014312,-4.96515e-08
15749,-48.0,-1.0,1.64695e-05,  -206.328E-06,   64.4137E-03,   25.2284E-03,0.0479378,0.0144533,-3.10803e-08
15750,-49.0,-1.0,4.11939e-06,  -23.5714E-06,   64.4137E-03,   6.31333E-03,0.0482178,0.0145372,-1.47273e-08
15755,-50.0,-1.0,0.0,  -12.7518E-42,   64.4137E-03,           -0.,0.0483099,0.0145648,-7.11276e-09
15758,50.0,-2.0,0.0,      -1.01048,   64.4127E-03,           -0.,0.0483099,0.0145648,1.39747e-08
15759,49.0,-2.0,4.12014e-06,      -1.01046,   64.4127E-03,   6.31332E-03,0.0482178,0.0145372,2.90107e-08
15764,48.0,-2.0,1.64725e-05,      -1.01028,   64.4127E-03,   25.2284E-03,0.0479378,0.0144532,6.1537e-08
15765,47.0,-2.0,3.7024e-05,      -1.00978,   64.4127E-03,   56.6694E-03,0.0474666,0.014312,9.87939e-08
15770,46.0,-2.0,6.57076e-05,      -1.00881,   64.4127E-03,   100.509E-03,0.0468061,0.014114,1.39801e-07
15773,45.0,-2.0,0.00010242299999999999,      -1.00723,   64.4127E-03,   156.569E-03,0.0459589,0.0138601,1.82445e-07
15774,44.0,-2.0,0.000147037,      -1.00491,   64.4127E-03,   224.621E-03,0.0449285,0.0135513,2.23938e-07
15779,43.0,-2.0,0.000199383,      -1.00171,   64.4127E-03,   304.388E-03,0.043719,0.0131889,2.61391e-07
15780,42.0,-2.0,0.000259264,  -997.540E-03,   64.4126E-03,   395.547E-03,0.0423352,0.0127742,2.92247e-07
15785,41.0,-2.0,0.000326451,  -992.296E-03,   64.4126E-03,   497.727E-03,0.0407827,0.0123089,3.14655e-07
15788,40.0,-2.0,0.000400686,  -985.903E-03,   64.4126E-03,   610.514E-03,0.0390677,0.0117949,3.27652e-07
15789,39.0,-2.0,0.00048168099999999997,  -978.303E-03,   64.4126E-03,   733.453E-03,0.0371971,0.0112343,3.31206e-07
15794,38.0,-2.0,0.0005691219999999999,  -969.458E-03,   64.4126E-03,   866.050E-03,0.0351783,0.0106292,3.26111e-07
15795,37.0,-2.0,0.000662665,  -959.348E-03,   64.4126E-03,       1.00777,0.0330195,0.00998207,3.13773e-07
15800,36.0,-2.0,0.0007619460000000001,  -947.972E-03,   64.4126E-03,       1.15805,0.0307292,0.00929547,2.95938e-07
15803,35.0,-2.0,0.000866575,  -935.353E-03,   64.4125E-03,       1.31629,0.0283166,0.00857213,2.74389e-07
15804,34.0,-2.0,0.0009761389999999999,  -921.529E-03,   64.4125E-03,       1.48186,0.0257913,0.00781492,2.50692e-07
15809,33.0,-2.0,0.00109021,  -906.560E-03,   64.4125E-03,       1.65410,0.0231633,0.00702684,2.25973e-07
15810,32.0,-2.0,0.00120833,  -890.523E-03,   64.4125E-03,       1.83234,0.0204431,0.00621101,2.00811e-07
15815,31.0,-2.0,0.00133004,  -873.511E-03,   64.4125E-03,       2.01586,0.0176415,0.00537066,1.75196e-07
15818,30.0,-2.0,0.00145485,  -855.633E-03,   64.4125E-03,       2.20396,0.0147694,0.00450911,1.486e-07
15819,29.0,-2.0,0.00158228,  -837.013E-03,   64.4125E-03,       2.39590,0.0118382,0.00362976,1.20104e-07
15824,28.0,-2.0,0.00171182,  -817.783E-03,   64.4125E-03,       2.59091,0.00885958,0.00273608,8.8588e-08
15825,27.0,-2.0,0.00184296,  -798.088E-03,   64.4125E-03,       2.78825,0.00584512,0.0018316,5.29352e-08
15830,26.0,-2.0,0.00197517,  -778.079E-03,   64.4125E-03,       2.98715,0.00280672,0.000919863,1.22353e-08
15833,25.0,-2.0,0.00210793,  -757.910E-03,   64.4125E-03,       3.18682,-0.000243693,4.47514e-06,-3.40461e-08
15834,24.0,-2.0,0.00224072,  -737.742E-03,   64.4126E-03,       3.38650,-0.00329413,-0.000910963,-8.59431e-08
15839,23.0,-2.0,0.00237301,  -717.731E-03,   64.4126E-03,       3.58540,-0.00633263,-0.00182284,-1.4293e-07
15840,22.0,-2.0,0.00250427,  -698.034E-03,   64.4126E-03,       3.78275,-0.00934725,-0.00272758,-2.03918e-07
15845,21.0,-2.0,0.002634,  -678.802E-03,   64.4126E-03,       3.97778,-0.0123262,-0.00362159,-2.6732e-07
15848,20.0,-2.0,0.00276166,  -660.178E-03,   64.4126E-03,       4.16973,-0.0152577,-0.00450136,-3.31154e-07
15849,19.0,-2.0,0.00288676,  -642.296E-03,   64.4126E-03,       4.35785,-0.0181302,-0.00536341,-3.93187e-07
15854,18.0,-2.0,0.00300881,  -625.279E-03,   64.4126E-03,       4.54140,-0.0209325,-0.00620434,-4.51095e-07
15855,17.0,-2.0,0.0031273,  -609.236E-03,   64.4126E-03,       4.71967,-0.0236535,-0.00702084,-5.02631e-07
15860,16.0,-2.0,0.00324179,  -594.262E-03,   64.4126E-03,       4.89194,-0.0262824,-0.00780967,-5.45771e-07
15863,15.0,-2.0,0.00335181,  -580.431E-03,   64.4126E-03,       5.05755,-0.0288089,-0.00856771,-5.78848e-07
15864,14.0,-2.0,0.00345692,  -567.805E-03,   64.4126E-03,       5.21583,-0.031223,-0.00929199,-6.00648e-07
15869,13.0,-2.0,0.00355672,  -556.423E-03,   64.4126E-03,       5.36615,-0.0335151,-0.00997963,-6.10466e-07
15870,12.0,-2.0,0.0036508,  -546.306E-03,   64.4126E-03,       5.50792,-0.0356761,-0.0106279,-6.08131e-07
15875,11.0,-2.0,0.0037388,  -537.454E-03,   64.4126E-03,       5.64057,-0.0376974,-0.0112343,-5.93978e-07
15878,10.0,-2.0,0.00382036,  -529.849E-03,   64.4126E-03,       5.76356,-0.0395711,-0.0117964,-5.68796e-07
15879,9.0,-2.0,0.00389516,  -523.450E-03,   64.4126E-03,       5.87639,-0.0412895,-0.0123119,-5.33735e-07
15884,8.0,-2.0,0.0039629,  -518.200E-03,   64.4126E-03,       5.97863,-0.042846,-0.0127789,-4.90199e-07
15885,7.0,-2.0,0.00402332,  -514.022E-03,   64.4126E-03,       6.06984,-0.0442343,-0.0131954,-4.39722e-07
15890,6.0,-2.0,0.00407618,  -510.824E-03,   64.4126E-03,       6.14965,-0.0454488,-0.0135598,-3.83842e-07
15893,5.0,-2.0,0.00412126,  -508.496E-03,   64.4126E-03,       6.21775,-0.0464848,-0.0138707,-3.23996e-07
15894,4.0,-2.0,0.0041584,  -506.915E-03,   64.4126E-03,       6.27385,-0.0473381,-0.0141267,-2.61425e-07
15899,3.0,-2.0,0.00418743,  -505.947E-03,   64.4126E-03,       6.31773,-0.0480053,-0.014327,-1.97125e-07
15900,2.0,-2.0,0.00420825,  -505.448E-03,   64.4126E-03,       6.34920,-0.0484838,-0.0144706,-1.31825e-07
15905,1.0,-2.0,0.00422078,  -505.265E-03,   64.4126E-03,       6.36813,-0.0487716,-0.014557,-6.60154e-08
15908,0.0,-2.0,0.00422496,  -505.241E-03,   64.4126E-03,       6.37445,-0.0488677,-0.0145858,-9.76996e-15
15909,-1.0,-2.0,0.00422078,  -505.217E-03,   64.4126E-03,       6.36813,-0.0487716,-0.014557,6.60154e-08
15914,-2.0,-2.0,0.00420825,  -505.034E-03,   64.4126E-03,       6.34920,-0.0484838,-0.0144706,1.31825e-07
15915,-3.0,-2.0,0.00418743,  -504.535E-03,   64.4126E-03,       6.31773,-0.0480053,-0.014327,1.97125e-07
15920,-4.0,-2.0,0.0041584,  -503.567E-03,   64.4126E-03,       6.27385,-0.0473381,-0.0141267,2.61425e-07
15923,-5.0,-2.0,0.00412126,  -501.986E-03,   64.4126E-03,       6.21775,-0.0464848,-0.0138707,3.23996e-07
15924,-6.0,-2.0,0.00407618,  -499.658E-03,   64.4126E-03,       6.14965,-0.0454488,-0.0135598,3.83842e-07
15929,-7.0,-2.0,0.00402332,  -496.460E-03,   64.4126E-03,       6.06984,-0.0442343,-0.0131954,4.39722e-07
15930,-8.0,-2.0,0.0039629,  -492.282E-03,   64.4126E-03,       5.97863,-0.042846,-0.0127789,4.90199e-07
15935,-9.0,-2.0,0.00389516,  -487.032E-03,   64.4126E-03,       5.87639,-0.0412895,-0.0123119,5.33735e-07
15938,-10.0,-2.0,0.00382036,  -480.633E-03,   64.4126E-03,       5.76356,-0.0395711,-0.0117964,5.68796e-07
15939,-11.0,-2.0,0.0037388,  -473.027E-03,   64.4126E-03,       5.64057,-0.0376974,-0.0112343,5.93978e-07
15944,-12.0,-2.0,0.0036508,  -464.176E-03,   64.4126E-03,       5.50792,-0.0356761,-0.0106279,6.08131e-07
15945,-13.0,-2.0,0.00355672,  -454.058E-03,   64.4126E-03,       5.36615,-0.0335151,-0.00997963,6.10466e-07
15950,-14.0,-2.0,0.00345692,  -442.676E-03,   64.4126E-03,       5.21583,-0.031223,-0.00929199,6.00648e-07
15953,-15.0,-2.0,0.00335181,  -430.050E-03,   64.4126E-03,       5.05755,-0.0288089,-0.00856771,5.78848e-07
15954,-16.0,-2.0,0.00324179,  -416.220E-03,   64.4126E-03,       4.89194,-0.0262824,-0.00780967,5.45771e-07
15959,-17.0,-2.0,0.0031273,  -401.245E-03,   64.4126E-03,       4.71967,-0.0236535,-0.00702084,5.02631e-07
15960,-18.0,-2.0,0.00300881,  -385.203E-03,   64.4126E-03,       4.54140,-0.0209325,-0.00620434,4.51095e-07
15965,-19.0,-2.0,0.00288676,  -368.186E-03,   64.4126E-03,       4.35785,-0.0181302,-0.00536341,3.93187e-07
15968,-20.0,-2.0,0.00276166,  -350.304E-03,   64.4126E-03,       4.16973,-0.0152577,-0.00450136,3.31154e-07
15969,-21.0,-2.0,0.002634,  -331.680E-03,   64.4126E-03,       3.97778,-0.0123262,-0.00362159,2.6732e-07
15974,-22.0,-2.0,0.00250427,  -312.448E-03,   64.4126E-03,       3.78275,-0.00934725,-0.00272758,2.03918e-07
15975,-23.0,-2.0,0.00237301,  -292.751E-03,   64.4126E-03,       3.58540,-0.00633263,-0.00182284,1.4293e-07
15980,-24.0,-2.0,0.00224072,  -272.740E-03,   64.4126E-03,       3.38650,-0.00329413,-0.000910963,8.59431e-08
15983,-25.0,-2.0,0.00210793,  -252.571E-03,   64.4125E-03,       3.18682,-0.000243693,4.47514e-06,3.40461e-08
15984,-26.0,-2.0,0.00197517,  -232.403E-03,   64.4125E-03,       2.98715,0.00280672,0.000919863,-1.22353e-08
15989,-27.0,-2.0,0.00184296,  -212.394E-03,   64.4125E-03,       2.78825,0.00584512,0.0018316,-5.29352e-08
15990,-28.0,-2.0,0.00171182,  -192.699E-03,   64.4125E-03,       2.59091,0.00885958,0.00273608,-8.85881e-08
15995,-29.0,-2.0,0.00158228,  -173.469E-03,   64.4125E-03,       2.39590,0.0118382,0.00362976,-1.20104e-07
15998,-30.0,-2.0,0.00145485,  -154.849E-03,   64.4125E-03,       2.20396,0.0147694,0.00450911,-1.486e-07
15999,-31.0,-2.0,0.00133004,  -136.971E-03,   64.4125E-03,       2.01586,0.0176415,0.00537066,-1.75196e-07
16004,-32.0,-2.0,0.00120833,  -119.959E-03,   64.4125E-03,       1.83234,0.0204431,0.00621101,-2.00811e-07
16005,-33.0,-2.0,0.00109021,  -103.922E-03,   64.4125E-03,       1.65410,0.0231633,0.00702684,-2.25973e-07
16010,-34.0,-2.0,0.0009761389999999999,  -88.9527E-03,   64.4125E-03,       1.48186,0.0257913,0.00781492,-2.50692e-07
16013,-35.0,-2.0,0.000866575,  -75.1290E-03,   64.4125E-03,       1.31629,0.0283166,0.00857213,-2.74389e-07
16014,-36.0,-2.0,0.0007619460000000001,  -62.5095E-03,   64.4126E-03,       1.15805,0.0307292,0.00929547,-2.95938e-07
16019,-37.0,-2.0,0.000662665,  -51.1343E-03,   64.4126E-03,       1.00777,0.0330195,0.00998207,-3.13773e-07
16020,-38.0,-2.0,0.0005691219999999999,  -41.0238E-03,   64.4126E-03,   866.050E-03,0.0351783,0.0106292,-3.26111e-07
16025,-39.0,-2.0,0.00048168099999999997,  -32.1785E-03,   64.4126E-03,   733.453E-03,0.0371971,0.0112343,-3.31206e-07
16028,-40.0,-2.0,0.000400686,  -24.5790E-03,   64.4126E-03,   610.514E-03,0.0390677,0.0117949,-3.27652e-07
16029,-41.0,-2.0,0.000326451,  -18.1861E-03,   64.4126E-03,   497.727E-03,0.0407827,0.0123089,-3.14655e-07
16034,-42.0,-2.0,0.000259264,  -12.9415E-03,   64.4126E-03,   395.547E-03,0.0423352,0.0127742,-2.92247e-07
16035,-43.0,-2.0,0.000199383,  -8.76877E-03,   64.4127E-03,   304.388E-03,0.043719,0.0131889,-2.61391e-07
16040,-44.0,-2.0,0.000147037,  -5.57446E-03,   64.4127E-03,   224.621E-03,0.0449285,0.0135513,-2.23938e-07
16043,-45.0,-2.0,0.00010242299999999999,  -3.24956E-03,   64.4127E-03,   156.569E-03,0.0459589,0.0138601,-1.82445e-07
16044,-46.0,-2.0,6.57076e-05,  -1.67128E-03,   64.4127E-03,   100.509E-03,0.0468061,0.014114,-1.39801e-07
16049,-47.0,-2.0,3.7024e-05,  -704.982E-06,   64.4127E-03,   56.6694E-03,0.0474666,0.014312,-9.8794e-08
16050,-48.0,-2.0,1.64725e-05,  -206.327E-06,   64.4127E-03,   25.2284E-03,0.0479378,0.0144532,-6.15371e-08
16055,-49.0,-2.0,4.12014e-06,  -23.5712E-06,   64.4127E-03,   6.31332E-03,0.0482178,0.0145372,-2.90107e-08
16058,-50.0,-2.0,0.0,  -12.7504E-42,   64.4127E-03,           -0.,0.0483099,0.0145648,-1.39745e-08
16059,50.0,-3.0,0.0,      -1.01048,   64.4117E-03,           -0.,0.0483098,0.0145647,2.02503e-08
16064,49.0,-3.0,4.1214e-06,      -1.01046,   64.4117E-03,   6.31332E-03,0.0482178,0.0145371,4.23925e-08
16065,48.0,-3.0,1.64776e-05,      -1.01028,   64.4117E-03,   25.2284E-03,0.0479378,0.0144532,9.07248e-08
16070,47.0,-3.0,3.70353e-05,      -1.00978,   64.4117E-03,   56.6693E-03,0.0474666,0.0143119,1.46877e-07
16073,46.0,-3.0,6.572779999999999e-05,      -1.00881,   64.4117E-03,   100.509E-03,0.0468061,0.014114,2.09152e-07
16074,45.0,-3.0,0.00010245399999999999,      -1.00723,   64.4116E-03,   156.569E-03,0.0459589,0.0138601,2.74091e-07
16079,44.0,-3.0,0.000147082,      -1.00491,   64.4116E-03,   224.621E-03,0.0449285,0.0135513,3.37318e-07
16080,43.0,-3.0,0.000199444,      -1.00171,   64.4116E-03,   304.388E-03,0.043719,0.0131888,3.94282e-07
16085,42.0,-3.0,0.000259343,  -997.540E-03,   64.4116E-03,   395.547E-03,0.0423352,0.0127742,4.41047e-07
16088,41.0,-3.0,0.00032655,  -992.296E-03,   64.4116E-03,   497.727E-03,0.0407827,0.0123089,4.7477e-07
16089,40.0,-3.0,0.000400807,  -985.903E-03,   64.4116E-03,   610.514E-03,0.0390677,0.0117949,4.94023e-07
16094,39.0,-3.0,0.000481826,  -978.303E-03,   64.4115E-03,   733.453E-03,0.0371971,0.0112343,4.9882e-07
16095,38.0,-3.0,0.000569291,  -969.458E-03,   64.4115E-03,   866.050E-03,0.0351783,0.0106292,4.90455e-07
16100,37.0,-3.0,0.000662862,  -959.348E-03,   64.4115E-03,       1.00777,0.0330195,0.00998211,4.71161e-07
16103,36.0,-3.0,0.0007621710000000001,  -947.972E-03,   64.4115E-03,       1.15805,0.0307292,0.00929552,4.43672e-07
16104,35.0,-3.0,0.000866828,  -935.353E-03,   64.4114E-03,       1.31629,0.0283166,0.00857218,4.10774e-07
16109,34.0,-3.0,0.000976422,  -921.529E-03,   64.4114E-03,       1.48186,0.0257913,0.00781497,3.74877e-07
16110,33.0,-3.0,0.00109052,  -906.560E-03,   64.4114E-03,       1.65410,0.0231634,0.00702689,3.37711e-07
16115,32.0,-3.0,0.00120867,  -890.523E-03,   64.4114E-03,       1.83234,0.0204431,0.00621105,3.00133e-07
16118,31.0,-3.0,0.00133042,  -873.511E-03,   64.4114E-03,       2.01586,0.0176415,0.0053707,2.62091e-07
16119,30.0,-3.0,0.00145526,  -855.633E-03,   64.4114E-03,       2.20396,0.0147694,0.00450914,2.2272e-07
16124,29.0,-3.0,0.00158273,  -837.013E-03,   64.4114E-03,       2.39590,0.0118382,0.00362979,1.80559e-07
16125,28.0,-3.0,0.0017123,  -817.783E-03,   64.4114E-03,       2.59091,0.00885956,0.00273611,1.33834e-07
16130,27.0,-3.0,0.00184346,  -798.088E-03,   64.4114E-03,       2.78825,0.00584509,0.00183162,8.07872e-08
16133,26.0,-3.0,0.0019757,  -778.078E-03,   64.4114E-03,       2.98715,0.00280668,0.000919886,1.99822e-08
16134,25.0,-3.0,0.0021085,  -757.910E-03,   64.4114E-03,       3.18682,-0.000243743,4.49556e-06,-4.94274e-08
16139,24.0,-3.0,0.00224132,  -737.742E-03,   64.4115E-03,       3.38650,-0.0032942,-0.000910944,-1.27515e-07
16140,23.0,-3.0,0.00237364,  -717.731E-03,   64.4115E-03,       3.58540,-0.0063327,-0.00182283,-2.13481e-07
16145,22.0,-3.0,0.00250494,  -698.034E-03,   64.4115E-03,       3.78275,-0.00934733,-0.00272756,-3.05662e-07
16148,21.0,-3.0,0.00263469,  -678.802E-03,   64.4115E-03,       3.97778,-0.0123262,-0.00362158,-4.01615e-07
16149,20.0,-3.0,0.00276239,  -660.178E-03,   64.4115E-03,       4.16973,-0.0152577,-0.00450135,-4.98293e-07
16154,19.0,-3.0,0.00288752,  -642.296E-03,   64.4115E-03,       4.35785,-0.0181303,-0.0053634,-5.92257e-07
16155,18.0,-3.0,0.00300958,  -625.279E-03,   64.4115E-03,       4.54140,-0.0209325,-0.00620433,-6.79933e-07
16160,17.0,-3.0,0.00312811,  -609.236E-03,   64.4115E-03,       4.71967,-0.0236535,-0.00702082,-7.57859e-07
16163,16.0,-3.0,0.00324262,  -594.261E-03,   64.4115E-03,       4.89194,-0.0262824,-0.00780965,-8.22925e-07
16164,15.0,-3.0,0.00335266,  -580.431E-03,   64.4115E-03,       5.05755,-0.0288089,-0.0085677,-8.72576e-07
16169,14.0,-3.0,0.0034578,  -567.805E-03,   64.4115E-03,       5.21583,-0.031223,-0.00929197,-9.04959e-07
16170,13.0,-3.0,0.00355762,  -556.423E-03,   64.4115E-03,       5.36615,-0.0335151,-0.00997961,-9.19022e-07
16175,12.0,-3.0,0.00365172,  -546.306E-03,   64.4115E-03,       5.50792,-0.0356761,-0.0106279,-9.14543e-07
16178,11.0,-3.0,0.00373973,  -537.454E-03,   64.4115E-03,       5.64056,-0.0376974,-0.0112343,-8.92096e-07
16179,10.0,-3.0,0.00382131,  -529.848E-03,   64.4115E-03,       5.76355,-0.039571,-0.0117964,-8.52962e-07
16184,9.0,-3.0,0.00389613,  -523.450E-03,   64.4115E-03,       5.87639,-0.0412895,-0.0123119,-7.9899e-07
16185,8.0,-3.0,0.00396388,  -518.200E-03,   64.4115E-03,       5.97863,-0.0428459,-0.0127789,-7.32416e-07
16190,7.0,-3.0,0.00402432,  -514.022E-03,   64.4115E-03,       6.06983,-0.0442342,-0.0131954,-6.55669e-07
16193,6.0,-3.0,0.00407719,  -510.824E-03,   64.4115E-03,       6.14965,-0.0454488,-0.0135598,-5.71169e-07
16194,5.0,-3.0,0.00412228,  -508.496E-03,   64.4115E-03,       6.21775,-0.0464848,-0.0138707,-4.81149e-07
16199,4.0,-3.0,0.00415942,  -506.915E-03,   64.4115E-03,       6.27385,-0.0473381,-0.0141268,-3.8751e-07
16200,3.0,-3.0,0.00418846,  -505.947E-03,   64.4115E-03,       6.31773,-0.0480053,-0.014327,-2.91733e-07
16205,2.0,-3.0,0.00420929,  -505.448E-03,   64.4115E-03,       6.34920,-0.0484838,-0.0144707,-1.94855e-07
16208,1.0,-3.0,0.00422182,  -505.265E-03,   64.4115E-03,       6.36813,-0.0487717,-0.0145571,-9.75043e-08
16209,2.68867e-30,-3.0,0.004226,  -505.241E-03,   64.4115E-03,       6.37445,-0.0488677,-0.0145859,-7.99361e-15
16214,-1.0,-3.0,0.00422182,  -505.217E-03,   64.4115E-03,       6.36813,-0.0487717,-0.0145571,9.75043e-08
16215,-2.0,-3.0,0.00420929,  -505.034E-03,   64.4115E-03,       6.34920,-0.0484838,-0.0144707,1.94855e-07
16220,-3.0,-3.0,0.00418846,  -504.535E-03,   64.4115E-03,       6.31773,-0.0480053,-0.014327,2.91733e-07
16223,-4.0,-3.0,0.00415942,  -503.567E-03,   64.4115E-03,       6.27385,-0.0473381,-0.0141268,3.8751e-07
16224,-5.0,-3.0,0.00412228,  -501.986E-03,   64.4115E-03,       6.21775,-0.0464848,-0.0138707,4.81149e-07
16229,-6.0,-3.0,0.00407719,  -499.658E-03,   64.4115E-03,       6.14965,-0.0454488,-0.0135598,5.71169e-07
16230,-7.0,-3.0,0.00402432,  -496.460E-03,   64.4115E-03,       6.06983,-0.0442342,-0.0131954,6.55669e-07
16235,-8.0,-3.0,0.00396388,  -492.282E-03,   64.4115E-03,       5.97863,-0.0428459,-0.0127789,7.32416e-07
16238,-9.0,-3.0,0.00389613,  -487.032E-03,   64.4115E-03,       5.87639,-0.0412895,-0.0123119,7.9899e-07
16239,-10.0,-3.0,0.00382131,  -480.633E-03,   64.4115E-03,       5.76355,-0.039571,-0.0117964,8.52962e-07
16244,-11.0,-3.0,0.00373973,  -473.027E-03,   64.4115E-03,       5.64056,-0.0376974,-0.0112343,8.92096e-07
16245,-12.0,-3.0,0.00365172,  -464.176E-03,   64.4115E-03,       5.50792,-0.0356761,-0.0106279,9.14543e-07
16250,-13.0,-3.0,0.00355762,  -454.058E-03,   64.4115E-03,       5.36615,-0.0335151,-0.00997961,9.19022e-07
16251,-14.0,-3.0,0.0034578,  -442.676E-03,   64.4115E-03,       5.21583,-0.031223,-0.00929197,9.04959e-07
16256,-15.0,-3.0,0.00335266,  -430.050E-03,   64.4115E-03,       5.05755,-0.0288089,-0.0085677,8.72576e-07
16257,-16.0,-3.0,0.00324262,  -416.220E-03,   64.4115E-03,       4.89194,-0.0262824,-0.00780965,8.22925e-07
16262,-17.0,-3.0,0.00312811,  -401.245E-03,   64.4115E-03,       4.71967,-0.0236535,-0.00702082,7.57859e-07
16265,-18.0,-3.0,0.00300958,  -385.203E-03,   64.4115E-03,       4.54140,-0.0209325,-0.00620433,6.79933e-07
16266,-19.0,-3.0,0.00288752,  -368.186E-03,   64.4115E-03,       4.35785,-0.0181303,-0.0053634,5.92257e-07
16271,-20.0,-3.0,0.00276239,  -350.304E-03,   64.4115E-03,       4.16973,-0.0152577,-0.00450135,4.98293e-07
16272,-21.0,-3.0,0.00263469,  -331.680E-03,   64.4115E-03,       3.97778,-0.0123262,-0.00362158,4.01615e-07
16277,-22.0,-3.0,0.00250494,  -312.448E-03,   64.4115E-03,       3.78275,-0.00934733,-0.00272756,3.05662e-07
16280,-23.0,-3.0,0.00237364,  -292.751E-03,   64.4115E-03,       3.58540,-0.0063327,-0.00182283,2.13481e-07
16281,-24.0,-3.0,0.00224132,  -272.740E-03,   64.4115E-03,       3.38650,-0.0032942,-0.000910944,1.27515e-07
16286,-25.0,-3.0,0.0021085,  -252.571E-03,   64.4114E-03,       3.18682,-0.000243743,4.49556e-06,4.94274e-08
16287,-26.0,-3.0,0.0019757,  -232.403E-03,   64.4114E-03,       2.98715,0.00280668,0.000919886,-1.99822e-08
16292,-27.0,-3.0,0.00184346,  -212.394E-03,   64.4114E-03,       2.78825,0.00584509,0.00183162,-8.07872e-08
16295,-28.0,-3.0,0.0017123,  -192.699E-03,   64.4114E-03,       2.59091,0.00885956,0.00273611,-1.33834e-07
16296,-29.0,-3.0,0.00158273,  -173.469E-03,   64.4114E-03,       2.39590,0.0118382,0.00362979,-1.80559e-07
16301,-30.0,-3.0,0.00145526,  -154.849E-03,   64.4114E-03,       2.20396,0.0147694,0.00450914,-2.2272e-07
16302,-31.0,-3.0,0.00133042,  -136.971E-03,   64.4114E-03,       2.01586,0.0176415,0.0053707,-2.62091e-07
16307,-32.0,-3.0,0.00120867,  -119.959E-03,   64.4114E-03,       1.83234,0.0204431,0.00621105,-3.00133e-07
16310,-33.0,-3.0,0.00109052,  -103.922E-03,   64.4114E-03,       1.65410,0.0231634,0.00702689,-3.37711e-07
16311,-34.0,-3.0,0.000976422,  -88.9528E-03,   64.4114E-03,       1.48186,0.0257913,0.00781497,-3.74877e-07
16316,-35.0,-3.0,0.000866828,  -75.1290E-03,   64.4114E-03,       1.31629,0.0283166,0.00857218,-4.10774e-07
16317,-36.0,-3.0,0.0007621710000000001,  -62.5095E-03,   64.4115E-03,       1.15805,0.0307292,0.00929552,-4.43672e-07
16322,-37.0,-3.0,0.000662862,  -51.1343E-03,   64.4115E-03,       1.00777,0.0330195,0.00998211,-4.71161e-07
16325,-38.0,-3.0,0.000569291,  -41.0238E-03,   64.4115E-03,   866.050E-03,0.0351783,0.0106292,-4.90454e-07
16326,-39.0,-3.0,0.000481826,  -32.1785E-03,   64.4115E-03,   733.453E-03,0.0371971,0.0112343,-4.9882e-07
16331,-40.0,-3.0,0.000400807,  -24.5790E-03,   64.4116E-03,   610.514E-03,0.0390677,0.0117949,-4.94022e-07
16332,-41.0,-3.0,0.00032655,  -18.1861E-03,   64.4116E-03,   497.727E-03,0.0407827,0.0123089,-4.7477e-07
16337,-42.0,-3.0,0.000259343,  -12.9415E-03,   64.4116E-03,   395.547E-03,0.0423352,0.0127742,-4.41047e-07
16340,-43.0,-3.0,0.000199444,  -8.76877E-03,   64.4116E-03,   304.388E-03,0.043719,0.0131888,-3.94282e-07
16341,-44.0,-3.0,0.000147082,  -5.57445E-03,   64.4116E-03,   224.621E-03,0.0449285,0.0135513,-3.37317e-07
16346,-45.0,-3.0,0.00010245399999999999,  -3.24955E-03,   64.4116E-03,   156.569E-03,0.0459589,0.0138601,-2.74091e-07
16347,-46.0,-3.0,6.572779999999999e-05,  -1.67127E-03,   64.4117E-03,   100.509E-03,0.0468061,0.014114,-2.09152e-07
16352,-47.0,-3.0,3.70353e-05,  -704.980E-06,   64.4117E-03,   56.6693E-03,0.0474666,0.0143119,-1.46877e-07
16355,-48.0,-3.0,1.64776e-05,  -206.326E-06,   64.4117E-03,   25.2284E-03,0.0479378,0.0144532,-9.07247e-08
16356,-49.0,-3.0,4.1214e-06,  -23.5709E-06,   64.4117E-03,   6.31332E-03,0.0482178,0.0145371,-4.23924e-08
16361,-50.0,-3.0,0.0,  -12.7504E-42,   64.4117E-03,           -0.,0.0483098,0.0145647,-2.02501e-08
16362,50.0,-4.0,0.0,      -1.01048,   64.4107E-03,           -0.,0.0483098,0.0145646,2.57328e-08
16367,49.0,-4.0,4.123169999999999e-06,      -1.01046,   64.4107E-03,   6.31331E-03,0.0482177,0.014537,5.43684e-08
16370,48.0,-4.0,1.64847e-05,      -1.01028,   64.4106E-03,   25.2283E-03,0.0479377,0.0144531,1.17926e-07
16371,47.0,-4.0,3.70513e-05,      -1.00978,   64.4106E-03,   56.6693E-03,0.0474665,0.0143118,1.93312e-07
16376,46.0,-4.0,6.575609999999999e-05,      -1.00881,   64.4106E-03,   100.509E-03,0.0468061,0.0141139,2.77753e-07
16377,45.0,-4.0,0.000102499,      -1.00723,   64.4106E-03,   156.569E-03,0.0459589,0.01386,3.66206e-07
16382,44.0,-4.0,0.000147145,      -1.00491,   64.4106E-03,   224.621E-03,0.0449285,0.0135512,4.52344e-07
16385,43.0,-4.0,0.00019952900000000002,      -1.00171,   64.4106E-03,   304.388E-03,0.043719,0.0131888,5.29798e-07
16386,42.0,-4.0,0.000259454,  -997.540E-03,   64.4105E-03,   395.547E-03,0.0423352,0.0127741,5.93052e-07
16391,41.0,-4.0,0.000326689,  -992.296E-03,   64.4105E-03,   497.726E-03,0.0407827,0.0123089,6.38233e-07
16392,40.0,-4.0,0.00040097699999999995,  -985.903E-03,   64.4105E-03,   610.514E-03,0.0390677,0.011795,6.63445e-07
16397,39.0,-4.0,0.00048202900000000003,  -978.303E-03,   64.4104E-03,   733.453E-03,0.0371971,0.0112344,6.68836e-07
16400,38.0,-4.0,0.00056953,  -969.458E-03,   64.4104E-03,   866.050E-03,0.0351783,0.0106293,6.56326e-07
16401,37.0,-4.0,0.0006631380000000001,  -959.347E-03,   64.4104E-03,       1.00777,0.0330195,0.00998218,6.29118e-07
16406,36.0,-4.0,0.000762486,  -947.972E-03,   64.4104E-03,       1.15805,0.0307292,0.00929559,5.9109e-07
16407,35.0,-4.0,0.0008671839999999999,  -935.353E-03,   64.4103E-03,       1.31629,0.0283166,0.00857225,5.46142e-07
16412,34.0,-4.0,0.00097682,  -921.529E-03,   64.4103E-03,       1.48186,0.0257913,0.00781504,4.9763e-07
16415,33.0,-4.0,0.00109096,  -906.560E-03,   64.4103E-03,       1.65410,0.0231634,0.00702695,4.47916e-07
16416,32.0,-4.0,0.00120916,  -890.523E-03,   64.4103E-03,       1.83234,0.0204432,0.00621111,3.98134e-07
16421,31.0,-4.0,0.00133095,  -873.511E-03,   64.4103E-03,       2.01586,0.0176415,0.00537075,3.48133e-07
16422,30.0,-4.0,0.00145584,  -855.633E-03,   64.4103E-03,       2.20396,0.0147694,0.00450919,2.96631e-07
16427,29.0,-4.0,0.00158335,  -837.012E-03,   64.4103E-03,       2.39590,0.0118382,0.00362984,2.41516e-07
16430,28.0,-4.0,0.00171296,  -817.783E-03,   64.4103E-03,       2.59091,0.00885953,0.00273615,1.80254e-07
16431,27.0,-4.0,0.00184417,  -798.088E-03,   64.4103E-03,       2.78825,0.00584505,0.00183166,1.1034e-07
16436,26.0,-4.0,0.00197646,  -778.078E-03,   64.4103E-03,       2.98715,0.00280662,0.000919917,2.97305e-08
16437,25.0,-4.0,0.0021093,  -757.910E-03,   64.4103E-03,       3.18682,-0.000243815,4.52383e-06,-6.27938e-08
16442,24.0,-4.0,0.00224217,  -737.742E-03,   64.4104E-03,       3.38650,-0.00329428,-0.000910919,-1.67365e-07
16445,23.0,-4.0,0.00237453,  -717.731E-03,   64.4104E-03,       3.58540,-0.0063328,-0.0018228,-2.82904e-07
16446,22.0,-4.0,0.00250587,  -698.034E-03,   64.4104E-03,       3.78275,-0.00934744,-0.00272754,-4.07125e-07
16451,21.0,-4.0,0.00263567,  -678.801E-03,   64.4104E-03,       3.97778,-0.0123264,-0.00362156,-5.36665e-07
16452,20.0,-4.0,0.0027634,  -660.177E-03,   64.4104E-03,       4.16973,-0.0152578,-0.00450133,-6.67313e-07
16457,19.0,-4.0,0.00288857,  -642.296E-03,   64.4104E-03,       4.35785,-0.0181304,-0.00536338,-7.94324e-07
16460,18.0,-4.0,0.00301068,  -625.279E-03,   64.4104E-03,       4.54140,-0.0209326,-0.00620431,-9.12756e-07
16461,17.0,-4.0,0.00312924,  -609.236E-03,   64.4104E-03,       4.71967,-0.0236536,-0.0070208,-1.01783e-06
16466,16.0,-4.0,0.00324378,  -594.261E-03,   64.4104E-03,       4.89194,-0.0262825,-0.00780963,-1.10526e-06
16467,15.0,-4.0,0.00335386,  -580.431E-03,   64.4104E-03,       5.05755,-0.0288089,-0.00856767,-1.17153e-06
16472,14.0,-4.0,0.00345903,  -567.805E-03,   64.4104E-03,       5.21583,-0.031223,-0.00929194,-1.21412e-06
16475,13.0,-4.0,0.00355888,  -556.423E-03,   64.4104E-03,       5.36615,-0.033515,-0.00997958,-1.23162e-06
16476,12.0,-4.0,0.00365301,  -546.306E-03,   64.4104E-03,       5.50792,-0.035676,-0.0106279,-1.22381e-06
16481,11.0,-4.0,0.00374105,  -537.454E-03,   64.4104E-03,       5.64056,-0.0376973,-0.0112343,-1.1916e-06
16482,10.0,-4.0,0.00382265,  -529.848E-03,   64.4104E-03,       5.76355,-0.0395709,-0.0117964,-1.13686e-06
16487,9.0,-4.0,0.00389749,  -523.450E-03,   64.4104E-03,       5.87639,-0.0412894,-0.0123119,-1.0623e-06
16490,8.0,-4.0,0.00396526,  -518.200E-03,   64.4104E-03,       5.97862,-0.0428458,-0.0127789,-9.7114e-07
16491,7.0,-4.0,0.00402571,  -514.022E-03,   64.4104E-03,       6.06983,-0.0442341,-0.0131954,-8.66868e-07
16496,6.0,-4.0,0.0040786,  -510.824E-03,   64.4104E-03,       6.14965,-0.0454487,-0.0135599,-7.52919e-07
16497,5.0,-4.0,0.0041237,  -508.496E-03,   64.4104E-03,       6.21775,-0.0464847,-0.0138708,-6.32418e-07
16502,4.0,-4.0,0.00416086,  -506.915E-03,   64.4104E-03,       6.27385,-0.047338,-0.0141269,-5.07973e-07
16505,3.0,-4.0,0.00418991,  -505.947E-03,   64.4104E-03,       6.31773,-0.0480053,-0.0143271,-3.81539e-07
16506,2.0,-4.0,0.00421074,  -505.448E-03,   64.4104E-03,       6.34920,-0.0484838,-0.0144708,-2.54383e-07
16511,1.0,-4.0,0.00422327,  -505.265E-03,   64.4104E-03,       6.36813,-0.0487717,-0.0145572,-1.27148e-07
16512,6.77227e-30,-4.0,0.00422745,  -505.241E-03,   64.4104E-03,       6.37445,-0.0488678,-0.014586,3.55271e-15
16517,-1.0,-4.0,0.00422327,  -505.217E-03,   64.4104E-03,       6.36813,-0.0487717,-0.0145572,1.27148e-07
16520,-2.0,-4.0,0.00421074,  -505.034E-03,   64.4104E-03,       6.34920,-0.0484838,-0.0144708,2.54383e-07
16521,-3.0,-4.0,0.00418991,  -504.535E-03,   64.4104E-03,       6.31773,-0.0480053,-0.0143271,3.81539e-07
16526,-4.0,-4.0,0.00416086,  -503.567E-03,   64.4104E-03,       6.27385,-0.047338,-0.0141269,5.07973e-07
16527,-5.0,-4.0,0.0041237,  -501.986E-03,   64.4104E-03,       6.21775,-0.0464847,-0.0138708,6.32418e-07
16532,-6.0,-4.0,0.0040786,  -499.658E-03,   64.4104E-03,       6.14965,-0.0454487,-0.0135599,7.52919e-07
16535,-7.0,-4.0,0.00402571,  -496.460E-03,   64.4104E-03,       6.06983,-0.0442341,-0.0131954,8.66868e-07
16536,-8.0,-4.0,0.00396526,  -492.282E-03,   64.4104E-03,       5.97862,-0.0428458,-0.0127789,9.7114e-07
16541,-9.0,-4.0,0.00389749,  -487.032E-03,   64.4104E-03,       5.87639,-0.0412894,-0.0123119,1.0623e-06
16542,-10.0,-4.0,0.00382265,  -480.633E-03,   64.4104E-03,       5.76355,-0.0395709,-0.0117964,1.13686e-06
16547,-11.0,-4.0,0.00374105,  -473.027E-03,   64.4104E-03,       5.64056,-0.0376973,-0.0112343,1.1916e-06
16550,-12.0,-4.0,0.00365301,  -464.176E-03,   64.4104E-03,       5.50792,-0.035676,-0.0106279,1.22381e-06
16551,-13.0,-4.0,0.00355888,  -454.058E-03,   64.4104E-03,       5.36615,-0.033515,-0.00997958,1.23162e-06
16556,-14.0,-4.0,0.00345903,  -442.677E-03,   64.4104E-03,       5.21583,-0.031223,-0.00929194,1.21412e-06
16557,-15.0,-4.0,0.00335386,  -430.050E-03,   64.4104E-03,       5.05755,-0.0288089,-0.00856767,1.17153e-06
16562,-16.0,-4.0,0.00324378,  -416.220E-03,   64.4104E-03,       4.89194,-0.0262825,-0.00780963,1.10526e-06
16565,-17.0,-4.0,0.00312924,  -401.246E-03,   64.4104E-03,       4.71967,-0.0236536,-0.0070208,1.01783e-06
16566,-18.0,-4.0,0.00301068,  -385.203E-03,   64.4104E-03,       4.54140,-0.0209326,-0.00620431,9.12756e-07
16571,-19.0,-4.0,0.00288857,  -368.186E-03,   64.4104E-03,       4.35785,-0.0181304,-0.00536338,7.94324e-07
16572,-20.0,-4.0,0.0027634,  -350.304E-03,   64.4104E-03,       4.16973,-0.0152578,-0.00450133,6.67313e-07
16577,-21.0,-4.0,0.00263567,  -331.680E-03,   64.4104E-03,       3.97778,-0.0123264,-0.00362156,5.36665e-07
16580,-22.0,-4.0,0.00250587,  -312.448E-03,   64.4104E-03,       3.78275,-0.00934744,-0.00272754,4.07125e-07
16581,-23.0,-4.0,0.00237453,  -292.751E-03,   64.4104E-03,       3.58540,-0.0063328,-0.0018228,2.82904e-07
16586,-24.0,-4.0,0.00224217,  -272.740E-03,   64.4104E-03,       3.38650,-0.00329428,-0.000910919,1.67365e-07
16587,-25.0,-4.0,0.0021093,  -252.572E-03,   64.4103E-03,       3.18682,-0.000243815,4.52383e-06,6.27938e-08
16592,-26.0,-4.0,0.00197646,  -232.404E-03,   64.4103E-03,       2.98715,0.00280662,0.000919917,-2.97305e-08
16595,-27.0,-4.0,0.00184417,  -212.394E-03,   64.4103E-03,       2.78825,0.00584505,0.00183166,-1.1034e-07
16596,-28.0,-4.0,0.00171296,  -192.699E-03,   64.4103E-03,       2.59091,0.00885953,0.00273615,-1.80254e-07
16601,-29.0,-4.0,0.00158335,  -173.469E-03,   64.4103E-03,       2.39590,0.0118382,0.00362984,-2.41516e-07
16602,-30.0,-4.0,0.00145584,  -154.849E-03,   64.4103E-03,       2.20396,0.0147694,0.00450919,-2.96631e-07
16607,-31.0,-4.0,0.00133095,  -136.971E-03,   64.4103E-03,       2.01586,0.0176415,0.00537075,-3.48133e-07
16610,-32.0,-4.0,0.00120916,  -119.959E-03,   64.4103E-03,       1.83234,0.0204432,0.00621111,-3.98134e-07
16611,-33.0,-4.0,0.00109096,  -103.922E-03,   64.4103E-03,       1.65410,0.0231634,0.00702695,-4.47916e-07
16616,-34.0,-4.0,0.00097682,  -88.9528E-03,   64.4103E-03,       1.48186,0.0257913,0.00781504,-4.9763e-07
16617,-35.0,-4.0,0.0008671839999999999,  -75.1291E-03,   64.4103E-03,       1.31629,0.0283166,0.00857225,-5.46142e-07
16622,-36.0,-4.0,0.000762486,  -62.5095E-03,   64.4104E-03,       1.15805,0.0307292,0.00929559,-5.9109e-07
16625,-37.0,-4.0,0.0006631380000000001,  -51.1343E-03,   64.4104E-03,       1.00777,0.0330195,0.00998218,-6.29117e-07
16626,-38.0,-4.0,0.00056953,  -41.0238E-03,   64.4104E-03,   866.050E-03,0.0351783,0.0106293,-6.56326e-07
16631,-39.0,-4.0,0.00048202900000000003,  -32.1785E-03,   64.4104E-03,   733.453E-03,0.0371971,0.0112344,-6.68836e-07
16632,-40.0,-4.0,0.00040097699999999995,  -24.5790E-03,   64.4105E-03,   610.514E-03,0.0390677,0.011795,-6.63445e-07
16637,-41.0,-4.0,0.000326689,  -18.1861E-03,   64.4105E-03,   497.726E-03,0.0407827,0.0123089,-6.38233e-07
16640,-42.0,-4.0,0.000259454,  -12.9415E-03,   64.4105E-03,   395.547E-03,0.0423352,0.0127741,-5.93052e-07
16641,-43.0,-4.0,0.00019952900000000002,  -8.76876E-03,   64.4106E-03,   304.388E-03,0.043719,0.0131888,-5.29798e-07
16646,-44.0,-4.0,0.000147145,  -5.57445E-03,   64.4106E-03,   224.621E-03,0.0449285,0.0135512,-4.52345e-07
16647,-45.0,-4.0,0.000102499,  -3.24955E-03,   64.4106E-03,   156.569E-03,0.0459589,0.01386,-3.66206e-07
16652,-46.0,-4.0,6.575609999999999e-05,  -1.67127E-03,   64.4106E-03,   100.509E-03,0.0468061,0.0141139,-2.77753e-07
16655,-47.0,-4.0,3.70513e-05,  -704.978E-06,   64.4106E-03,   56.6693E-03,0.0474665,0.0143118,-1.93312e-07
16656,-48.0,-4.0,1.64847e-05,  -206.325E-06,   64.4106E-03,   25.2283E-03,0.0479377,0.0144531,-1.17926e-07
16661,-49.0,-4.0,4.123169999999999e-06,  -23.5705E-06,   64.4107E-03,   6.31331E-03,0.0482177,0.014537,-5.43684e-08
16662,-50.0,-4.0,0.0,  -12.7490E-42,   64.4107E-03,           -0.,0.0483098,0.0145646,-2.57327e-08
16667,50.0,-5.0,0.0,      -1.01048,   64.4096E-03,           -0.,0.0483097,0.0145644,2.99502e-08
16670,49.0,-5.0,4.12546e-06,      -1.01046,   64.4096E-03,   6.31330E-03,0.0482177,0.0145369,6.43922e-08
16671,48.0,-5.0,1.64938e-05,      -1.01028,   64.4096E-03,   25.2283E-03,0.0479377,0.0144529,1.42359e-07
16676,47.0,-5.0,3.70719e-05,      -1.00978,   64.4096E-03,   56.6692E-03,0.0474665,0.0143117,2.3738e-07
16677,46.0,-5.0,6.57927e-05,      -1.00881,   64.4096E-03,   100.509E-03,0.0468061,0.0141138,3.45259e-07
16682,45.0,-5.0,0.000102556,      -1.00723,   64.4096E-03,   156.568E-03,0.045959,0.0138599,4.58826e-07
16685,44.0,-5.0,0.00014722700000000002,      -1.00491,   64.4095E-03,   224.621E-03,0.0449286,0.0135512,5.69529e-07
16686,43.0,-5.0,0.00019964,      -1.00171,   64.4095E-03,   304.388E-03,0.0437191,0.0131887,6.68772e-07
16691,42.0,-5.0,0.00025959700000000003,  -997.540E-03,   64.4095E-03,   395.546E-03,0.0423353,0.0127741,7.49326e-07
16692,41.0,-5.0,0.00032686900000000003,  -992.296E-03,   64.4094E-03,   497.726E-03,0.0407828,0.0123089,8.06154e-07
16697,40.0,-5.0,0.000401196,  -985.903E-03,   64.4094E-03,   610.513E-03,0.0390678,0.011795,8.36931e-07
16700,39.0,-5.0,0.000482291,  -978.303E-03,   64.4094E-03,   733.453E-03,0.0371971,0.0112344,8.42042e-07
16701,38.0,-5.0,0.000569838,  -969.458E-03,   64.4093E-03,   866.049E-03,0.0351784,0.0106294,8.24199e-07
16706,37.0,-5.0,0.0006634939999999999,  -959.347E-03,   64.4093E-03,       1.00777,0.0330195,0.00998226,7.87789e-07
16707,36.0,-5.0,0.0007628919999999999,  -947.972E-03,   64.4093E-03,       1.15805,0.0307292,0.00929568,7.38021e-07
16712,35.0,-5.0,0.0008676430000000001,  -935.353E-03,   64.4092E-03,       1.31629,0.0283167,0.00857234,6.80093e-07
16715,34.0,-5.0,0.000977333,  -921.529E-03,   64.4092E-03,       1.48186,0.0257914,0.00781513,6.18407e-07
16716,33.0,-5.0,0.00109153,  -906.560E-03,   64.4092E-03,       1.65410,0.0231634,0.00702703,5.56026e-07
16721,32.0,-5.0,0.00120978,  -890.522E-03,   64.4092E-03,       1.83234,0.0204432,0.00621119,4.94336e-07
16722,31.0,-5.0,0.00133163,  -873.511E-03,   64.4092E-03,       2.01586,0.0176415,0.00537082,4.33025e-07
16727,30.0,-5.0,0.00145658,  -855.633E-03,   64.4092E-03,       2.20396,0.0147694,0.00450925,3.70272e-07
16730,29.0,-5.0,0.00158415,  -837.012E-03,   64.4092E-03,       2.39590,0.0118382,0.00362989,3.03178e-07
16731,28.0,-5.0,0.00171382,  -817.783E-03,   64.4092E-03,       2.59091,0.0088595,0.0027362,2.28294e-07
16736,27.0,-5.0,0.00184509,  -798.088E-03,   64.4092E-03,       2.78825,0.005845,0.0018317,1.42231e-07
16737,26.0,-5.0,0.00197744,  -778.078E-03,   64.4092E-03,       2.98715,0.00280655,0.000919956,4.22215e-08
16742,25.0,-5.0,0.00211033,  -757.910E-03,   64.4092E-03,       3.18682,-0.000243907,4.55968e-06,-7.33963e-08
16745,24.0,-5.0,0.00224326,  -737.741E-03,   64.4093E-03,       3.38650,-0.00329439,-0.000910886,-2.04852e-07
16746,23.0,-5.0,0.00237568,  -717.731E-03,   64.4093E-03,       3.58540,-0.00633293,-0.00182277,-3.50767e-07
16751,22.0,-5.0,0.00250707,  -698.034E-03,   64.4093E-03,       3.78275,-0.00934758,-0.00272751,-5.08181e-07
16752,21.0,-5.0,0.00263692,  -678.801E-03,   64.4093E-03,       3.97778,-0.0123265,-0.00362153,-6.72708e-07
16757,20.0,-5.0,0.00276471,  -660.177E-03,   64.4093E-03,       4.16973,-0.015258,-0.0045013,-8.38857e-07
16760,19.0,-5.0,0.00288993,  -642.295E-03,   64.4093E-03,       4.35785,-0.0181305,-0.00536336,-1.00043e-06
16761,18.0,-5.0,0.00301208,  -625.279E-03,   64.4094E-03,       4.54140,-0.0209327,-0.00620429,-1.15096e-06
16766,17.0,-5.0,0.00313069,  -609.236E-03,   64.4094E-03,       4.71967,-0.0236537,-0.00702077,-1.28421e-06
16767,16.0,-5.0,0.00324528,  -594.261E-03,   64.4094E-03,       4.89194,-0.0262825,-0.0078096,-1.3946e-06
16772,15.0,-5.0,0.0033554,  -580.431E-03,   64.4094E-03,       5.05755,-0.028809,-0.00856764,-1.47756e-06
16775,14.0,-5.0,0.00346061,  -567.805E-03,   64.4093E-03,       5.21583,-0.031223,-0.00929191,-1.52984e-06
16776,13.0,-5.0,0.0035605,  -556.423E-03,   64.4093E-03,       5.36615,-0.033515,-0.00997955,-1.5497e-06
16781,12.0,-5.0,0.00365467,  -546.306E-03,   64.4093E-03,       5.50792,-0.0356759,-0.0106278,-1.53697e-06
16782,11.0,-5.0,0.00374274,  -537.454E-03,   64.4093E-03,       5.64056,-0.0376972,-0.0112342,-1.49298e-06
16787,10.0,-5.0,0.00382437,  -529.848E-03,   64.4093E-03,       5.76355,-0.0395708,-0.0117963,-1.4204e-06
16790,9.0,-5.0,0.00389924,  -523.450E-03,   64.4093E-03,       5.87639,-0.0412892,-0.0123119,-1.32298e-06
16791,8.0,-5.0,0.00396704,  -518.200E-03,   64.4093E-03,       5.97862,-0.0428457,-0.0127789,-1.20515e-06
16796,7.0,-5.0,0.00402751,  -514.022E-03,   64.4093E-03,       6.06983,-0.044234,-0.0131955,-1.07165e-06
16797,6.0,-5.0,0.00408042,  -510.824E-03,   64.4093E-03,       6.14965,-0.0454486,-0.0135599,-9.27126e-07
16802,5.0,-5.0,0.00412554,  -508.496E-03,   64.4093E-03,       6.21775,-0.0464846,-0.0138709,-7.75727e-07
16805,4.0,-5.0,0.00416271,  -506.915E-03,   64.4093E-03,       6.27385,-0.047338,-0.014127,-6.20829e-07
16806,3.0,-5.0,0.00419177,  -505.947E-03,   64.4093E-03,       6.31772,-0.0480053,-0.0143273,-4.64843e-07
16811,2.0,-5.0,0.00421261,  -505.448E-03,   64.4093E-03,       6.34919,-0.0484838,-0.0144709,-3.0917e-07
16812,1.0,-5.0,0.00422514,  -505.265E-03,   64.4093E-03,       6.36813,-0.0487717,-0.0145573,-1.54293e-07
16817,5.3097699999999996e-30,-5.0,0.00422933,  -505.241E-03,   64.4093E-03,       6.37445,-0.0488678,-0.0145862,5.32907e-15
16820,-1.0,-5.0,0.00422514,  -505.217E-03,   64.4093E-03,       6.36813,-0.0487717,-0.0145573,1.54293e-07
16821,-2.0,-5.0,0.00421261,  -505.034E-03,   64.4093E-03,       6.34919,-0.0484838,-0.0144709,3.0917e-07
16826,-3.0,-5.0,0.00419177,  -504.535E-03,   64.4093E-03,       6.31772,-0.0480053,-0.0143273,4.64843e-07
16827,-4.0,-5.0,0.00416271,  -503.567E-03,   64.4093E-03,       6.27385,-0.047338,-0.014127,6.20829e-07
16832,-5.0,-5.0,0.00412554,  -501.986E-03,   64.4093E-03,       6.21775,-0.0464846,-0.0138709,7.75727e-07
16835,-6.0,-5.0,0.00408042,  -499.658E-03,   64.4093E-03,       6.14965,-0.0454486,-0.0135599,9.27126e-07
16836,-7.0,-5.0,0.00402751,  -496.460E-03,   64.4093E-03,       6.06983,-0.044234,-0.0131955,1.07165e-06
16841,-8.0,-5.0,0.00396704,  -492.282E-03,   64.4093E-03,       5.97862,-0.0428457,-0.0127789,1.20515e-06
16842,-9.0,-5.0,0.00389924,  -487.032E-03,   64.4093E-03,       5.87639,-0.0412892,-0.0123119,1.32298e-06
16847,-10.0,-5.0,0.00382437,  -480.633E-03,   64.4093E-03,       5.76355,-0.0395708,-0.0117963,1.4204e-06
16850,-11.0,-5.0,0.00374274,  -473.028E-03,   64.4093E-03,       5.64056,-0.0376972,-0.0112342,1.49298e-06
16851,-12.0,-5.0,0.00365467,  -464.176E-03,   64.4093E-03,       5.50792,-0.0356759,-0.0106278,1.53697e-06
16856,-13.0,-5.0,0.0035605,  -454.058E-03,   64.4093E-03,       5.36615,-0.033515,-0.00997955,1.5497e-06
16857,-14.0,-5.0,0.00346061,  -442.677E-03,   64.4093E-03,       5.21583,-0.031223,-0.00929191,1.52984e-06
16862,-15.0,-5.0,0.0033554,  -430.051E-03,   64.4094E-03,       5.05755,-0.028809,-0.00856764,1.47756e-06
16865,-16.0,-5.0,0.00324528,  -416.221E-03,   64.4094E-03,       4.89194,-0.0262825,-0.0078096,1.3946e-06
16866,-17.0,-5.0,0.00313069,  -401.246E-03,   64.4094E-03,       4.71967,-0.0236537,-0.00702077,1.28421e-06
16871,-18.0,-5.0,0.00301208,  -385.203E-03,   64.4094E-03,       4.54140,-0.0209327,-0.00620429,1.15096e-06
16872,-19.0,-5.0,0.00288993,  -368.186E-03,   64.4093E-03,       4.35785,-0.0181305,-0.00536336,1.00043e-06
16877,-20.0,-5.0,0.00276471,  -350.305E-03,   64.4093E-03,       4.16973,-0.015258,-0.0045013,8.38857e-07
16880,-21.0,-5.0,0.00263692,  -331.681E-03,   64.4093E-03,       3.97778,-0.0123265,-0.00362153,6.72708e-07
16881,-22.0,-5.0,0.00250707,  -312.448E-03,   64.4093E-03,       3.78275,-0.00934758,-0.00272751,5.08181e-07
16886,-23.0,-5.0,0.00237568,  -292.751E-03,   64.4093E-03,       3.58540,-0.00633293,-0.00182277,3.50767e-07
16887,-24.0,-5.0,0.00224326,  -272.740E-03,   64.4093E-03,       3.38650,-0.00329439,-0.000910886,2.04852e-07
16892,-25.0,-5.0,0.00211033,  -252.572E-03,   64.4092E-03,       3.18682,-0.000243907,4.55968e-06,7.33963e-08
16895,-26.0,-5.0,0.00197744,  -232.404E-03,   64.4092E-03,       2.98715,0.00280655,0.000919956,-4.22215e-08
16896,-27.0,-5.0,0.00184509,  -212.394E-03,   64.4092E-03,       2.78825,0.005845,0.0018317,-1.42231e-07
16901,-28.0,-5.0,0.00171382,  -192.699E-03,   64.4092E-03,       2.59091,0.0088595,0.0027362,-2.28294e-07
16902,-29.0,-5.0,0.00158415,  -173.470E-03,   64.4092E-03,       2.39590,0.0118382,0.00362989,-3.03178e-07
16907,-30.0,-5.0,0.00145658,  -154.849E-03,   64.4092E-03,       2.20396,0.0147694,0.00450925,-3.70272e-07
16910,-31.0,-5.0,0.00133163,  -136.971E-03,   64.4092E-03,       2.01586,0.0176415,0.00537082,-4.33024e-07
16911,-32.0,-5.0,0.00120978,  -119.959E-03,   64.4092E-03,       1.83234,0.0204432,0.00621119,-4.94336e-07
16916,-33.0,-5.0,0.00109153,  -103.922E-03,   64.4092E-03,       1.65410,0.0231634,0.00702703,-5.56026e-07
16917,-34.0,-5.0,0.000977333,  -88.9529E-03,   64.4092E-03,       1.48186,0.0257914,0.00781513,-6.18407e-07
16922,-35.0,-5.0,0.0008676430000000001,  -75.1291E-03,   64.4092E-03,       1.31629,0.0283167,0.00857234,-6.80093e-07
16925,-36.0,-5.0,0.0007628919999999999,  -62.5096E-03,   64.4093E-03,       1.15805,0.0307292,0.00929568,-7.38021e-07
16926,-37.0,-5.0,0.0006634939999999999,  -51.1343E-03,   64.4093E-03,       1.00777,0.0330195,0.00998226,-7.87789e-07
16931,-38.0,-5.0,0.000569838,  -41.0238E-03,   64.4093E-03,   866.049E-03,0.0351784,0.0106294,-8.24199e-07
16932,-39.0,-5.0,0.000482291,  -32.1785E-03,   64.4094E-03,   733.453E-03,0.0371971,0.0112344,-8.42042e-07
16937,-40.0,-5.0,0.000401196,  -24.5790E-03,   64.4094E-03,   610.513E-03,0.0390678,0.011795,-8.36931e-07
16940,-41.0,-5.0,0.00032686900000000003,  -18.1861E-03,   64.4094E-03,   497.726E-03,0.0407828,0.0123089,-8.06154e-07
16941,-42.0,-5.0,0.00025959700000000003,  -12.9415E-03,   64.4095E-03,   395.546E-03,0.0423353,0.0127741,-7.49326e-07
16946,-43.0,-5.0,0.00019964,  -8.76875E-03,   64.4095E-03,   304.388E-03,0.0437191,0.0131887,-6.68772e-07
16947,-44.0,-5.0,0.00014722700000000002,  -5.57444E-03,   64.4095E-03,   224.621E-03,0.0449286,0.0135512,-5.69529e-07
16952,-45.0,-5.0,0.000102556,  -3.24954E-03,   64.4096E-03,   156.568E-03,0.045959,0.0138599,-4.58826e-07
16955,-46.0,-5.0,6.57927e-05,  -1.67127E-03,   64.4096E-03,   100.509E-03,0.0468061,0.0141138,-3.45259e-07
16956,-47.0,-5.0,3.70719e-05,  -704.975E-06,   64.4096E-03,   56.6692E-03,0.0474665,0.0143117,-2.3738e-07
16961,-48.0,-5.0,1.64938e-05,  -206.324E-06,   64.4096E-03,   25.2283E-03,0.0479377,0.0144529,-1.42359e-07
16962,-49.0,-5.0,4.12546e-06,  -23.5699E-06,   64.4096E-03,   6.31330E-03,0.0482177,0.0145369,-6.43923e-08
16967,-50.0,-5.0,0.0,  -12.7490E-42,   64.4096E-03,           -0.,0.0483097,0.0145644,-2.99503e-08
16970,50.0,-6.0,0.0,      -1.01048,   64.4086E-03,           -0.,0.0483096,0.0145643,3.27106e-08
16971,49.0,-6.0,4.12828e-06,      -1.01046,   64.4086E-03,   6.31329E-03,0.0482176,0.0145367,7.18208e-08
16976,48.0,-6.0,1.65051e-05,      -1.01028,   64.4086E-03,   25.2282E-03,0.0479376,0.0144528,1.63084e-07
16977,47.0,-6.0,3.70973e-05,      -1.00978,   64.4086E-03,   56.6691E-03,0.0474665,0.0143116,2.78287e-07
16982,46.0,-6.0,6.58378e-05,      -1.00881,   64.4086E-03,   100.508E-03,0.0468061,0.0141136,4.11145e-07
16985,45.0,-6.0,0.000102626,      -1.00723,   64.4085E-03,   156.568E-03,0.045959,0.0138598,5.51954e-07
16986,44.0,-6.0,0.000147327,      -1.00491,   64.4085E-03,   224.620E-03,0.0449286,0.0135511,6.89281e-07
16991,43.0,-6.0,0.00019977599999999998,      -1.00171,   64.4085E-03,   304.388E-03,0.0437191,0.0131887,8.12031e-07
16992,42.0,-6.0,0.000259773,  -997.540E-03,   64.4084E-03,   395.546E-03,0.0423353,0.0127741,9.10906e-07
16997,41.0,-6.0,0.000327089,  -992.296E-03,   64.4084E-03,   497.726E-03,0.0407828,0.0123089,9.79642e-07
17000,40.0,-6.0,0.000401466,  -985.903E-03,   64.4083E-03,   610.513E-03,0.0390678,0.011795,1.01549e-06
17001,39.0,-6.0,0.000482613,  -978.303E-03,   64.4083E-03,   733.452E-03,0.0371972,0.0112345,1.0192e-06
17006,38.0,-6.0,0.000570215,  -969.458E-03,   64.4082E-03,   866.049E-03,0.0351784,0.0106294,9.94525e-07
17007,37.0,-6.0,0.0006639310000000001,  -959.347E-03,   64.4082E-03,       1.00777,0.0330196,0.00998236,9.4727e-07
17012,36.0,-6.0,0.0007633910000000001,  -947.972E-03,   64.4082E-03,       1.15805,0.0307293,0.00929579,8.84254e-07
17015,35.0,-6.0,0.0008682060000000001,  -935.353E-03,   64.4081E-03,       1.31629,0.0283167,0.00857246,8.12164e-07
17016,34.0,-6.0,0.000977962,  -921.529E-03,   64.4081E-03,       1.48186,0.0257914,0.00781524,7.36621e-07
17021,33.0,-6.0,0.00109223,  -906.560E-03,   64.4081E-03,       1.65410,0.0231634,0.00702713,6.61431e-07
17022,32.0,-6.0,0.00121055,  -890.522E-03,   64.4081E-03,       1.83234,0.0204432,0.00621128,5.88238e-07
17027,31.0,-6.0,0.00133247,  -873.510E-03,   64.4080E-03,       2.01586,0.0176415,0.0053709,5.16459e-07
17030,30.0,-6.0,0.00145749,  -855.633E-03,   64.4080E-03,       2.20396,0.0147694,0.00450933,4.43599e-07
17031,29.0,-6.0,0.00158513,  -837.012E-03,   64.4080E-03,       2.39590,0.0118382,0.00362995,3.65778e-07
17036,28.0,-6.0,0.00171487,  -817.782E-03,   64.4081E-03,       2.59091,0.00885946,0.00273626,2.78448e-07
17037,27.0,-6.0,0.00184621,  -798.087E-03,   64.4081E-03,       2.78825,0.00584494,0.00183175,1.77153e-07
17042,26.0,-6.0,0.00197863,  -778.078E-03,   64.4081E-03,       2.98715,0.00280646,0.000920004,5.8265e-08
17045,25.0,-6.0,0.0021116,  -757.910E-03,   64.4081E-03,       3.18682,-0.000244022,4.60281e-06,-8.04254e-08
17046,24.0,-6.0,0.00224459,  -737.741E-03,   64.4081E-03,       3.38650,-0.00329453,-0.000910847,-2.39275e-07
17051,23.0,-6.0,0.00237708,  -717.730E-03,   64.4082E-03,       3.58540,-0.00633309,-0.00182274,-4.16597e-07
17052,22.0,-6.0,0.00250854,  -698.033E-03,   64.4082E-03,       3.78275,-0.00934776,-0.00272748,-6.08673e-07
17057,21.0,-6.0,0.00263846,  -678.801E-03,   64.4082E-03,       3.97778,-0.0123267,-0.0036215,-8.09981e-07
17060,20.0,-6.0,0.00276631,  -660.177E-03,   64.4083E-03,       4.16973,-0.0152582,-0.00450127,-1.01358e-06
17061,19.0,-6.0,0.00289159,  -642.295E-03,   64.4083E-03,       4.35785,-0.0181307,-0.00536333,-1.21164e-06
17066,18.0,-6.0,0.00301381,  -625.278E-03,   64.4083E-03,       4.54140,-0.0209329,-0.00620426,-1.39599e-06
17067,17.0,-6.0,0.00313247,  -609.236E-03,   64.4083E-03,       4.71967,-0.0236538,-0.00702074,-1.55875e-06
17072,16.0,-6.0,0.00324712,  -594.261E-03,   64.4083E-03,       4.89194,-0.0262826,-0.00780956,-1.69286e-06
17075,15.0,-6.0,0.00335729,  -580.431E-03,   64.4083E-03,       5.05755,-0.028809,-0.0085676,-1.7926e-06
17076,14.0,-6.0,0.00346255,  -567.805E-03,   64.4083E-03,       5.21582,-0.0312229,-0.00929186,-1.85393e-06
17081,13.0,-6.0,0.00356249,  -556.423E-03,   64.4082E-03,       5.36615,-0.0335149,-0.00997951,-1.87478e-06
17082,12.0,-6.0,0.0036567,  -546.306E-03,   64.4082E-03,       5.50791,-0.0356758,-0.0106278,-1.85509e-06
17087,11.0,-6.0,0.00374481,  -537.454E-03,   64.4082E-03,       5.64056,-0.0376971,-0.0112342,-1.79679e-06
17090,10.0,-6.0,0.00382648,  -529.848E-03,   64.4082E-03,       5.76355,-0.0395706,-0.0117963,-1.70353e-06
17091,9.0,-6.0,0.00390138,  -523.450E-03,   64.4082E-03,       5.87639,-0.0412891,-0.0123119,-1.58034e-06
17096,8.0,-6.0,0.00396922,  -518.200E-03,   64.4082E-03,       5.97862,-0.0428456,-0.0127789,-1.43317e-06
17097,7.0,-6.0,0.00402972,  -514.022E-03,   64.4082E-03,       6.06983,-0.0442339,-0.0131955,-1.26828e-06
17102,6.0,-6.0,0.00408265,  -510.824E-03,   64.4082E-03,       6.14965,-0.0454485,-0.01356,-1.09174e-06
17105,5.0,-6.0,0.00412779,  -508.496E-03,   64.4082E-03,       6.21774,-0.0464846,-0.013871,-9.08905e-07
17106,4.0,-6.0,0.00416497,  -506.915E-03,   64.4082E-03,       6.27385,-0.047338,-0.0141271,-7.24001e-07
17111,3.0,-6.0,0.00419405,  -505.947E-03,   64.4082E-03,       6.31772,-0.0480053,-0.0143274,-5.3987e-07
17112,2.0,-6.0,0.0042149,  -505.448E-03,   64.4082E-03,       6.34919,-0.0484839,-0.0144711,-3.5792e-07
17117,1.0,-6.0,0.00422744,  -505.265E-03,   64.4082E-03,       6.36812,-0.0487718,-0.0145575,-1.78256e-07
17120,-1.16481e-30,-6.0,0.00423163,  -505.241E-03,   64.4082E-03,       6.37444,-0.0488679,-0.0145864,-1.42109e-14
17121,-1.0,-6.0,0.00422744,  -505.217E-03,   64.4082E-03,       6.36812,-0.0487718,-0.0145575,1.78256e-07
17126,-2.0,-6.0,0.0042149,  -505.034E-03,   64.4082E-03,       6.34919,-0.0484839,-0.0144711,3.5792e-07
17127,-3.0,-6.0,0.00419405,  -504.535E-03,   64.4082E-03,       6.31772,-0.0480053,-0.0143274,5.3987e-07
17132,-4.0,-6.0,0.00416497,  -503.567E-03,   64.4082E-03,       6.27385,-0.047338,-0.0141271,7.24001e-07
17135,-5.0,-6.0,0.00412779,  -501.986E-03,   64.4082E-03,       6.21774,-0.0464846,-0.013871,9.08905e-07
17136,-6.0,-6.0,0.00408265,  -499.658E-03,   64.4082E-03,       6.14965,-0.0454485,-0.01356,1.09174e-06
17141,-7.0,-6.0,0.00402972,  -496.460E-03,   64.4082E-03,       6.06983,-0.0442339,-0.0131955,1.26828e-06
17142,-8.0,-6.0,0.00396922,  -492.282E-03,   64.4082E-03,       5.97862,-0.0428456,-0.0127789,1.43317e-06
17147,-9.0,-6.0,0.00390138,  -487.032E-03,   64.4082E-03,       5.87639,-0.0412891,-0.0123119,1.58034e-06
17150,-10.0,-6.0,0.00382648,  -480.633E-03,   64.4082E-03,       5.76355,-0.0395706,-0.0117963,1.70353e-06
17151,-11.0,-6.0,0.00374481,  -473.028E-03,   64.4082E-03,       5.64056,-0.0376971,-0.0112342,1.79679e-06
17156,-12.0,-6.0,0.0036567,  -464.176E-03,   64.4082E-03,       5.50791,-0.0356758,-0.0106278,1.85509e-06
17157,-13.0,-6.0,0.00356249,  -454.059E-03,   64.4082E-03,       5.36615,-0.0335149,-0.00997951,1.87478e-06
17162,-14.0,-6.0,0.00346255,  -442.677E-03,   64.4083E-03,       5.21582,-0.0312229,-0.00929186,1.85393e-06
17165,-15.0,-6.0,0.00335729,  -430.051E-03,   64.4083E-03,       5.05755,-0.028809,-0.0085676,1.7926e-06
17166,-16.0,-6.0,0.00324712,  -416.221E-03,   64.4083E-03,       4.89194,-0.0262826,-0.00780956,1.69286e-06
17171,-17.0,-6.0,0.00313247,  -401.246E-03,   64.4083E-03,       4.71967,-0.0236538,-0.00702074,1.55875e-06
17172,-18.0,-6.0,0.00301381,  -385.203E-03,   64.4083E-03,       4.54140,-0.0209329,-0.00620426,1.39599e-06
17177,-19.0,-6.0,0.00289159,  -368.187E-03,   64.4083E-03,       4.35785,-0.0181307,-0.00536333,1.21164e-06
17180,-20.0,-6.0,0.00276631,  -350.305E-03,   64.4083E-03,       4.16973,-0.0152582,-0.00450127,1.01358e-06
17181,-21.0,-6.0,0.00263846,  -331.681E-03,   64.4082E-03,       3.97778,-0.0123267,-0.0036215,8.09981e-07
17186,-22.0,-6.0,0.00250854,  -312.449E-03,   64.4082E-03,       3.78275,-0.00934776,-0.00272748,6.08673e-07
17187,-23.0,-6.0,0.00237708,  -292.751E-03,   64.4082E-03,       3.58540,-0.00633309,-0.00182274,4.16597e-07
17192,-24.0,-6.0,0.00224459,  -272.741E-03,   64.4081E-03,       3.38650,-0.00329453,-0.000910847,2.39275e-07
17195,-25.0,-6.0,0.0021116,  -252.572E-03,   64.4081E-03,       3.18682,-0.000244022,4.60281e-06,8.04253e-08
17196,-26.0,-6.0,0.00197863,  -232.404E-03,   64.4081E-03,       2.98715,0.00280646,0.000920004,-5.8265e-08
17201,-27.0,-6.0,0.00184621,  -212.395E-03,   64.4081E-03,       2.78825,0.00584494,0.00183175,-1.77153e-07
17202,-28.0,-6.0,0.00171487,  -192.699E-03,   64.4081E-03,       2.59091,0.00885946,0.00273626,-2.78448e-07
17207,-29.0,-6.0,0.00158513,  -173.470E-03,   64.4080E-03,       2.39590,0.0118382,0.00362995,-3.65778e-07
17208,-30.0,-6.0,0.00145749,  -154.849E-03,   64.4080E-03,       2.20396,0.0147694,0.00450933,-4.43599e-07
17213,-31.0,-6.0,0.00133247,  -136.971E-03,   64.4080E-03,       2.01586,0.0176415,0.0053709,-5.16459e-07
17214,-32.0,-6.0,0.00121055,  -119.959E-03,   64.4081E-03,       1.83234,0.0204432,0.00621128,-5.88238e-07
17219,-33.0,-6.0,0.00109223,  -103.922E-03,   64.4081E-03,       1.65410,0.0231634,0.00702713,-6.61431e-07
17222,-34.0,-6.0,0.000977962,  -88.9530E-03,   64.4081E-03,       1.48186,0.0257914,0.00781524,-7.36621e-07
17223,-35.0,-6.0,0.0008682060000000001,  -75.1292E-03,   64.4081E-03,       1.31629,0.0283167,0.00857246,-8.12164e-07
17228,-36.0,-6.0,0.0007633910000000001,  -62.5096E-03,   64.4082E-03,       1.15805,0.0307293,0.00929579,-8.84254e-07
17229,-37.0,-6.0,0.0006639310000000001,  -51.1343E-03,   64.4082E-03,       1.00777,0.0330196,0.00998236,-9.4727e-07
17234,-38.0,-6.0,0.000570215,  -41.0238E-03,   64.4082E-03,   866.049E-03,0.0351784,0.0106294,-9.94525e-07
17237,-39.0,-6.0,0.000482613,  -32.1785E-03,   64.4083E-03,   733.452E-03,0.0371972,0.0112345,-1.0192e-06
17238,-40.0,-6.0,0.000401466,  -24.5790E-03,   64.4083E-03,   610.513E-03,0.0390678,0.011795,-1.01549e-06
17243,-41.0,-6.0,0.000327089,  -18.1861E-03,   64.4084E-03,   497.726E-03,0.0407828,0.0123089,-9.79642e-07
17244,-42.0,-6.0,0.000259773,  -12.9415E-03,   64.4084E-03,   395.546E-03,0.0423353,0.0127741,-9.10906e-07
17249,-43.0,-6.0,0.00019977599999999998,  -8.76874E-03,   64.4085E-03,   304.388E-03,0.0437191,0.0131887,-8.12031e-07
17252,-44.0,-6.0,0.000147327,  -5.57443E-03,   64.4085E-03,   224.620E-03,0.0449286,0.0135511,-6.89281e-07
17253,-45.0,-6.0,0.000102626,  -3.24953E-03,   64.4085E-03,   156.568E-03,0.045959,0.0138598,-5.51954e-07
17258,-46.0,-6.0,6.58378e-05,  -1.67126E-03,   64.4086E-03,   100.508E-03,0.0468061,0.0141136,-4.11145e-07
17259,-47.0,-6.0,3.70973e-05,  -704.972E-06,   64.4086E-03,   56.6691E-03,0.0474665,0.0143116,-2.78287e-07
17264,-48.0,-6.0,1.65051e-05,  -206.322E-06,   64.4086E-03,   25.2282E-03,0.0479376,0.0144528,-1.63084e-07
17267,-49.0,-6.0,4.12828e-06,  -23.5693E-06,   64.4086E-03,   6.31329E-03,0.0482176,0.0145367,-7.18209e-08
17268,-50.0,-6.0,0.0,  -12.7476E-42,   64.4086E-03,           -0.,0.0483096,0.0145643,-3.27106e-08
17273,50.0,-7.0,0.0,      -1.01048,   64.4076E-03,           -0.,0.0483094,0.0145641,3.33323e-08
17274,49.0,-7.0,4.13164e-06,      -1.01046,   64.4076E-03,   6.31327E-03,0.0482174,0.0145365,7.59353e-08
17279,48.0,-7.0,1.6518599999999998e-05,      -1.01028,   64.4076E-03,   25.2282E-03,0.0479375,0.0144526,1.79054e-07
17282,47.0,-7.0,3.71276e-05,      -1.00978,   64.4076E-03,   56.6689E-03,0.0474665,0.0143114,3.14989e-07
17283,46.0,-7.0,6.589149999999999e-05,      -1.00881,   64.4075E-03,   100.508E-03,0.0468061,0.0141135,4.74819e-07
17288,45.0,-7.0,0.000102709,      -1.00723,   64.4075E-03,   156.568E-03,0.045959,0.0138596,6.45398e-07
17289,44.0,-7.0,0.000147447,      -1.00491,   64.4075E-03,   224.620E-03,0.0449287,0.013551,8.11984e-07
17294,43.0,-7.0,0.00019993799999999998,      -1.00171,   64.4074E-03,   304.387E-03,0.0437192,0.0131886,9.60317e-07
17297,42.0,-7.0,0.000259983,  -997.540E-03,   64.4074E-03,   395.546E-03,0.0423354,0.0127741,1.07882e-06
17298,41.0,-7.0,0.000327352,  -992.296E-03,   64.4073E-03,   497.725E-03,0.0407829,0.0123089,1.15979e-06
17303,40.0,-7.0,0.000401786,  -985.903E-03,   64.4073E-03,   610.512E-03,0.0390679,0.0117951,1.2001e-06
17304,39.0,-7.0,0.00048299599999999997,  -978.303E-03,   64.4072E-03,   733.452E-03,0.0371972,0.0112346,1.20106e-06
17309,38.0,-7.0,0.000570665,  -969.458E-03,   64.4072E-03,   866.049E-03,0.0351784,0.0106296,1.16771e-06
17312,37.0,-7.0,0.00066445,  -959.347E-03,   64.4071E-03,       1.00777,0.0330196,0.00998248,1.10762e-06
17313,36.0,-7.0,0.000763984,  -947.972E-03,   64.4071E-03,       1.15805,0.0307293,0.00929592,1.02951e-06
17318,35.0,-7.0,0.000868874,  -935.353E-03,   64.4070E-03,       1.31629,0.0283167,0.00857258,9.41842e-07
17319,34.0,-7.0,0.000978709,  -921.529E-03,   64.4070E-03,       1.48186,0.0257914,0.00781536,8.51615e-07
17324,33.0,-7.0,0.00109306,  -906.560E-03,   64.4070E-03,       1.65410,0.0231634,0.00702725,7.63489e-07
17327,32.0,-7.0,0.00121146,  -890.522E-03,   64.4069E-03,       1.83234,0.0204432,0.00621139,6.79308e-07
17328,31.0,-7.0,0.00133346,  -873.510E-03,   64.4069E-03,       2.01586,0.0176415,0.005371,5.98132e-07
17333,30.0,-7.0,0.00145857,  -855.633E-03,   64.4069E-03,       2.20396,0.0147694,0.00450941,5.16585e-07
17334,29.0,-7.0,0.00158629,  -837.012E-03,   64.4069E-03,       2.39590,0.0118382,0.00363003,4.29597e-07
17339,28.0,-7.0,0.00171612,  -817.782E-03,   64.4069E-03,       2.59091,0.00885941,0.00273632,3.31272e-07
17342,27.0,-7.0,0.00184755,  -798.087E-03,   64.4070E-03,       2.78826,0.00584486,0.00183181,2.15881e-07
17343,26.0,-7.0,0.00198005,  -778.077E-03,   64.4070E-03,       2.98715,0.00280636,0.000920058,7.87472e-08
17348,25.0,-7.0,0.0021131,  -757.909E-03,   64.4070E-03,       3.18682,-0.00024416,4.65287e-06,-8.29881e-08
17349,24.0,-7.0,0.00224617,  -737.741E-03,   64.4070E-03,       3.38650,-0.0032947,-0.000910801,-2.69869e-07
17354,23.0,-7.0,0.00237875,  -717.730E-03,   64.4071E-03,       3.58540,-0.00633329,-0.0018227,-4.79865e-07
17357,22.0,-7.0,0.00251029,  -698.033E-03,   64.4071E-03,       3.78275,-0.00934797,-0.00272744,-7.08419e-07
17358,21.0,-7.0,0.00264028,  -678.800E-03,   64.4071E-03,       3.97778,-0.0123269,-0.00362146,-9.48712e-07
17363,20.0,-7.0,0.00276821,  -660.176E-03,   64.4072E-03,       4.16973,-0.0152584,-0.00450124,-1.19217e-06
17364,19.0,-7.0,0.00289356,  -642.295E-03,   64.4072E-03,       4.35785,-0.0181309,-0.00536329,-1.42909e-06
17369,18.0,-7.0,0.00301585,  -625.278E-03,   64.4072E-03,       4.54140,-0.0209331,-0.00620422,-1.64938e-06
17372,17.0,-7.0,0.00313458,  -609.235E-03,   64.4072E-03,       4.71967,-0.0236539,-0.0070207,-1.84327e-06
17373,16.0,-7.0,0.0032493,  -594.261E-03,   64.4072E-03,       4.89194,-0.0262827,-0.00780952,-2.00206e-06
17378,15.0,-7.0,0.00335953,  -580.431E-03,   64.4072E-03,       5.05754,-0.028809,-0.00856755,-2.1187e-06
17379,14.0,-7.0,0.00346485,  -567.805E-03,   64.4072E-03,       5.21582,-0.0312229,-0.00929182,-2.18831e-06
17384,13.0,-7.0,0.00356484,  -556.423E-03,   64.4072E-03,       5.36614,-0.0335148,-0.00997945,-2.20846e-06
17387,12.0,-7.0,0.00365911,  -546.306E-03,   64.4071E-03,       5.50791,-0.0356757,-0.0106278,-2.17933e-06
17388,11.0,-7.0,0.00374727,  -537.454E-03,   64.4071E-03,       5.64056,-0.0376969,-0.0112342,-2.1036e-06
17393,10.0,-7.0,0.00382898,  -529.848E-03,   64.4071E-03,       5.76355,-0.0395704,-0.0117963,-1.98616e-06
17394,9.0,-7.0,0.00390393,  -523.450E-03,   64.4071E-03,       5.87638,-0.0412889,-0.0123119,-1.83367e-06
17399,8.0,-7.0,0.0039718,  -518.200E-03,   64.4071E-03,       5.97862,-0.0428454,-0.0127789,-1.65387e-06
17402,7.0,-7.0,0.00403233,  -514.022E-03,   64.4071E-03,       6.06983,-0.0442337,-0.0131956,-1.45491e-06
17403,6.0,-7.0,0.00408529,  -510.824E-03,   64.4071E-03,       6.14964,-0.0454484,-0.0135601,-1.2446e-06
17408,5.0,-7.0,0.00413046,  -508.496E-03,   64.4071E-03,       6.21774,-0.0464845,-0.0138711,-1.02967e-06
17409,4.0,-7.0,0.00416766,  -506.915E-03,   64.4071E-03,       6.27384,-0.0473379,-0.0141273,-8.15301e-07
17414,3.0,-7.0,0.00419675,  -505.947E-03,   64.4071E-03,       6.31772,-0.0480053,-0.0143276,-6.04747e-07
17417,2.0,-7.0,0.00421761,  -505.448E-03,   64.4072E-03,       6.34919,-0.0484839,-0.0144713,-3.99267e-07
17418,1.0,-7.0,0.00423016,  -505.265E-03,   64.4072E-03,       6.36812,-0.0487718,-0.0145577,-1.98318e-07
17423,5.86354e-30,-7.0,0.00423435,  -505.241E-03,   64.4072E-03,       6.37444,-0.0488679,-0.0145866,-1.95399e-14
17424,-1.0,-7.0,0.00423016,  -505.217E-03,   64.4072E-03,       6.36812,-0.0487718,-0.0145577,1.98318e-07
17429,-2.0,-7.0,0.00421761,  -505.034E-03,   64.4072E-03,       6.34919,-0.0484839,-0.0144713,3.99267e-07
17432,-3.0,-7.0,0.00419675,  -504.535E-03,   64.4071E-03,       6.31772,-0.0480053,-0.0143276,6.04747e-07
17433,-4.0,-7.0,0.00416766,  -503.567E-03,   64.4071E-03,       6.27384,-0.0473379,-0.0141273,8.15301e-07
17438,-5.0,-7.0,0.00413046,  -501.986E-03,   64.4071E-03,       6.21774,-0.0464845,-0.0138711,1.02967e-06
17439,-6.0,-7.0,0.00408529,  -499.658E-03,   64.4071E-03,       6.14964,-0.0454484,-0.0135601,1.2446e-06
17444,-7.0,-7.0,0.00403233,  -496.460E-03,   64.4071E-03,       6.06983,-0.0442337,-0.0131956,1.45491e-06
17447,-8.0,-7.0,0.0039718,  -492.282E-03,   64.4071E-03,       5.97862,-0.0428454,-0.0127789,1.65387e-06
17448,-9.0,-7.0,0.00390393,  -487.032E-03,   64.4071E-03,       5.87638,-0.0412889,-0.0123119,1.83367e-06
17453,-10.0,-7.0,0.00382898,  -480.633E-03,   64.4071E-03,       5.76355,-0.0395704,-0.0117963,1.98616e-06
17454,-11.0,-7.0,0.00374727,  -473.028E-03,   64.4071E-03,       5.64056,-0.0376969,-0.0112342,2.1036e-06
17459,-12.0,-7.0,0.00365911,  -464.176E-03,   64.4071E-03,       5.50791,-0.0356757,-0.0106278,2.17933e-06
17462,-13.0,-7.0,0.00356484,  -454.059E-03,   64.4072E-03,       5.36614,-0.0335148,-0.00997945,2.20846e-06
17463,-14.0,-7.0,0.00346485,  -442.677E-03,   64.4072E-03,       5.21582,-0.0312229,-0.00929182,2.18831e-06
17468,-15.0,-7.0,0.00335953,  -430.051E-03,   64.4072E-03,       5.05754,-0.028809,-0.00856755,2.1187e-06
17469,-16.0,-7.0,0.0032493,  -416.221E-03,   64.4072E-03,       4.89194,-0.0262827,-0.00780952,2.00206e-06
17474,-17.0,-7.0,0.00313458,  -401.246E-03,   64.4072E-03,       4.71967,-0.0236539,-0.0070207,1.84327e-06
17477,-18.0,-7.0,0.00301585,  -385.204E-03,   64.4072E-03,       4.54140,-0.0209331,-0.00620422,1.64938e-06
17478,-19.0,-7.0,0.00289356,  -368.187E-03,   64.4072E-03,       4.35785,-0.0181309,-0.00536329,1.42909e-06
17483,-20.0,-7.0,0.00276821,  -350.305E-03,   64.4072E-03,       4.16973,-0.0152584,-0.00450124,1.19217e-06
17484,-21.0,-7.0,0.00264028,  -331.681E-03,   64.4071E-03,       3.97778,-0.0123269,-0.00362146,9.48712e-07
17489,-22.0,-7.0,0.00251029,  -312.449E-03,   64.4071E-03,       3.78275,-0.00934797,-0.00272744,7.08419e-07
17492,-23.0,-7.0,0.00237875,  -292.752E-03,   64.4071E-03,       3.58540,-0.00633329,-0.0018227,4.79866e-07
17493,-24.0,-7.0,0.00224617,  -272.741E-03,   64.4070E-03,       3.38650,-0.0032947,-0.000910801,2.69869e-07
17498,-25.0,-7.0,0.0021131,  -252.573E-03,   64.4070E-03,       3.18682,-0.00024416,4.65287e-06,8.2988e-08
17499,-26.0,-7.0,0.00198005,  -232.404E-03,   64.4070E-03,       2.98715,0.00280636,0.000920058,-7.87473e-08
17504,-27.0,-7.0,0.00184755,  -212.395E-03,   64.4070E-03,       2.78826,0.00584486,0.00183181,-2.15881e-07
17507,-28.0,-7.0,0.00171612,  -192.700E-03,   64.4069E-03,       2.59091,0.00885941,0.00273632,-3.31271e-07
17508,-29.0,-7.0,0.00158629,  -173.470E-03,   64.4069E-03,       2.39590,0.0118382,0.00363003,-4.29597e-07
17513,-30.0,-7.0,0.00145857,  -154.849E-03,   64.4069E-03,       2.20396,0.0147694,0.00450941,-5.16585e-07
17514,-31.0,-7.0,0.00133346,  -136.972E-03,   64.4069E-03,       2.01586,0.0176415,0.005371,-5.98132e-07
17519,-32.0,-7.0,0.00121146,  -119.960E-03,   64.4069E-03,       1.83234,0.0204432,0.00621139,-6.79308e-07
17522,-33.0,-7.0,0.00109306,  -103.922E-03,   64.4070E-03,       1.65410,0.0231634,0.00702725,-7.63489e-07
17523,-34.0,-7.0,0.000978709,  -88.9531E-03,   64.4070E-03,       1.48186,0.0257914,0.00781536,-8.51615e-07
17528,-35.0,-7.0,0.000868874,  -75.1293E-03,   64.4070E-03,       1.31629,0.0283167,0.00857258,-9.41842e-07
17529,-36.0,-7.0,0.000763984,  -62.5097E-03,   64.4071E-03,       1.15805,0.0307293,0.00929592,-1.02951e-06
17534,-37.0,-7.0,0.00066445,  -51.1344E-03,   64.4071E-03,       1.00777,0.0330196,0.00998248,-1.10762e-06
17537,-38.0,-7.0,0.000570665,  -41.0238E-03,   64.4072E-03,   866.049E-03,0.0351784,0.0106296,-1.16771e-06
17538,-39.0,-7.0,0.00048299599999999997,  -32.1785E-03,   64.4072E-03,   733.452E-03,0.0371972,0.0112346,-1.20106e-06
17543,-40.0,-7.0,0.000401786,  -24.5790E-03,   64.4073E-03,   610.512E-03,0.0390679,0.0117951,-1.2001e-06
17544,-41.0,-7.0,0.000327352,  -18.1860E-03,   64.4073E-03,   497.725E-03,0.0407829,0.0123089,-1.15979e-06
17549,-42.0,-7.0,0.000259983,  -12.9415E-03,   64.4074E-03,   395.546E-03,0.0423354,0.0127741,-1.07882e-06
17552,-43.0,-7.0,0.00019993799999999998,  -8.76873E-03,   64.4074E-03,   304.387E-03,0.0437192,0.0131886,-9.60317e-07
17553,-44.0,-7.0,0.000147447,  -5.57442E-03,   64.4075E-03,   224.620E-03,0.0449287,0.013551,-8.11984e-07
17558,-45.0,-7.0,0.000102709,  -3.24952E-03,   64.4075E-03,   156.568E-03,0.045959,0.0138596,-6.45398e-07
17559,-46.0,-7.0,6.589149999999999e-05,  -1.67125E-03,   64.4075E-03,   100.508E-03,0.0468061,0.0141135,-4.74819e-07
17564,-47.0,-7.0,3.71276e-05,  -704.967E-06,   64.4076E-03,   56.6689E-03,0.0474665,0.0143114,-3.14989e-07
17567,-48.0,-7.0,1.6518599999999998e-05,  -206.320E-06,   64.4076E-03,   25.2282E-03,0.0479375,0.0144526,-1.79054e-07
17568,-49.0,-7.0,4.13164e-06,  -23.5685E-06,   64.4076E-03,   6.31327E-03,0.0482174,0.0145365,-7.59354e-08
17573,-50.0,-7.0,0.0,  -12.7476E-42,   64.4076E-03,           -0.,0.0483094,0.0145641,-3.33323e-08
17574,50.0,-8.0,0.0,      -1.01048,   64.4066E-03,           -0.,0.0483092,0.0145638,3.162e-08
17579,49.0,-8.0,4.13556e-06,      -1.01046,   64.4066E-03,   6.31324E-03,0.0482173,0.0145362,7.58631e-08
17582,48.0,-8.0,1.6534300000000002e-05,      -1.01028,   64.4066E-03,   25.2281E-03,0.0479374,0.0144523,1.88956e-07
17583,47.0,-8.0,3.71629e-05,      -1.00978,   64.4065E-03,   56.6688E-03,0.0474664,0.0143112,3.46337e-07
17588,46.0,-8.0,6.595409999999999e-05,      -1.00881,   64.4065E-03,   100.508E-03,0.0468061,0.0141133,5.35378e-07
17589,45.0,-8.0,0.00010280700000000001,      -1.00723,   64.4065E-03,   156.568E-03,0.045959,0.0138595,7.38907e-07
17594,44.0,-8.0,0.000147586,      -1.00491,   64.4064E-03,   224.620E-03,0.0449287,0.0135508,9.37833e-07
17597,43.0,-8.0,0.000200126,      -1.00171,   64.4064E-03,   304.387E-03,0.0437193,0.0131885,1.11435e-06
17598,42.0,-8.0,0.000260226,  -997.540E-03,   64.4063E-03,   395.545E-03,0.0423355,0.012774,1.25403e-06
17603,41.0,-8.0,0.000327657,  -992.296E-03,   64.4063E-03,   497.725E-03,0.040783,0.0123089,1.34766e-06
17604,40.0,-8.0,0.000402158,  -985.903E-03,   64.4062E-03,   610.512E-03,0.0390679,0.0117951,1.39173e-06
17609,39.0,-8.0,0.00048344,  -978.303E-03,   64.4061E-03,   733.451E-03,0.0371973,0.0112346,1.38834e-06
17612,38.0,-8.0,0.000571186,  -969.458E-03,   64.4061E-03,   866.048E-03,0.0351785,0.0106297,1.34413e-06
17613,37.0,-8.0,0.000665053,  -959.347E-03,   64.4060E-03,       1.00777,0.0330196,0.00998262,1.26883e-06
17618,36.0,-8.0,0.0007646710000000001,  -947.972E-03,   64.4060E-03,       1.15805,0.0307293,0.00929607,1.17345e-06
17619,35.0,-8.0,0.00086965,  -935.352E-03,   64.4059E-03,       1.31629,0.0283167,0.00857273,1.06853e-06
17624,34.0,-8.0,0.000979576,  -921.529E-03,   64.4059E-03,       1.48186,0.0257914,0.0078155,9.62691e-07
17627,33.0,-8.0,0.00109402,  -906.559E-03,   64.4058E-03,       1.65410,0.0231634,0.00702738,8.61495e-07
17628,32.0,-8.0,0.00121252,  -890.522E-03,   64.4058E-03,       1.83234,0.0204432,0.00621151,7.67003e-07
17633,31.0,-8.0,0.00133461,  -873.510E-03,   64.4058E-03,       2.01586,0.0176415,0.0053711,6.77736e-07
17634,30.0,-8.0,0.00145982,  -855.632E-03,   64.4058E-03,       2.20396,0.0147694,0.0045095,5.89243e-07
17639,29.0,-8.0,0.00158764,  -837.012E-03,   64.4058E-03,       2.39590,0.0118381,0.00363011,4.94968e-07
17642,28.0,-8.0,0.00171757,  -817.782E-03,   64.4058E-03,       2.59092,0.00885936,0.0027364,3.87405e-07
17643,27.0,-8.0,0.00184909,  -798.087E-03,   64.4058E-03,       2.78826,0.00584478,0.00183188,2.59274e-07
17648,26.0,-8.0,0.00198169,  -778.077E-03,   64.4059E-03,       2.98715,0.00280624,0.00092012,1.04658e-07
17649,25.0,-8.0,0.00211484,  -757.909E-03,   64.4059E-03,       3.18682,-0.000244321,4.70955e-06,-8.01048e-08
17654,24.0,-8.0,0.00224801,  -737.740E-03,   64.4059E-03,       3.38650,-0.0032949,-0.000910749,-2.95785e-07
17657,23.0,-8.0,0.00238067,  -717.729E-03,   64.4060E-03,       3.58540,-0.00633352,-0.00182265,-5.39992e-07
17658,22.0,-8.0,0.00251231,  -698.032E-03,   64.4060E-03,       3.78275,-0.00934822,-0.0027274,-8.07203e-07
17663,21.0,-8.0,0.00264239,  -678.800E-03,   64.4060E-03,       3.97778,-0.0123272,-0.00362142,-1.08914e-06
17664,20.0,-8.0,0.00277041,  -660.176E-03,   64.4061E-03,       4.16973,-0.0152587,-0.0045012,-1.37534e-06
17669,19.0,-8.0,0.00289585,  -642.294E-03,   64.4061E-03,       4.35785,-0.0181311,-0.00536325,-1.65399e-06
17672,18.0,-8.0,0.00301822,  -625.278E-03,   64.4061E-03,       4.54140,-0.0209333,-0.00620418,-1.91276e-06
17673,17.0,-8.0,0.00313703,  -609.235E-03,   64.4061E-03,       4.71967,-0.0236541,-0.00702066,-2.13975e-06
17678,16.0,-8.0,0.00325182,  -594.260E-03,   64.4061E-03,       4.89194,-0.0262828,-0.00780947,-2.32436e-06
17679,15.0,-8.0,0.00336212,  -580.431E-03,   64.4061E-03,       5.05754,-0.028809,-0.0085675,-2.45806e-06
17684,14.0,-8.0,0.00346751,  -567.805E-03,   64.4061E-03,       5.21582,-0.0312229,-0.00929176,-2.53502e-06
17687,13.0,-8.0,0.00356757,  -556.423E-03,   64.4061E-03,       5.36614,-0.0335147,-0.0099794,-2.55248e-06
17688,12.0,-8.0,0.00366189,  -546.306E-03,   64.4061E-03,       5.50791,-0.0356755,-0.0106277,-2.51093e-06
17693,11.0,-8.0,0.00375011,  -537.454E-03,   64.4060E-03,       5.64055,-0.0376967,-0.0112341,-2.41404e-06
17694,10.0,-8.0,0.00383188,  -529.848E-03,   64.4060E-03,       5.76354,-0.0395702,-0.0117963,-2.26824e-06
17699,9.0,-8.0,0.00390687,  -523.450E-03,   64.4060E-03,       5.87638,-0.0412886,-0.0123119,-2.08218e-06
17702,8.0,-8.0,0.00397478,  -518.200E-03,   64.4060E-03,       5.97861,-0.0428451,-0.012779,-1.86584e-06
17703,7.0,-8.0,0.00403536,  -514.022E-03,   64.4060E-03,       6.06982,-0.0442335,-0.0131956,-1.62963e-06
17708,6.0,-8.0,0.00408835,  -510.824E-03,   64.4060E-03,       6.14964,-0.0454482,-0.0135602,-1.38342e-06
17709,5.0,-8.0,0.00413354,  -508.496E-03,   64.4060E-03,       6.21774,-0.0464844,-0.0138712,-1.1356e-06
17714,4.0,-8.0,0.00417077,  -506.915E-03,   64.4061E-03,       6.27384,-0.0473379,-0.0141274,-8.92419e-07
17717,3.0,-8.0,0.00419988,  -505.947E-03,   64.4061E-03,       6.31771,-0.0480053,-0.0143278,-6.575e-07
17718,2.0,-8.0,0.00422075,  -505.448E-03,   64.4061E-03,       6.34918,-0.048484,-0.0144715,-4.31769e-07
17723,1.0,-8.0,0.00423331,  -505.265E-03,   64.4061E-03,       6.36812,-0.0487719,-0.014558,-2.13718e-07
17724,-1.3477700000000001e-30,-8.0,0.0042375,  -505.241E-03,   64.4061E-03,       6.37444,-0.048868,-0.0145869,-1.06581e-14
17729,-1.0,-8.0,0.00423331,  -505.217E-03,   64.4061E-03,       6.36812,-0.0487719,-0.014558,2.13718e-07
17732,-2.0,-8.0,0.00422075,  -505.034E-03,   64.4061E-03,       6.34918,-0.048484,-0.0144715,4.31769e-07
17733,-3.0,-8.0,0.00419988,  -504.535E-03,   64.4061E-03,       6.31771,-0.0480053,-0.0143278,6.575e-07
17738,-4.0,-8.0,0.00417077,  -503.567E-03,   64.4061E-03,       6.27384,-0.0473379,-0.0141274,8.92419e-07
17739,-5.0,-8.0,0.00413354,  -501.986E-03,   64.4060E-03,       6.21774,-0.0464844,-0.0138712,1.1356e-06
17744,-6.0,-8.0,0.00408835,  -499.658E-03,   64.4060E-03,       6.14964,-0.0454482,-0.0135602,1.38342e-06
17747,-7.0,-8.0,0.00403536,  -496.460E-03,   64.4060E-03,       6.06982,-0.0442335,-0.0131956,1.62963e-06
17748,-8.0,-8.0,0.00397478,  -492.282E-03,   64.4060E-03,       5.97861,-0.0428451,-0.012779,1.86584e-06
17753,-9.0,-8.0,0.00390687,  -487.032E-03,   64.4060E-03,       5.87638,-0.0412886,-0.0123119,2.08218e-06
17754,-10.0,-8.0,0.00383188,  -480.633E-03,   64.4060E-03,       5.76354,-0.0395702,-0.0117963,2.26824e-06
17759,-11.0,-8.0,0.00375011,  -473.028E-03,   64.4060E-03,       5.64055,-0.0376967,-0.0112341,2.41404e-06
17762,-12.0,-8.0,0.00366189,  -464.176E-03,   64.4061E-03,       5.50791,-0.0356755,-0.0106277,2.51093e-06
17763,-13.0,-8.0,0.00356757,  -454.059E-03,   64.4061E-03,       5.36614,-0.0335147,-0.0099794,2.55248e-06
17768,-14.0,-8.0,0.00346751,  -442.677E-03,   64.4061E-03,       5.21582,-0.0312229,-0.00929176,2.53502e-06
17769,-15.0,-8.0,0.00336212,  -430.051E-03,   64.4061E-03,       5.05754,-0.028809,-0.0085675,2.45806e-06
17774,-16.0,-8.0,0.00325182,  -416.221E-03,   64.4061E-03,       4.89194,-0.0262828,-0.00780947,2.32436e-06
17777,-17.0,-8.0,0.00313703,  -401.247E-03,   64.4061E-03,       4.71967,-0.0236541,-0.00702066,2.13975e-06
17778,-18.0,-8.0,0.00301822,  -385.204E-03,   64.4061E-03,       4.54140,-0.0209333,-0.00620418,1.91276e-06
17783,-19.0,-8.0,0.00289585,  -368.188E-03,   64.4061E-03,       4.35785,-0.0181311,-0.00536325,1.65399e-06
17784,-20.0,-8.0,0.00277041,  -350.306E-03,   64.4061E-03,       4.16973,-0.0152587,-0.0045012,1.37534e-06
17789,-21.0,-8.0,0.00264239,  -331.682E-03,   64.4060E-03,       3.97778,-0.0123272,-0.00362142,1.08914e-06
17792,-22.0,-8.0,0.00251231,  -312.449E-03,   64.4060E-03,       3.78275,-0.00934822,-0.0027274,8.07203e-07
17793,-23.0,-8.0,0.00238067,  -292.752E-03,   64.4060E-03,       3.58540,-0.00633352,-0.00182265,5.39992e-07
17798,-24.0,-8.0,0.00224801,  -272.742E-03,   64.4059E-03,       3.38650,-0.0032949,-0.000910749,2.95785e-07
17799,-25.0,-8.0,0.00211484,  -252.573E-03,   64.4059E-03,       3.18682,-0.000244321,4.70955e-06,8.01048e-08
17804,-26.0,-8.0,0.00198169,  -232.405E-03,   64.4059E-03,       2.98715,0.00280624,0.00092012,-1.04658e-07
17807,-27.0,-8.0,0.00184909,  -212.395E-03,   64.4058E-03,       2.78826,0.00584478,0.00183188,-2.59274e-07
17808,-28.0,-8.0,0.00171757,  -192.700E-03,   64.4058E-03,       2.59092,0.00885936,0.0027364,-3.87405e-07
17813,-29.0,-8.0,0.00158764,  -173.470E-03,   64.4058E-03,       2.39590,0.0118381,0.00363011,-4.94968e-07
17814,-30.0,-8.0,0.00145982,  -154.849E-03,   64.4058E-03,       2.20396,0.0147694,0.0045095,-5.89243e-07
17819,-31.0,-8.0,0.00133461,  -136.972E-03,   64.4058E-03,       2.01586,0.0176415,0.0053711,-6.77736e-07
17822,-32.0,-8.0,0.00121252,  -119.960E-03,   64.4058E-03,       1.83234,0.0204432,0.00621151,-7.67003e-07
17823,-33.0,-8.0,0.00109402,  -103.922E-03,   64.4058E-03,       1.65410,0.0231634,0.00702738,-8.61495e-07
17828,-34.0,-8.0,0.000979576,  -88.9532E-03,   64.4059E-03,       1.48186,0.0257914,0.0078155,-9.62691e-07
17829,-35.0,-8.0,0.00086965,  -75.1294E-03,   64.4059E-03,       1.31629,0.0283167,0.00857273,-1.06853e-06
17834,-36.0,-8.0,0.0007646710000000001,  -62.5098E-03,   64.4060E-03,       1.15805,0.0307293,0.00929607,-1.17345e-06
17837,-37.0,-8.0,0.000665053,  -51.1344E-03,   64.4060E-03,       1.00777,0.0330196,0.00998262,-1.26883e-06
17838,-38.0,-8.0,0.000571186,  -41.0239E-03,   64.4061E-03,   866.048E-03,0.0351785,0.0106297,-1.34413e-06
17843,-39.0,-8.0,0.00048344,  -32.1785E-03,   64.4061E-03,   733.451E-03,0.0371973,0.0112346,-1.38834e-06
17844,-40.0,-8.0,0.000402158,  -24.5790E-03,   64.4062E-03,   610.512E-03,0.0390679,0.0117951,-1.39173e-06
17849,-41.0,-8.0,0.000327657,  -18.1860E-03,   64.4063E-03,   497.725E-03,0.040783,0.0123089,-1.34766e-06
17852,-42.0,-8.0,0.000260226,  -12.9414E-03,   64.4063E-03,   395.545E-03,0.0423355,0.012774,-1.25403e-06
17853,-43.0,-8.0,0.000200126,  -8.76872E-03,   64.4064E-03,   304.387E-03,0.0437193,0.0131885,-1.11435e-06
17858,-44.0,-8.0,0.000147586,  -5.57440E-03,   64.4064E-03,   224.620E-03,0.0449287,0.0135508,-9.37833e-07
17859,-45.0,-8.0,0.00010280700000000001,  -3.24951E-03,   64.4065E-03,   156.568E-03,0.045959,0.0138595,-7.38907e-07
17864,-46.0,-8.0,6.595409999999999e-05,  -1.67124E-03,   64.4065E-03,   100.508E-03,0.0468061,0.0141133,-5.35378e-07
17867,-47.0,-8.0,3.71629e-05,  -704.962E-06,   64.4065E-03,   56.6688E-03,0.0474664,0.0143112,-3.46337e-07
17868,-48.0,-8.0,1.6534300000000002e-05,  -206.317E-06,   64.4066E-03,   25.2281E-03,0.0479374,0.0144523,-1.88956e-07
17873,-49.0,-8.0,4.13556e-06,  -23.5677E-06,   64.4066E-03,   6.31324E-03,0.0482173,0.0145362,-7.58632e-08
17874,-50.0,-8.0,0.0,  -12.7476E-42,   64.4066E-03,           -0.,0.0483092,0.0145638,-3.16201e-08
17879,50.0,-9.0,0.0,      -1.01048,   64.4056E-03,           -0.,0.048309,0.0145635,2.65819e-08
17882,49.0,-9.0,4.14006e-06,      -1.01046,   64.4056E-03,   6.31322E-03,0.0482171,0.014536,7.06147e-08
17883,48.0,-9.0,1.65523e-05,      -1.01028,   64.4055E-03,   25.2280E-03,0.0479373,0.0144521,1.91326e-07
17888,47.0,-9.0,3.72033e-05,      -1.00978,   64.4055E-03,   56.6686E-03,0.0474664,0.0143109,3.70766e-07
17889,46.0,-9.0,6.60257e-05,      -1.00881,   64.4055E-03,   100.508E-03,0.0468061,0.0141131,5.91825e-07
17894,45.0,-9.0,0.00010291799999999999,      -1.00723,   64.4055E-03,   156.567E-03,0.0459591,0.0138593,8.31894e-07
17897,44.0,-9.0,0.000147746,      -1.00491,   64.4054E-03,   224.619E-03,0.0449288,0.0135507,1.06697e-06
17898,43.0,-9.0,0.00020034099999999998,      -1.00171,   64.4053E-03,   304.386E-03,0.0437193,0.0131884,1.27467e-06
17903,42.0,-9.0,0.000260505,  -997.540E-03,   64.4053E-03,   395.544E-03,0.0423356,0.012774,1.43746e-06
17904,41.0,-9.0,0.000328006,  -992.296E-03,   64.4052E-03,   497.724E-03,0.040783,0.012309,1.54427e-06
17909,40.0,-9.0,0.00040258300000000003,  -985.903E-03,   64.4051E-03,   610.511E-03,0.039068,0.0117952,1.59132e-06
17912,39.0,-9.0,0.00048394800000000005,  -978.303E-03,   64.4051E-03,   733.451E-03,0.0371973,0.0112347,1.58171e-06
17913,38.0,-9.0,0.000571782,  -969.458E-03,   64.4050E-03,   866.048E-03,0.0351785,0.0106298,1.5241e-06
17918,37.0,-9.0,0.0006657410000000001,  -959.347E-03,   64.4049E-03,       1.00777,0.0330196,0.00998278,1.43085e-06
17919,36.0,-9.0,0.0007654560000000001,  -947.972E-03,   64.4048E-03,       1.15805,0.0307293,0.00929623,1.31566e-06
17924,35.0,-9.0,0.0008705360000000001,  -935.352E-03,   64.4048E-03,       1.31629,0.0283167,0.0085729,1.1916e-06
17927,34.0,-9.0,0.000980565,  -921.528E-03,   64.4047E-03,       1.48186,0.0257914,0.00781566,1.06907e-06
17928,33.0,-9.0,0.00109511,  -906.559E-03,   64.4047E-03,       1.65410,0.0231635,0.00702753,9.54732e-07
17933,32.0,-9.0,0.00121372,  -890.522E-03,   64.4047E-03,       1.83234,0.0204432,0.00621164,8.50753e-07
17934,31.0,-9.0,0.00133592,  -873.510E-03,   64.4047E-03,       2.01586,0.0176415,0.00537122,7.54994e-07
17939,30.0,-9.0,0.00146124,  -855.632E-03,   64.4047E-03,       2.20396,0.0147694,0.00450961,6.61625e-07
17942,29.0,-9.0,0.00158917,  -837.011E-03,   64.4047E-03,       2.39590,0.0118381,0.0036302,5.62312e-07
17943,28.0,-9.0,0.00171921,  -817.781E-03,   64.4047E-03,       2.59092,0.00885931,0.00273648,4.47578e-07
17948,27.0,-9.0,0.00185085,  -798.086E-03,   64.4047E-03,       2.78826,0.00584468,0.00183195,3.08312e-07
17949,26.0,-9.0,0.00198356,  -778.077E-03,   64.4048E-03,       2.98715,0.0028061,0.000920188,1.37094e-07
17954,25.0,-9.0,0.00211682,  -757.908E-03,   64.4048E-03,       3.18682,-0.000244508,4.77263e-06,-7.0683e-08
17957,24.0,-9.0,0.0022501,  -737.740E-03,   64.4048E-03,       3.38650,-0.00329513,-0.00091069,-3.16094e-07
17958,23.0,-9.0,0.00238287,  -717.729E-03,   64.4049E-03,       3.58540,-0.00633379,-0.00182259,-5.9633e-07
17963,22.0,-9.0,0.00251461,  -698.032E-03,   64.4049E-03,       3.78275,-0.00934852,-0.00272735,-9.0479e-07
17964,21.0,-9.0,0.00264479,  -678.800E-03,   64.4049E-03,       3.97778,-0.0123275,-0.00362138,-1.2315e-06
17969,20.0,-9.0,0.00277291,  -660.175E-03,   64.4050E-03,       4.16973,-0.015259,-0.00450116,-1.56387e-06
17972,19.0,-9.0,0.00289844,  -642.294E-03,   64.4050E-03,       4.35785,-0.0181314,-0.00536321,-1.88761e-06
17973,18.0,-9.0,0.00302091,  -625.277E-03,   64.4050E-03,       4.54140,-0.0209335,-0.00620413,-2.18787e-06
17978,17.0,-9.0,0.00313981,  -609.235E-03,   64.4050E-03,       4.71966,-0.0236543,-0.00702061,-2.45027e-06
17979,16.0,-9.0,0.00325469,  -594.260E-03,   64.4050E-03,       4.89194,-0.0262829,-0.00780941,-2.66207e-06
17984,15.0,-9.0,0.00336508,  -580.430E-03,   64.4050E-03,       5.05754,-0.0288091,-0.00856744,-2.81303e-06
17987,14.0,-9.0,0.00347054,  -567.805E-03,   64.4050E-03,       5.21582,-0.0312228,-0.0092917,-2.89626e-06
17988,13.0,-9.0,0.00357067,  -556.423E-03,   64.4050E-03,       5.36614,-0.0335146,-0.00997933,-2.90866e-06
17993,12.0,-9.0,0.00366507,  -546.306E-03,   64.4050E-03,       5.50791,-0.0356753,-0.0106276,-2.85121e-06
17994,11.0,-9.0,0.00375335,  -537.454E-03,   64.4049E-03,       5.64055,-0.0376964,-0.0112341,-2.72877e-06
17999,10.0,-9.0,0.00383518,  -529.848E-03,   64.4049E-03,       5.76354,-0.0395699,-0.0117962,-2.54972e-06
18002,9.0,-9.0,0.00391022,  -523.450E-03,   64.4049E-03,       5.87638,-0.0412883,-0.0123119,-2.32509e-06
18003,8.0,-9.0,0.00397818,  -518.200E-03,   64.4049E-03,       5.97861,-0.0428448,-0.012779,-2.06759e-06
18008,7.0,-9.0,0.0040388,  -514.022E-03,   64.4049E-03,       6.06982,-0.0442333,-0.0131957,-1.79038e-06
18009,6.0,-9.0,0.00409183,  -510.824E-03,   64.4049E-03,       6.14963,-0.045448,-0.0135603,-1.50578e-06
18014,5.0,-9.0,0.00413706,  -508.496E-03,   64.4050E-03,       6.21773,-0.0464843,-0.0138714,-1.22415e-06
18017,4.0,-9.0,0.00417431,  -506.915E-03,   64.4050E-03,       6.27383,-0.0473379,-0.0141276,-9.52912e-07
18018,3.0,-9.0,0.00420344,  -505.947E-03,   64.4050E-03,       6.31771,-0.0480053,-0.0143281,-6.96039e-07
18023,2.0,-9.0,0.00422433,  -505.448E-03,   64.4050E-03,       6.34918,-0.0484841,-0.0144718,-4.53905e-07
18024,1.0,-9.0,0.00423689,  -505.265E-03,   64.4050E-03,       6.36811,-0.0487721,-0.0145583,-2.23655e-07
18029,4.1843800000000004e-30,-9.0,0.00424109,  -505.241E-03,   64.4050E-03,       6.37443,-0.0488682,-0.0145872,-1.59872e-14
18032,-1.0,-9.0,0.00423689,  -505.217E-03,   64.4050E-03,       6.36811,-0.0487721,-0.0145583,2.23654e-07
18033,-2.0,-9.0,0.00422433,  -505.034E-03,   64.4050E-03,       6.34918,-0.0484841,-0.0144718,4.53905e-07
18038,-3.0,-9.0,0.00420344,  -504.535E-03,   64.4050E-03,       6.31771,-0.0480053,-0.0143281,6.96039e-07
18039,-4.0,-9.0,0.00417431,  -503.567E-03,   64.4050E-03,       6.27383,-0.0473379,-0.0141276,9.52912e-07
18044,-5.0,-9.0,0.00413706,  -501.986E-03,   64.4050E-03,       6.21773,-0.0464843,-0.0138714,1.22415e-06
18047,-6.0,-9.0,0.00409183,  -499.658E-03,   64.4049E-03,       6.14963,-0.045448,-0.0135603,1.50578e-06
18048,-7.0,-9.0,0.0040388,  -496.460E-03,   64.4049E-03,       6.06982,-0.0442333,-0.0131957,1.79038e-06
18053,-8.0,-9.0,0.00397818,  -492.282E-03,   64.4049E-03,       5.97861,-0.0428448,-0.012779,2.06759e-06
18054,-9.0,-9.0,0.00391022,  -487.032E-03,   64.4049E-03,       5.87638,-0.0412883,-0.0123119,2.32509e-06
18059,-10.0,-9.0,0.00383518,  -480.633E-03,   64.4049E-03,       5.76354,-0.0395699,-0.0117962,2.54972e-06
18062,-11.0,-9.0,0.00375335,  -473.028E-03,   64.4049E-03,       5.64055,-0.0376964,-0.0112341,2.72877e-06
18063,-12.0,-9.0,0.00366507,  -464.176E-03,   64.4050E-03,       5.50791,-0.0356753,-0.0106276,2.85121e-06
18068,-13.0,-9.0,0.00357067,  -454.059E-03,   64.4050E-03,       5.36614,-0.0335146,-0.00997933,2.90866e-06
18069,-14.0,-9.0,0.00347054,  -442.677E-03,   64.4050E-03,       5.21582,-0.0312228,-0.0092917,2.89626e-06
18074,-15.0,-9.0,0.00336508,  -430.051E-03,   64.4050E-03,       5.05754,-0.0288091,-0.00856744,2.81303e-06
18077,-16.0,-9.0,0.00325469,  -416.222E-03,   64.4050E-03,       4.89194,-0.0262829,-0.00780941,2.66207e-06
18078,-17.0,-9.0,0.00313981,  -401.247E-03,   64.4050E-03,       4.71966,-0.0236543,-0.00702061,2.45027e-06
18083,-18.0,-9.0,0.00302091,  -385.205E-03,   64.4050E-03,       4.54140,-0.0209335,-0.00620413,2.18787e-06
18084,-19.0,-9.0,0.00289844,  -368.188E-03,   64.4050E-03,       4.35785,-0.0181314,-0.00536321,1.88761e-06
18089,-20.0,-9.0,0.00277291,  -350.306E-03,   64.4050E-03,       4.16973,-0.015259,-0.00450116,1.56387e-06
18092,-21.0,-9.0,0.00264479,  -331.682E-03,   64.4049E-03,       3.97778,-0.0123275,-0.00362138,1.2315e-06
18093,-22.0,-9.0,0.00251461,  -312.450E-03,   64.4049E-03,       3.78275,-0.00934852,-0.00272735,9.0479e-07
18098,-23.0,-9.0,0.00238287,  -292.753E-03,   64.4049E-03,       3.58540,-0.00633379,-0.00182259,5.9633e-07
18099,-24.0,-9.0,0.0022501,  -272.742E-03,   64.4048E-03,       3.38650,-0.00329513,-0.00091069,3.16094e-07
18104,-25.0,-9.0,0.00211682,  -252.573E-03,   64.4048E-03,       3.18682,-0.000244508,4.77263e-06,7.06831e-08
18107,-26.0,-9.0,0.00198356,  -232.405E-03,   64.4048E-03,       2.98715,0.0028061,0.000920188,-1.37094e-07
18108,-27.0,-9.0,0.00185085,  -212.396E-03,   64.4047E-03,       2.78826,0.00584468,0.00183195,-3.08312e-07
18113,-28.0,-9.0,0.00171921,  -192.700E-03,   64.4047E-03,       2.59092,0.00885931,0.00273648,-4.47578e-07
18114,-29.0,-9.0,0.00158917,  -173.471E-03,   64.4047E-03,       2.39590,0.0118381,0.0036302,-5.62312e-07
18119,-30.0,-9.0,0.00146124,  -154.850E-03,   64.4047E-03,       2.20396,0.0147694,0.00450961,-6.61625e-07
18122,-31.0,-9.0,0.00133592,  -136.972E-03,   64.4047E-03,       2.01586,0.0176415,0.00537122,-7.54994e-07
18123,-32.0,-9.0,0.00121372,  -119.960E-03,   64.4047E-03,       1.83234,0.0204432,0.00621164,-8.50752e-07
18128,-33.0,-9.0,0.00109511,  -103.923E-03,   64.4047E-03,       1.65410,0.0231635,0.00702753,-9.54732e-07
18129,-34.0,-9.0,0.000980565,  -88.9533E-03,   64.4047E-03,       1.48186,0.0257914,0.00781566,-1.06907e-06
18134,-35.0,-9.0,0.0008705360000000001,  -75.1295E-03,   64.4048E-03,       1.31629,0.0283167,0.0085729,-1.1916e-06
18137,-36.0,-9.0,0.0007654560000000001,  -62.5098E-03,   64.4048E-03,       1.15805,0.0307293,0.00929623,-1.31566e-06
18138,-37.0,-9.0,0.0006657410000000001,  -51.1345E-03,   64.4049E-03,       1.00777,0.0330196,0.00998278,-1.43085e-06
18143,-38.0,-9.0,0.000571782,  -41.0239E-03,   64.4050E-03,   866.048E-03,0.0351785,0.0106298,-1.5241e-06
18144,-39.0,-9.0,0.00048394800000000005,  -32.1786E-03,   64.4051E-03,   733.451E-03,0.0371973,0.0112347,-1.58171e-06
18149,-40.0,-9.0,0.00040258300000000003,  -24.5790E-03,   64.4051E-03,   610.511E-03,0.039068,0.0117952,-1.59132e-06
18152,-41.0,-9.0,0.000328006,  -18.1860E-03,   64.4052E-03,   497.724E-03,0.040783,0.012309,-1.54427e-06
18153,-42.0,-9.0,0.000260505,  -12.9414E-03,   64.4053E-03,   395.544E-03,0.0423356,0.012774,-1.43746e-06
18158,-43.0,-9.0,0.00020034099999999998,  -8.76870E-03,   64.4053E-03,   304.386E-03,0.0437193,0.0131884,-1.27467e-06
18159,-44.0,-9.0,0.000147746,  -5.57439E-03,   64.4054E-03,   224.619E-03,0.0449288,0.0135507,-1.06697e-06
18164,-45.0,-9.0,0.00010291799999999999,  -3.24950E-03,   64.4055E-03,   156.567E-03,0.0459591,0.0138593,-8.31894e-07
18165,-46.0,-9.0,6.60257e-05,  -1.67123E-03,   64.4055E-03,   100.508E-03,0.0468061,0.0141131,-5.91825e-07
18170,-47.0,-9.0,3.72033e-05,  -704.956E-06,   64.4055E-03,   56.6686E-03,0.0474664,0.0143109,-3.70766e-07
18171,-48.0,-9.0,1.65523e-05,  -206.315E-06,   64.4055E-03,   25.2280E-03,0.0479373,0.0144521,-1.91326e-07
18176,-49.0,-9.0,4.14006e-06,  -23.5669E-06,   64.4056E-03,   6.31322E-03,0.0482171,0.014536,-7.06148e-08
18179,-50.0,-9.0,0.0,  -12.7490E-42,   64.4056E-03,           -0.,0.048309,0.0145635,-2.6582e-08
18180,50.0,-10.0,0.0,      -1.01048,   64.4046E-03,           -0.,0.0483087,0.0145632,1.80171e-08
18185,49.0,-10.0,4.1451599999999995e-06,      -1.01046,   64.4045E-03,   6.31318E-03,0.0482168,0.0145357,5.89773e-08
18186,48.0,-10.0,1.65727e-05,      -1.01028,   64.4045E-03,   25.2278E-03,0.0479372,0.0144518,1.84285e-07
18191,47.0,-10.0,3.7249099999999995e-05,      -1.00978,   64.4045E-03,   56.6683E-03,0.0474663,0.0143107,3.86581e-07
18194,46.0,-10.0,6.610680000000001e-05,      -1.00881,   64.4045E-03,   100.507E-03,0.0468061,0.0141128,6.42647e-07
18195,45.0,-10.0,0.000103044,      -1.00723,   64.4044E-03,   156.567E-03,0.0459592,0.0138591,9.23683e-07
18200,44.0,-10.0,0.000147926,      -1.00491,   64.4044E-03,   224.618E-03,0.0449289,0.0135505,1.1992e-06
18201,43.0,-10.0,0.00020058400000000002,      -1.00171,   64.4043E-03,   304.386E-03,0.0437195,0.0131883,1.44176e-06
18206,42.0,-10.0,0.000260819,  -997.540E-03,   64.4042E-03,   395.544E-03,0.0423357,0.0127739,1.62989e-06
18209,41.0,-10.0,0.000328399,  -992.296E-03,   64.4041E-03,   497.724E-03,0.0407831,0.012309,1.75056e-06
18210,40.0,-10.0,0.00040306300000000005,  -985.903E-03,   64.4041E-03,   610.511E-03,0.0390681,0.0117953,1.79973e-06
18215,39.0,-10.0,0.00048452,  -978.303E-03,   64.4040E-03,   733.450E-03,0.0371974,0.0112349,1.78178e-06
18216,38.0,-10.0,0.000572453,  -969.458E-03,   64.4039E-03,   866.047E-03,0.0351785,0.01063,1.70791e-06
18221,37.0,-10.0,0.000666516,  -959.347E-03,   64.4038E-03,       1.00777,0.0330197,0.00998295,1.59353e-06
18224,36.0,-10.0,0.00076634,  -947.972E-03,   64.4037E-03,       1.15805,0.0307293,0.00929641,1.45571e-06
18225,35.0,-10.0,0.000871532,  -935.352E-03,   64.4037E-03,       1.31629,0.0283167,0.00857308,1.31031e-06
18230,34.0,-10.0,0.000981678,  -921.528E-03,   64.4036E-03,       1.48186,0.0257915,0.00781584,1.16997e-06
18231,33.0,-10.0,0.00109634,  -906.559E-03,   64.4036E-03,       1.65410,0.0231635,0.00702769,1.04243e-06
18236,32.0,-10.0,0.00121507,  -890.522E-03,   64.4036E-03,       1.83234,0.0204433,0.00621178,9.30014e-07
18239,31.0,-10.0,0.0013374,  -873.509E-03,   64.4036E-03,       2.01586,0.0176415,0.00537135,8.2965e-07
18240,30.0,-10.0,0.00146284,  -855.632E-03,   64.4035E-03,       2.20396,0.0147694,0.00450972,7.33867e-07
18245,29.0,-10.0,0.0015909,  -837.011E-03,   64.4036E-03,       2.39590,0.0118381,0.0036303,6.32134e-07
18246,28.0,-10.0,0.00172106,  -817.781E-03,   64.4036E-03,       2.59092,0.00885925,0.00273657,5.12653e-07
18251,27.0,-10.0,0.00185282,  -798.086E-03,   64.4036E-03,       2.78826,0.00584458,0.00183203,3.64096e-07
18254,26.0,-10.0,0.00198566,  -778.076E-03,   64.4036E-03,       2.98715,0.00280594,0.000920263,1.77288e-07
18255,25.0,-10.0,0.00211904,  -757.908E-03,   64.4037E-03,       3.18682,-0.00024472,4.84202e-06,-5.35235e-08
18260,24.0,-10.0,0.00225244,  -737.739E-03,   64.4037E-03,       3.38650,-0.0032954,-0.000910626,-3.29765e-07
18261,23.0,-10.0,0.00238533,  -717.728E-03,   64.4038E-03,       3.58540,-0.0063341,-0.00182254,-6.48182e-07
18266,22.0,-10.0,0.00251719,  -698.031E-03,   64.4038E-03,       3.78275,-0.00934887,-0.00272729,-1.00092e-06
18269,21.0,-10.0,0.00264749,  -678.799E-03,   64.4039E-03,       3.97778,-0.0123279,-0.00362132,-1.37608e-06
18270,20.0,-10.0,0.00277571,  -660.175E-03,   64.4039E-03,       4.16973,-0.0152593,-0.00450111,-1.7586e-06
18275,19.0,-10.0,0.00290136,  -642.293E-03,   64.4039E-03,       4.35785,-0.0181317,-0.00536316,-2.13138e-06
18276,18.0,-10.0,0.00302393,  -625.277E-03,   64.4039E-03,       4.54140,-0.0209338,-0.00620408,-2.47662e-06
18281,17.0,-10.0,0.00314293,  -609.234E-03,   64.4039E-03,       4.71966,-0.0236545,-0.00702056,-2.77714e-06
18284,16.0,-10.0,0.00325791,  -594.260E-03,   64.4039E-03,       4.89194,-0.026283,-0.00780936,-3.01769e-06
18285,15.0,-10.0,0.00336839,  -580.430E-03,   64.4039E-03,       5.05754,-0.0288091,-0.00856737,-3.18614e-06
18290,14.0,-10.0,0.00347394,  -567.804E-03,   64.4039E-03,       5.21582,-0.0312228,-0.00929163,-3.27438e-06
18291,13.0,-10.0,0.00357415,  -556.423E-03,   64.4039E-03,       5.36614,-0.0335144,-0.00997926,-3.27901e-06
18296,12.0,-10.0,0.00366862,  -546.306E-03,   64.4039E-03,       5.50790,-0.035675,-0.0106276,-3.20158e-06
18299,11.0,-10.0,0.00375698,  -537.454E-03,   64.4038E-03,       5.64055,-0.0376961,-0.011234,-3.04852e-06
18300,10.0,-10.0,0.00383887,  -529.848E-03,   64.4038E-03,       5.76353,-0.0395695,-0.0117962,-2.83051e-06
18305,9.0,-10.0,0.00391398,  -523.450E-03,   64.4038E-03,       5.87637,-0.041288,-0.0123119,-2.56152e-06
18306,8.0,-10.0,0.003982,  -518.200E-03,   64.4038E-03,       5.97860,-0.0428445,-0.012779,-2.25754e-06
18311,7.0,-10.0,0.00404266,  -514.022E-03,   64.4038E-03,       6.06981,-0.044233,-0.0131958,-1.93499e-06
18314,6.0,-10.0,0.00409573,  -510.824E-03,   64.4039E-03,       6.14963,-0.0454478,-0.0135604,-1.60914e-06
18315,5.0,-10.0,0.004141,  -508.496E-03,   64.4039E-03,       6.21773,-0.0464842,-0.0138716,-1.29261e-06
18320,4.0,-10.0,0.00417828,  -506.915E-03,   64.4039E-03,       6.27383,-0.0473378,-0.0141279,-9.94203e-07
18321,3.0,-10.0,0.00420743,  -505.947E-03,   64.4039E-03,       6.31771,-0.0480054,-0.0143283,-7.18167e-07
18326,2.0,-10.0,0.00422834,  -505.448E-03,   64.4039E-03,       6.34918,-0.0484842,-0.0144721,-4.64073e-07
18329,1.0,-10.0,0.00424091,  -505.265E-03,   64.4040E-03,       6.36811,-0.0487722,-0.0145586,-2.27285e-07
18330,0.0,-10.0,0.00424511,  -505.241E-03,   64.4040E-03,       6.37443,-0.0488684,-0.0145875,-1.24345e-14
18335,-1.0,-10.0,0.00424091,  -505.217E-03,   64.4040E-03,       6.36811,-0.0487722,-0.0145586,2.27285e-07
18336,-2.0,-10.0,0.00422834,  -505.034E-03,   64.4039E-03,       6.34918,-0.0484842,-0.0144721,4.64073e-07
18341,-3.0,-10.0,0.00420743,  -504.535E-03,   64.4039E-03,       6.31771,-0.0480054,-0.0143283,7.18167e-07
18344,-4.0,-10.0,0.00417828,  -503.567E-03,   64.4039E-03,       6.27383,-0.0473378,-0.0141279,9.94203e-07
18345,-5.0,-10.0,0.004141,  -501.986E-03,   64.4039E-03,       6.21773,-0.0464842,-0.0138716,1.29261e-06
18350,-6.0,-10.0,0.00409573,  -499.658E-03,   64.4039E-03,       6.14963,-0.0454478,-0.0135604,1.60914e-06
18351,-7.0,-10.0,0.00404266,  -496.460E-03,   64.4038E-03,       6.06981,-0.044233,-0.0131958,1.93499e-06
18356,-8.0,-10.0,0.003982,  -492.282E-03,   64.4038E-03,       5.97860,-0.0428445,-0.012779,2.25754e-06
18359,-9.0,-10.0,0.00391398,  -487.032E-03,   64.4038E-03,       5.87637,-0.041288,-0.0123119,2.56152e-06
18360,-10.0,-10.0,0.00383887,  -480.633E-03,   64.4038E-03,       5.76353,-0.0395695,-0.0117962,2.83051e-06
18365,-11.0,-10.0,0.00375698,  -473.028E-03,   64.4038E-03,       5.64055,-0.0376961,-0.011234,3.04852e-06
18366,-12.0,-10.0,0.00366862,  -464.176E-03,   64.4039E-03,       5.50790,-0.035675,-0.0106276,3.20158e-06
18371,-13.0,-10.0,0.00357415,  -454.059E-03,   64.4039E-03,       5.36614,-0.0335144,-0.00997926,3.27901e-06
18374,-14.0,-10.0,0.00347394,  -442.677E-03,   64.4039E-03,       5.21582,-0.0312228,-0.00929163,3.27438e-06
18375,-15.0,-10.0,0.00336839,  -430.052E-03,   64.4039E-03,       5.05754,-0.0288091,-0.00856737,3.18614e-06
18380,-16.0,-10.0,0.00325791,  -416.222E-03,   64.4039E-03,       4.89194,-0.026283,-0.00780936,3.01769e-06
18381,-17.0,-10.0,0.00314293,  -401.247E-03,   64.4039E-03,       4.71966,-0.0236545,-0.00702056,2.77714e-06
18386,-18.0,-10.0,0.00302393,  -385.205E-03,   64.4039E-03,       4.54140,-0.0209338,-0.00620408,2.47662e-06
18389,-19.0,-10.0,0.00290136,  -368.189E-03,   64.4039E-03,       4.35785,-0.0181317,-0.00536316,2.13138e-06
18390,-20.0,-10.0,0.00277571,  -350.307E-03,   64.4039E-03,       4.16973,-0.0152593,-0.00450111,1.7586e-06
18395,-21.0,-10.0,0.00264749,  -331.683E-03,   64.4039E-03,       3.97778,-0.0123279,-0.00362132,1.37608e-06
18396,-22.0,-10.0,0.00251719,  -312.451E-03,   64.4038E-03,       3.78275,-0.00934887,-0.00272729,1.00092e-06
18401,-23.0,-10.0,0.00238533,  -292.753E-03,   64.4038E-03,       3.58540,-0.0063341,-0.00182254,6.48182e-07
18404,-24.0,-10.0,0.00225244,  -272.743E-03,   64.4037E-03,       3.38650,-0.0032954,-0.000910626,3.29765e-07
18405,-25.0,-10.0,0.00211904,  -252.574E-03,   64.4037E-03,       3.18682,-0.00024472,4.84202e-06,5.35235e-08
18410,-26.0,-10.0,0.00198566,  -232.406E-03,   64.4036E-03,       2.98715,0.00280594,0.000920263,-1.77288e-07
18411,-27.0,-10.0,0.00185282,  -212.396E-03,   64.4036E-03,       2.78826,0.00584458,0.00183203,-3.64096e-07
18416,-28.0,-10.0,0.00172106,  -192.701E-03,   64.4036E-03,       2.59092,0.00885925,0.00273657,-5.12653e-07
18419,-29.0,-10.0,0.0015909,  -173.471E-03,   64.4036E-03,       2.39590,0.0118381,0.0036303,-6.32134e-07
18420,-30.0,-10.0,0.00146284,  -154.850E-03,   64.4035E-03,       2.20396,0.0147694,0.00450972,-7.33867e-07
18425,-31.0,-10.0,0.0013374,  -136.972E-03,   64.4036E-03,       2.01586,0.0176415,0.00537135,-8.2965e-07
18426,-32.0,-10.0,0.00121507,  -119.960E-03,   64.4036E-03,       1.83234,0.0204433,0.00621178,-9.30014e-07
18431,-33.0,-10.0,0.00109634,  -103.923E-03,   64.4036E-03,       1.65410,0.0231635,0.00702769,-1.04243e-06
18434,-34.0,-10.0,0.000981678,  -88.9535E-03,   64.4036E-03,       1.48186,0.0257915,0.00781584,-1.16997e-06
18435,-35.0,-10.0,0.000871532,  -75.1296E-03,   64.4037E-03,       1.31629,0.0283167,0.00857308,-1.31031e-06
18440,-36.0,-10.0,0.00076634,  -62.5099E-03,   64.4037E-03,       1.15805,0.0307293,0.00929641,-1.45571e-06
18441,-37.0,-10.0,0.000666516,  -51.1346E-03,   64.4038E-03,       1.00777,0.0330197,0.00998295,-1.59353e-06
18446,-38.0,-10.0,0.000572453,  -41.0240E-03,   64.4039E-03,   866.047E-03,0.0351785,0.01063,-1.70791e-06
18449,-39.0,-10.0,0.00048452,  -32.1786E-03,   64.4040E-03,   733.450E-03,0.0371974,0.0112349,-1.78178e-06
18450,-40.0,-10.0,0.00040306300000000005,  -24.5790E-03,   64.4041E-03,   610.511E-03,0.0390681,0.0117953,-1.79973e-06
18455,-41.0,-10.0,0.000328399,  -18.1860E-03,   64.4041E-03,   497.724E-03,0.0407831,0.012309,-1.75056e-06
18456,-42.0,-10.0,0.000260819,  -12.9414E-03,   64.4042E-03,   395.544E-03,0.0423357,0.0127739,-1.62989e-06
18461,-43.0,-10.0,0.00020058400000000002,  -8.76868E-03,   64.4043E-03,   304.386E-03,0.0437195,0.0131883,-1.44176e-06
18464,-44.0,-10.0,0.000147926,  -5.57437E-03,   64.4044E-03,   224.618E-03,0.0449289,0.0135505,-1.1992e-06
18465,-45.0,-10.0,0.000103044,  -3.24948E-03,   64.4044E-03,   156.567E-03,0.0459592,0.0138591,-9.23683e-07
18470,-46.0,-10.0,6.610680000000001e-05,  -1.67122E-03,   64.4045E-03,   100.507E-03,0.0468061,0.0141128,-6.42647e-07
18471,-47.0,-10.0,3.7249099999999995e-05,  -704.949E-06,   64.4045E-03,   56.6683E-03,0.0474663,0.0143107,-3.86581e-07
18476,-48.0,-10.0,1.65727e-05,  -206.312E-06,   64.4045E-03,   25.2278E-03,0.0479372,0.0144518,-1.84285e-07
18479,-49.0,-10.0,4.1451599999999995e-06,  -23.5660E-06,   64.4045E-03,   6.31318E-03,0.0482168,0.0145357,-5.89773e-08
18480,-50.0,-10.0,0.0,  -12.7490E-42,   64.4046E-03,           -0.,0.0483087,0.0145632,-1.80171e-08
18485,50.0,-11.0,0.0,      -1.01048,   64.4035E-03,           -0.,0.0483083,0.0145628,4.47665e-09
18486,49.0,-11.0,4.15088e-06,      -1.01046,   64.4035E-03,   6.31313E-03,0.0482165,0.0145353,3.95736e-08
18491,48.0,-11.0,1.65955e-05,      -1.01028,   64.4035E-03,   25.2277E-03,0.047937,0.0144515,1.65769e-07
18494,47.0,-11.0,3.73004e-05,      -1.00978,   64.4035E-03,   56.6680E-03,0.0474663,0.0143104,3.91432e-07
18495,46.0,-11.0,6.61976e-05,      -1.00881,   64.4035E-03,   100.507E-03,0.0468062,0.0141126,6.86222e-07
18500,45.0,-11.0,0.000103185,      -1.00723,   64.4034E-03,   156.566E-03,0.0459593,0.0138589,1.01304e-06
18501,44.0,-11.0,0.000148128,      -1.00491,   64.4033E-03,   224.618E-03,0.0449291,0.0135504,1.33423e-06
18506,43.0,-11.0,0.000200856,      -1.00171,   64.4033E-03,   304.385E-03,0.0437196,0.0131882,1.61579e-06
18509,42.0,-11.0,0.000261171,  -997.540E-03,   64.4032E-03,   395.543E-03,0.0423358,0.0127739,1.832e-06
18510,41.0,-11.0,0.00032883900000000004,  -992.296E-03,   64.4031E-03,   497.723E-03,0.0407832,0.012309,1.96739e-06
18515,40.0,-11.0,0.00040359900000000004,  -985.903E-03,   64.4030E-03,   610.510E-03,0.0390681,0.0117954,2.01774e-06
18516,39.0,-11.0,0.00048515900000000004,  -978.303E-03,   64.4029E-03,   733.450E-03,0.0371974,0.011235,1.98915e-06
18521,38.0,-11.0,0.000573201,  -969.458E-03,   64.4028E-03,   866.047E-03,0.0351785,0.0106301,1.89573e-06
18524,37.0,-11.0,0.00066738,  -959.347E-03,   64.4027E-03,       1.00777,0.0330197,0.00998314,1.75675e-06
18525,36.0,-11.0,0.000767325,  -947.972E-03,   64.4026E-03,       1.15805,0.0307293,0.00929661,1.59304e-06
18530,35.0,-11.0,0.000872642,  -935.352E-03,   64.4026E-03,       1.31629,0.0283167,0.00857328,1.42396e-06
18531,34.0,-11.0,0.000982917,  -921.528E-03,   64.4025E-03,       1.48186,0.0257915,0.00781602,1.26453e-06
18536,33.0,-11.0,0.00109771,  -906.559E-03,   64.4025E-03,       1.65410,0.0231635,0.00702786,1.12387e-06
18539,32.0,-11.0,0.00121658,  -890.521E-03,   64.4024E-03,       1.83234,0.0204433,0.00621193,1.00425e-06
18540,31.0,-11.0,0.00133904,  -873.509E-03,   64.4024E-03,       2.01586,0.0176415,0.00537148,9.01539e-07
18545,30.0,-11.0,0.00146462,  -855.631E-03,   64.4024E-03,       2.20396,0.0147694,0.00450984,8.06182e-07
18546,29.0,-11.0,0.00159282,  -837.010E-03,   64.4024E-03,       2.39590,0.0118381,0.00363041,7.05079e-07
18551,28.0,-11.0,0.00172312,  -817.780E-03,   64.4024E-03,       2.59092,0.00885919,0.00273666,5.83615e-07
18554,27.0,-11.0,0.00185502,  -798.085E-03,   64.4025E-03,       2.78826,0.00584447,0.00183212,4.27887e-07
18555,26.0,-11.0,0.00198799,  -778.076E-03,   64.4025E-03,       2.98715,0.00280576,0.000920344,2.26609e-07
18560,25.0,-11.0,0.00212151,  -757.907E-03,   64.4026E-03,       3.18682,-0.00024496,4.91786e-06,-2.72881e-08
18561,24.0,-11.0,0.00225505,  -737.738E-03,   64.4026E-03,       3.38650,-0.0032957,-0.000910555,-3.35682e-07
18566,23.0,-11.0,0.00238807,  -717.728E-03,   64.4027E-03,       3.58540,-0.00633446,-0.00182247,-6.9479e-07
18569,22.0,-11.0,0.00252006,  -698.031E-03,   64.4027E-03,       3.78275,-0.00934927,-0.00272723,-1.09534e-06
18570,21.0,-11.0,0.00265048,  -678.798E-03,   64.4028E-03,       3.97778,-0.0123283,-0.00362127,-1.52321e-06
18575,20.0,-11.0,0.00277883,  -660.174E-03,   64.4028E-03,       4.16973,-0.0152597,-0.00450105,-1.96048e-06
18576,19.0,-11.0,0.0029046,  -642.293E-03,   64.4028E-03,       4.35785,-0.0181321,-0.00536311,-2.38684e-06
18581,18.0,-11.0,0.00302728,  -625.276E-03,   64.4028E-03,       4.54140,-0.0209341,-0.00620403,-2.7811e-06
18584,17.0,-11.0,0.0031464,  -609.234E-03,   64.4028E-03,       4.71966,-0.0236547,-0.0070205,-3.12284e-06
18585,16.0,-11.0,0.00326148,  -594.259E-03,   64.4028E-03,       4.89193,-0.0262832,-0.00780929,-3.39397e-06
18590,15.0,-11.0,0.00337206,  -580.430E-03,   64.4028E-03,       5.05754,-0.0288092,-0.00856731,-3.58014e-06
18591,14.0,-11.0,0.00347772,  -567.804E-03,   64.4028E-03,       5.21581,-0.0312227,-0.00929155,-3.67193e-06
18596,13.0,-11.0,0.00357802,  -556.423E-03,   64.4028E-03,       5.36613,-0.0335142,-0.00997919,-3.66562e-06
18599,12.0,-11.0,0.00367258,  -546.306E-03,   64.4028E-03,       5.50790,-0.0356748,-0.0106275,-3.56356e-06
18600,11.0,-11.0,0.00376101,  -537.454E-03,   64.4028E-03,       5.64054,-0.0376957,-0.011234,-3.37402e-06
18605,10.0,-11.0,0.00384298,  -529.848E-03,   64.4027E-03,       5.76353,-0.0395692,-0.0117961,-3.11051e-06
18606,9.0,-11.0,0.00391815,  -523.450E-03,   64.4027E-03,       5.87637,-0.0412876,-0.0123119,-2.79053e-06
18611,8.0,-11.0,0.00398623,  -518.200E-03,   64.4027E-03,       5.97860,-0.0428441,-0.012779,-2.43396e-06
18614,7.0,-11.0,0.00404695,  -514.022E-03,   64.4028E-03,       6.06981,-0.0442327,-0.0131958,-2.06113e-06
18615,6.0,-11.0,0.00410007,  -510.824E-03,   64.4028E-03,       6.14962,-0.0454476,-0.0135606,-1.69076e-06
18620,5.0,-11.0,0.00414537,  -508.496E-03,   64.4028E-03,       6.21772,-0.046484,-0.0138718,-1.33814e-06
18621,4.0,-11.0,0.00418269,  -506.915E-03,   64.4028E-03,       6.27383,-0.0473378,-0.0141281,-1.01359e-06
18626,3.0,-11.0,0.00421187,  -505.947E-03,   64.4029E-03,       6.31770,-0.0480055,-0.0143286,-7.21583e-07
18629,2.0,-11.0,0.00423279,  -505.448E-03,   64.4029E-03,       6.34917,-0.0484843,-0.0144725,-4.60601e-07
18630,1.0,-11.0,0.00424538,  -505.265E-03,   64.4029E-03,       6.36810,-0.0487724,-0.014559,-2.23729e-07
18635,4.7827899999999994e-30,-11.0,0.00424958,  -505.241E-03,   64.4029E-03,       6.37442,-0.0488686,-0.0145879,3.55271e-15
18636,-1.0,-11.0,0.00424538,  -505.217E-03,   64.4029E-03,       6.36810,-0.0487724,-0.014559,2.23729e-07
18641,-2.0,-11.0,0.00423279,  -505.034E-03,   64.4029E-03,       6.34917,-0.0484843,-0.0144725,4.60601e-07
18644,-3.0,-11.0,0.00421187,  -504.535E-03,   64.4029E-03,       6.31770,-0.0480055,-0.0143286,7.21583e-07
18645,-4.0,-11.0,0.00418269,  -503.567E-03,   64.4028E-03,       6.27383,-0.0473378,-0.0141281,1.01359e-06
18650,-5.0,-11.0,0.00414537,  -501.986E-03,   64.4028E-03,       6.21772,-0.046484,-0.0138718,1.33814e-06
18651,-6.0,-11.0,0.00410007,  -499.658E-03,   64.4028E-03,       6.14962,-0.0454476,-0.0135606,1.69076e-06
18656,-7.0,-11.0,0.00404695,  -496.460E-03,   64.4028E-03,       6.06981,-0.0442327,-0.0131958,2.06113e-06
18659,-8.0,-11.0,0.00398623,  -492.282E-03,   64.4027E-03,       5.97860,-0.0428441,-0.012779,2.43396e-06
18660,-9.0,-11.0,0.00391815,  -487.032E-03,   64.4027E-03,       5.87637,-0.0412876,-0.0123119,2.79053e-06
18665,-10.0,-11.0,0.00384298,  -480.633E-03,   64.4027E-03,       5.76353,-0.0395692,-0.0117961,3.11051e-06
18666,-11.0,-11.0,0.00376101,  -473.028E-03,   64.4028E-03,       5.64054,-0.0376957,-0.011234,3.37402e-06
18671,-12.0,-11.0,0.00367258,  -464.176E-03,   64.4028E-03,       5.50790,-0.0356748,-0.0106275,3.56356e-06
18674,-13.0,-11.0,0.00357802,  -454.059E-03,   64.4028E-03,       5.36613,-0.0335142,-0.00997919,3.66562e-06
18675,-14.0,-11.0,0.00347772,  -442.678E-03,   64.4028E-03,       5.21581,-0.0312227,-0.00929155,3.67193e-06
18680,-15.0,-11.0,0.00337206,  -430.052E-03,   64.4028E-03,       5.05754,-0.0288092,-0.00856731,3.58014e-06
18681,-16.0,-11.0,0.00326148,  -416.222E-03,   64.4028E-03,       4.89193,-0.0262832,-0.00780929,3.39397e-06
18686,-17.0,-11.0,0.0031464,  -401.248E-03,   64.4028E-03,       4.71966,-0.0236547,-0.0070205,3.12284e-06
18689,-18.0,-11.0,0.00302728,  -385.206E-03,   64.4028E-03,       4.54140,-0.0209341,-0.00620403,2.7811e-06
18690,-19.0,-11.0,0.0029046,  -368.189E-03,   64.4028E-03,       4.35785,-0.0181321,-0.00536311,2.38684e-06
18695,-20.0,-11.0,0.00277883,  -350.308E-03,   64.4028E-03,       4.16973,-0.0152597,-0.00450105,1.96048e-06
18696,-21.0,-11.0,0.00265048,  -331.684E-03,   64.4028E-03,       3.97778,-0.0123283,-0.00362127,1.52321e-06
18701,-22.0,-11.0,0.00252006,  -312.451E-03,   64.4027E-03,       3.78275,-0.00934927,-0.00272723,1.09534e-06
18704,-23.0,-11.0,0.00238807,  -292.754E-03,   64.4027E-03,       3.58540,-0.00633446,-0.00182247,6.9479e-07
18705,-24.0,-11.0,0.00225505,  -272.743E-03,   64.4026E-03,       3.38650,-0.0032957,-0.000910555,3.35682e-07
18710,-25.0,-11.0,0.00212151,  -252.575E-03,   64.4026E-03,       3.18682,-0.00024496,4.91786e-06,2.72881e-08
18711,-26.0,-11.0,0.00198799,  -232.406E-03,   64.4025E-03,       2.98715,0.00280576,0.000920344,-2.26609e-07
18716,-27.0,-11.0,0.00185502,  -212.397E-03,   64.4025E-03,       2.78826,0.00584447,0.00183212,-4.27887e-07
18719,-28.0,-11.0,0.00172312,  -192.701E-03,   64.4024E-03,       2.59092,0.00885919,0.00273666,-5.83615e-07
18720,-29.0,-11.0,0.00159282,  -173.471E-03,   64.4024E-03,       2.39590,0.0118381,0.00363041,-7.05079e-07
18725,-30.0,-11.0,0.00146462,  -154.850E-03,   64.4024E-03,       2.20396,0.0147694,0.00450984,-8.06182e-07
18726,-31.0,-11.0,0.00133904,  -136.973E-03,   64.4024E-03,       2.01586,0.0176415,0.00537148,-9.01539e-07
18731,-32.0,-11.0,0.00121658,  -119.960E-03,   64.4024E-03,       1.83234,0.0204433,0.00621193,-1.00425e-06
18734,-33.0,-11.0,0.00109771,  -103.923E-03,   64.4025E-03,       1.65410,0.0231635,0.00702786,-1.12387e-06
18735,-34.0,-11.0,0.000982917,  -88.9537E-03,   64.4025E-03,       1.48186,0.0257915,0.00781602,-1.26453e-06
18740,-35.0,-11.0,0.000872642,  -75.1298E-03,   64.4026E-03,       1.31629,0.0283167,0.00857328,-1.42396e-06
18741,-36.0,-11.0,0.000767325,  -62.5101E-03,   64.4026E-03,       1.15805,0.0307293,0.00929661,-1.59304e-06
18746,-37.0,-11.0,0.00066738,  -51.1347E-03,   64.4027E-03,       1.00777,0.0330197,0.00998314,-1.75675e-06
18749,-38.0,-11.0,0.000573201,  -41.0240E-03,   64.4028E-03,   866.047E-03,0.0351785,0.0106301,-1.89573e-06
18750,-39.0,-11.0,0.00048515900000000004,  -32.1786E-03,   64.4029E-03,   733.450E-03,0.0371974,0.011235,-1.98915e-06
18755,-40.0,-11.0,0.00040359900000000004,  -24.5790E-03,   64.4030E-03,   610.510E-03,0.0390681,0.0117954,-2.01774e-06
18756,-41.0,-11.0,0.00032883900000000004,  -18.1860E-03,   64.4031E-03,   497.723E-03,0.0407832,0.012309,-1.96739e-06
18761,-42.0,-11.0,0.000261171,  -12.9414E-03,   64.4032E-03,   395.543E-03,0.0423358,0.0127739,-1.832e-06
18764,-43.0,-11.0,0.000200856,  -8.76866E-03,   64.4033E-03,   304.385E-03,0.0437196,0.0131882,-1.61579e-06
18765,-44.0,-11.0,0.000148128,  -5.57435E-03,   64.4033E-03,   224.618E-03,0.0449291,0.0135504,-1.33423e-06
18770,-45.0,-11.0,0.000103185,  -3.24946E-03,   64.4034E-03,   156.566E-03,0.0459593,0.0138589,-1.01304e-06
18771,-46.0,-11.0,6.61976e-05,  -1.67121E-03,   64.4035E-03,   100.507E-03,0.0468062,0.0141126,-6.86222e-07
18776,-47.0,-11.0,3.73004e-05,  -704.942E-06,   64.4035E-03,   56.6680E-03,0.0474663,0.0143104,-3.91432e-07
18779,-48.0,-11.0,1.65955e-05,  -206.308E-06,   64.4035E-03,   25.2277E-03,0.047937,0.0144515,-1.65769e-07
18780,-49.0,-11.0,4.15088e-06,  -23.5652E-06,   64.4035E-03,   6.31313E-03,0.0482165,0.0145353,-3.95737e-08
18785,-50.0,-11.0,0.0,  -12.7518E-42,   64.4035E-03,           -0.,0.0483083,0.0145628,-4.47677e-09
18786,50.0,-12.0,0.0,      -1.01048,   64.4025E-03,           -0.,0.0483078,0.0145624,-1.42149e-08
18791,49.0,-12.0,4.15724e-06,      -1.01046,   64.4025E-03,   6.31308E-03,0.0482161,0.0145349,1.07083e-08
18794,48.0,-12.0,1.66209e-05,      -1.01028,   64.4025E-03,   25.2275E-03,0.0479368,0.0144511,1.33084e-07
18795,47.0,-12.0,3.7357399999999996e-05,      -1.00978,   64.4025E-03,   56.6677E-03,0.0474663,0.0143101,3.82837e-07
18800,46.0,-12.0,6.62986e-05,      -1.00881,   64.4024E-03,   100.506E-03,0.0468062,0.0141123,7.2011e-07
18801,45.0,-12.0,0.000103342,      -1.00723,   64.4024E-03,   156.566E-03,0.0459594,0.0138587,1.09861e-06
18806,44.0,-12.0,0.00014835100000000002,      -1.00491,   64.4023E-03,   224.617E-03,0.0449292,0.0135502,1.4712e-06
18809,43.0,-12.0,0.000201158,      -1.00171,   64.4022E-03,   304.384E-03,0.0437198,0.0131881,1.79679e-06
18810,42.0,-12.0,0.00026156,  -997.540E-03,   64.4021E-03,   395.542E-03,0.0423359,0.0127739,2.0442e-06
18815,41.0,-12.0,0.000329326,  -992.296E-03,   64.4020E-03,   497.722E-03,0.0407833,0.012309,2.19542e-06
18816,40.0,-12.0,0.000404192,  -985.903E-03,   64.4019E-03,   610.510E-03,0.0390682,0.0117954,2.24607e-06
18821,39.0,-12.0,0.000485866,  -978.303E-03,   64.4018E-03,   733.449E-03,0.0371974,0.0112351,2.20425e-06
18824,38.0,-12.0,0.00057403,  -969.458E-03,   64.4017E-03,   866.046E-03,0.0351785,0.0106303,2.08777e-06
18825,37.0,-12.0,0.0006683360000000001,  -959.347E-03,   64.4016E-03,       1.00777,0.0330196,0.00998334,1.92025e-06
18830,36.0,-12.0,0.000768413,  -947.972E-03,   64.4015E-03,       1.15805,0.0307293,0.00929682,1.72719e-06
18831,35.0,-12.0,0.000873869,  -935.352E-03,   64.4014E-03,       1.31629,0.0283167,0.00857349,1.53178e-06
18836,34.0,-12.0,0.000984285,  -921.528E-03,   64.4014E-03,       1.48186,0.0257915,0.00781622,1.352e-06
18839,33.0,-12.0,0.00109923,  -906.559E-03,   64.4013E-03,       1.65410,0.0231635,0.00702804,1.19831e-06
18840,32.0,-12.0,0.00121824,  -890.521E-03,   64.4013E-03,       1.83234,0.0204433,0.00621209,1.07303e-06
18845,31.0,-12.0,0.00134085,  -873.509E-03,   64.4013E-03,       2.01586,0.0176416,0.00537162,9.7056e-07
18846,30.0,-12.0,0.00146658,  -855.631E-03,   64.4013E-03,       2.20396,0.0147694,0.00450996,8.78937e-07
18851,29.0,-12.0,0.00159493,  -837.010E-03,   64.4013E-03,       2.39590,0.0118381,0.00363052,7.81923e-07
18854,28.0,-12.0,0.00172539,  -817.780E-03,   64.4013E-03,       2.59092,0.00885913,0.00273676,6.6164e-07
18855,27.0,-12.0,0.00185744,  -798.085E-03,   64.4014E-03,       2.78826,0.00584435,0.00183221,5.011e-07
18860,26.0,-12.0,0.00199056,  -778.075E-03,   64.4014E-03,       2.98715,0.00280557,0.000920432,2.86599e-07
18861,25.0,-12.0,0.00212423,  -757.906E-03,   64.4014E-03,       3.18683,-0.000245229,5.00058e-06,9.48034e-09
18866,24.0,-12.0,0.00225791,  -737.738E-03,   64.4015E-03,       3.38650,-0.00329605,-0.000910478,-3.32624e-07
18869,23.0,-12.0,0.00239109,  -717.727E-03,   64.4015E-03,       3.58540,-0.00633487,-0.0018224,-7.35362e-07
18870,22.0,-12.0,0.00252321,  -698.030E-03,   64.4016E-03,       3.78275,-0.00934973,-0.00272716,-1.18781e-06
18875,21.0,-12.0,0.00265378,  -678.797E-03,   64.4016E-03,       3.97778,-0.0123288,-0.00362121,-1.67328e-06
18876,20.0,-12.0,0.00278227,  -660.173E-03,   64.4017E-03,       4.16973,-0.0152602,-0.00450099,-2.17061e-06
18881,19.0,-12.0,0.00290817,  -642.292E-03,   64.4017E-03,       4.35785,-0.0181326,-0.00536305,-2.65575e-06
18884,18.0,-12.0,0.00303098,  -625.276E-03,   64.4017E-03,       4.54140,-0.0209345,-0.00620397,-3.10365e-06
18885,17.0,-12.0,0.00315022,  -609.233E-03,   64.4018E-03,       4.71966,-0.023655,-0.00702044,-3.49015e-06
18890,16.0,-12.0,0.00326542,  -594.259E-03,   64.4018E-03,       4.89193,-0.0262834,-0.00780923,-3.79389e-06
18891,15.0,-12.0,0.00337611,  -580.429E-03,   64.4017E-03,       5.05753,-0.0288092,-0.00856723,-3.99803e-06
18896,14.0,-12.0,0.00348187,  -567.804E-03,   64.4017E-03,       5.21581,-0.0312226,-0.00929147,-4.09166e-06
18899,13.0,-12.0,0.00358228,  -556.422E-03,   64.4017E-03,       5.36613,-0.033514,-0.00997911,-4.07076e-06
18900,12.0,-12.0,0.00367693,  -546.306E-03,   64.4017E-03,       5.50789,-0.0356744,-0.0106274,-3.9387e-06
18905,11.0,-12.0,0.00376545,  -537.454E-03,   64.4017E-03,       5.64054,-0.0376953,-0.0112339,-3.70601e-06
18906,10.0,-12.0,0.0038475,  -529.848E-03,   64.4016E-03,       5.76352,-0.0395687,-0.0117961,-3.38956e-06
18911,9.0,-12.0,0.00392275,  -523.450E-03,   64.4016E-03,       5.87636,-0.0412871,-0.0123119,-3.01106e-06
18914,8.0,-12.0,0.0039909,  -518.200E-03,   64.4016E-03,       5.97859,-0.0428437,-0.0127791,-2.59502e-06
18915,7.0,-12.0,0.00405167,  -514.022E-03,   64.4017E-03,       6.06980,-0.0442323,-0.0131959,-2.16634e-06
18920,6.0,-12.0,0.00410484,  -510.824E-03,   64.4017E-03,       6.14962,-0.0454473,-0.0135607,-1.74781e-06
18921,5.0,-12.0,0.00415019,  -508.496E-03,   64.4017E-03,       6.21772,-0.0464839,-0.013872,-1.35777e-06
18926,4.0,-12.0,0.00418755,  -506.915E-03,   64.4018E-03,       6.27382,-0.0473378,-0.0141284,-1.00826e-06
18929,3.0,-12.0,0.00421675,  -505.947E-03,   64.4018E-03,       6.31770,-0.0480055,-0.014329,-7.03904e-07
18930,2.0,-12.0,0.0042377,  -505.448E-03,   64.4018E-03,       6.34917,-0.0484845,-0.0144728,-4.41762e-07
18935,1.0,-12.0,0.0042503,  -505.265E-03,   64.4018E-03,       6.36810,-0.0487726,-0.0145594,-2.12081e-07
18936,7.289239999999999e-30,-12.0,0.0042545,  -505.241E-03,   64.4018E-03,       6.37442,-0.0488688,-0.0145883,-3.55271e-15
18941,-1.0,-12.0,0.0042503,  -505.217E-03,   64.4018E-03,       6.36810,-0.0487726,-0.0145594,2.12081e-07
18944,-2.0,-12.0,0.0042377,  -505.034E-03,   64.4018E-03,       6.34917,-0.0484845,-0.0144728,4.41762e-07
18945,-3.0,-12.0,0.00421675,  -504.535E-03,   64.4018E-03,       6.31770,-0.0480055,-0.014329,7.03904e-07
18950,-4.0,-12.0,0.00418755,  -503.567E-03,   64.4018E-03,       6.27382,-0.0473378,-0.0141284,1.00826e-06
18951,-5.0,-12.0,0.00415019,  -501.986E-03,   64.4017E-03,       6.21772,-0.0464839,-0.013872,1.35777e-06
18956,-6.0,-12.0,0.00410484,  -499.658E-03,   64.4017E-03,       6.14962,-0.0454473,-0.0135607,1.74781e-06
18959,-7.0,-12.0,0.00405167,  -496.460E-03,   64.4017E-03,       6.06980,-0.0442323,-0.0131959,2.16634e-06
18960,-8.0,-12.0,0.0039909,  -492.282E-03,   64.4016E-03,       5.97859,-0.0428437,-0.0127791,2.59502e-06
18965,-9.0,-12.0,0.00392275,  -487.032E-03,   64.4016E-03,       5.87636,-0.0412871,-0.0123119,3.01106e-06
18966,-10.0,-12.0,0.0038475,  -480.633E-03,   64.4016E-03,       5.76352,-0.0395687,-0.0117961,3.38956e-06
18971,-11.0,-12.0,0.00376545,  -473.028E-03,   64.4017E-03,       5.64054,-0.0376953,-0.0112339,3.70601e-06
18974,-12.0,-12.0,0.00367693,  -464.176E-03,   64.4017E-03,       5.50789,-0.0356744,-0.0106274,3.9387e-06
18975,-13.0,-12.0,0.00358228,  -454.059E-03,   64.4017E-03,       5.36613,-0.033514,-0.00997911,4.07076e-06
18980,-14.0,-12.0,0.00348187,  -442.678E-03,   64.4017E-03,       5.21581,-0.0312226,-0.00929147,4.09166e-06
18981,-15.0,-12.0,0.00337611,  -430.052E-03,   64.4017E-03,       5.05753,-0.0288092,-0.00856723,3.99803e-06
18986,-16.0,-12.0,0.00326542,  -416.223E-03,   64.4018E-03,       4.89193,-0.0262834,-0.00780923,3.79389e-06
18989,-17.0,-12.0,0.00315022,  -401.248E-03,   64.4018E-03,       4.71966,-0.023655,-0.00702044,3.49015e-06
18990,-18.0,-12.0,0.00303098,  -385.206E-03,   64.4017E-03,       4.54140,-0.0209345,-0.00620397,3.10365e-06
18995,-19.0,-12.0,0.00290817,  -368.190E-03,   64.4017E-03,       4.35785,-0.0181326,-0.00536305,2.65575e-06
18996,-20.0,-12.0,0.00278227,  -350.308E-03,   64.4017E-03,       4.16973,-0.0152602,-0.00450099,2.17061e-06
19001,-21.0,-12.0,0.00265378,  -331.684E-03,   64.4016E-03,       3.97778,-0.0123288,-0.00362121,1.67328e-06
19004,-22.0,-12.0,0.00252321,  -312.452E-03,   64.4016E-03,       3.78275,-0.00934973,-0.00272716,1.18781e-06
19005,-23.0,-12.0,0.00239109,  -292.755E-03,   64.4015E-03,       3.58540,-0.00633487,-0.0018224,7.35362e-07
19010,-24.0,-12.0,0.00225791,  -272.744E-03,   64.4015E-03,       3.38650,-0.00329605,-0.000910478,3.32624e-07
19011,-25.0,-12.0,0.00212423,  -252.575E-03,   64.4014E-03,       3.18683,-0.000245229,5.00058e-06,-9.48032e-09
19016,-26.0,-12.0,0.00199056,  -232.407E-03,   64.4014E-03,       2.98715,0.00280557,0.000920432,-2.86599e-07
19019,-27.0,-12.0,0.00185744,  -212.397E-03,   64.4014E-03,       2.78826,0.00584435,0.00183221,-5.011e-07
19020,-28.0,-12.0,0.00172539,  -192.702E-03,   64.4013E-03,       2.59092,0.00885913,0.00273676,-6.6164e-07
19025,-29.0,-12.0,0.00159493,  -173.472E-03,   64.4013E-03,       2.39590,0.0118381,0.00363052,-7.81923e-07
19026,-30.0,-12.0,0.00146658,  -154.851E-03,   64.4013E-03,       2.20396,0.0147694,0.00450996,-8.78937e-07
19031,-31.0,-12.0,0.00134085,  -136.973E-03,   64.4013E-03,       2.01586,0.0176416,0.00537162,-9.7056e-07
19034,-32.0,-12.0,0.00121824,  -119.961E-03,   64.4013E-03,       1.83234,0.0204433,0.00621209,-1.07303e-06
19035,-33.0,-12.0,0.00109923,  -103.923E-03,   64.4013E-03,       1.65410,0.0231635,0.00702804,-1.19831e-06
19040,-34.0,-12.0,0.000984285,  -88.9539E-03,   64.4014E-03,       1.48186,0.0257915,0.00781622,-1.352e-06
19041,-35.0,-12.0,0.000873869,  -75.1299E-03,   64.4014E-03,       1.31629,0.0283167,0.00857349,-1.53178e-06
19046,-36.0,-12.0,0.000768413,  -62.5102E-03,   64.4015E-03,       1.15805,0.0307293,0.00929682,-1.72719e-06
19049,-37.0,-12.0,0.0006683360000000001,  -51.1348E-03,   64.4016E-03,       1.00777,0.0330196,0.00998334,-1.92025e-06
19050,-38.0,-12.0,0.00057403,  -41.0241E-03,   64.4017E-03,   866.046E-03,0.0351785,0.0106303,-2.08777e-06
19055,-39.0,-12.0,0.000485866,  -32.1787E-03,   64.4018E-03,   733.449E-03,0.0371974,0.0112351,-2.20425e-06
19056,-40.0,-12.0,0.000404192,  -24.5790E-03,   64.4019E-03,   610.510E-03,0.0390682,0.0117954,-2.24607e-06
19061,-41.0,-12.0,0.000329326,  -18.1860E-03,   64.4020E-03,   497.722E-03,0.0407833,0.012309,-2.19542e-06
19064,-42.0,-12.0,0.00026156,  -12.9414E-03,   64.4021E-03,   395.542E-03,0.0423359,0.0127739,-2.0442e-06
19065,-43.0,-12.0,0.000201158,  -8.76865E-03,   64.4022E-03,   304.384E-03,0.0437198,0.0131881,-1.79679e-06
19070,-44.0,-12.0,0.00014835100000000002,  -5.57433E-03,   64.4023E-03,   224.617E-03,0.0449292,0.0135502,-1.4712e-06
19071,-45.0,-12.0,0.000103342,  -3.24944E-03,   64.4024E-03,   156.566E-03,0.0459594,0.0138587,-1.09861e-06
19076,-46.0,-12.0,6.62986e-05,  -1.67120E-03,   64.4024E-03,   100.506E-03,0.0468062,0.0141123,-7.2011e-07
19079,-47.0,-12.0,3.7357399999999996e-05,  -704.934E-06,   64.4025E-03,   56.6677E-03,0.0474663,0.0143101,-3.82837e-07
19080,-48.0,-12.0,1.66209e-05,  -206.305E-06,   64.4025E-03,   25.2275E-03,0.0479368,0.0144511,-1.33084e-07
19085,-49.0,-12.0,4.15724e-06,  -23.5644E-06,   64.4025E-03,   6.31308E-03,0.0482161,0.0145349,-1.07084e-08
19086,-50.0,-12.0,0.0,  -12.7532E-42,   64.4025E-03,           -0.,0.0483078,0.0145624,1.42147e-08
19091,50.0,-13.0,0.0,      -1.01048,   64.4015E-03,           -0.,0.0483072,0.0145619,-4.01893e-08
19094,49.0,-13.0,4.16428e-06,      -1.01046,   64.4015E-03,   6.31301E-03,0.0482157,0.0145345,-2.95185e-08
19095,48.0,-13.0,1.66491e-05,      -1.01028,   64.4015E-03,   25.2273E-03,0.0479366,0.0144508,8.33338e-08
19100,47.0,-13.0,3.74205e-05,      -1.00978,   64.4015E-03,   56.6672E-03,0.0474662,0.0143097,3.57314e-07
19101,46.0,-13.0,6.641e-05,      -1.00881,   64.4014E-03,   100.506E-03,0.0468063,0.014112,7.41769e-07
19106,45.0,-13.0,0.000103515,      -1.00723,   64.4014E-03,   156.565E-03,0.0459596,0.0138585,1.17813e-06
19109,44.0,-13.0,0.000148598,      -1.00491,   64.4013E-03,   224.616E-03,0.0449294,0.0135501,1.60909e-06
19110,43.0,-13.0,0.00020149,      -1.00171,   64.4012E-03,   304.383E-03,0.04372,0.013188,1.98426e-06
19115,42.0,-13.0,0.000261989,  -997.540E-03,   64.4011E-03,   395.542E-03,0.0423361,0.0127738,2.26668e-06
19116,41.0,-13.0,0.000329862,  -992.296E-03,   64.4010E-03,   497.721E-03,0.0407834,0.0123091,2.43513e-06
19121,40.0,-13.0,0.000404844,  -985.903E-03,   64.4008E-03,   610.509E-03,0.0390682,0.0117955,2.48522e-06
19122,39.0,-13.0,0.00048664300000000004,  -978.303E-03,   64.4007E-03,   733.449E-03,0.0371974,0.0112353,2.42754e-06
19127,38.0,-13.0,0.000574939,  -969.458E-03,   64.4006E-03,   866.046E-03,0.0351785,0.0106305,2.2841e-06
19128,37.0,-13.0,0.000669385,  -959.347E-03,   64.4005E-03,       1.00777,0.0330196,0.00998355,2.0839e-06
19133,36.0,-13.0,0.0007696080000000001,  -947.971E-03,   64.4004E-03,       1.15805,0.0307293,0.00929705,1.85759e-06
19136,35.0,-13.0,0.0008752139999999999,  -935.352E-03,   64.4003E-03,       1.31629,0.0283167,0.00857371,1.63312e-06
19137,34.0,-13.0,0.000985785,  -921.528E-03,   64.4003E-03,       1.48186,0.0257915,0.00781643,1.43159e-06
19142,33.0,-13.0,0.00110089,  -906.558E-03,   64.4002E-03,       1.65410,0.0231635,0.00702823,1.26519e-06
19143,32.0,-13.0,0.00122006,  -890.521E-03,   64.4002E-03,       1.83234,0.0204433,0.00621226,1.136e-06
19148,31.0,-13.0,0.00134284,  -873.508E-03,   64.4002E-03,       2.01586,0.0176416,0.00537177,1.0368e-06
19151,30.0,-13.0,0.00146873,  -855.631E-03,   64.4002E-03,       2.20396,0.0147694,0.00451009,9.52631e-07
19152,29.0,-13.0,0.00159725,  -837.010E-03,   64.4002E-03,       2.39590,0.011838,0.00363064,8.63649e-07
19157,28.0,-13.0,0.00172787,  -817.779E-03,   64.4002E-03,       2.59092,0.00885907,0.00273687,7.48066e-07
19158,27.0,-13.0,0.00186009,  -798.084E-03,   64.4002E-03,       2.78826,0.00584422,0.00183232,5.85361e-07
19163,26.0,-13.0,0.00199338,  -778.074E-03,   64.4003E-03,       2.98715,0.00280536,0.000920527,3.58952e-07
19166,25.0,-13.0,0.00212721,  -757.906E-03,   64.4003E-03,       3.18683,-0.000245528,5.09106e-06,5.83976e-08
19167,24.0,-13.0,0.00226105,  -737.737E-03,   64.4004E-03,       3.38650,-0.00329643,-0.000910392,-3.19291e-07
19172,23.0,-13.0,0.00239438,  -717.726E-03,   64.4004E-03,       3.58540,-0.00633533,-0.00182232,-7.69063e-07
19173,22.0,-13.0,0.00252667,  -698.029E-03,   64.4005E-03,       3.78275,-0.00935025,-0.00272709,-1.27812e-06
19178,21.0,-13.0,0.00265739,  -678.797E-03,   64.4005E-03,       3.97778,-0.0123293,-0.00362114,-1.82684e-06
19181,20.0,-13.0,0.00278602,  -660.173E-03,   64.4006E-03,       4.16973,-0.0152608,-0.00450093,-2.39029e-06
19182,19.0,-13.0,0.00291207,  -642.291E-03,   64.4006E-03,       4.35785,-0.0181331,-0.00536299,-2.94015e-06
19187,18.0,-13.0,0.00303502,  -625.275E-03,   64.4007E-03,       4.54140,-0.020935,-0.00620391,-3.44691e-06
19188,17.0,-13.0,0.00315439,  -609.233E-03,   64.4007E-03,       4.71966,-0.0236554,-0.00702037,-3.88214e-06
19193,16.0,-13.0,0.00326972,  -594.258E-03,   64.4007E-03,       4.89193,-0.0262836,-0.00780916,-4.22075e-06
19196,15.0,-13.0,0.00338054,  -580.429E-03,   64.4007E-03,       5.05753,-0.0288092,-0.00856716,-4.44306e-06
19197,14.0,-13.0,0.00348642,  -567.804E-03,   64.4006E-03,       5.21581,-0.0312225,-0.00929139,-4.5365e-06
19202,13.0,-13.0,0.00358693,  -556.422E-03,   64.4006E-03,       5.36613,-0.0335138,-0.00997903,-4.49682e-06
19203,12.0,-13.0,0.00368169,  -546.305E-03,   64.4006E-03,       5.50789,-0.0356741,-0.0106274,-4.32863e-06
19208,11.0,-13.0,0.00377031,  -537.454E-03,   64.4006E-03,       5.64053,-0.0376948,-0.0112338,-4.04519e-06
19211,10.0,-13.0,0.00385245,  -529.848E-03,   64.4006E-03,       5.76352,-0.0395682,-0.0117961,-3.6674e-06
19212,9.0,-13.0,0.00392777,  -523.450E-03,   64.4006E-03,       5.87636,-0.0412865,-0.0123119,-3.22193e-06
19217,8.0,-13.0,0.00399599,  -518.200E-03,   64.4006E-03,       5.97859,-0.0428432,-0.0127791,-2.7387e-06
19218,7.0,-13.0,0.00405684,  -514.022E-03,   64.4006E-03,       6.06980,-0.0442319,-0.0131961,-2.24799e-06
19223,6.0,-13.0,0.00411006,  -510.824E-03,   64.4006E-03,       6.14961,-0.045447,-0.0135609,-1.77727e-06
19226,5.0,-13.0,0.00415546,  -508.496E-03,   64.4007E-03,       6.21771,-0.0464837,-0.0138722,-1.3484e-06
19227,4.0,-13.0,0.00419285,  -506.915E-03,   64.4007E-03,       6.27381,-0.0473377,-0.0141287,-9.75305e-07
19232,3.0,-13.0,0.00422209,  -505.947E-03,   64.4007E-03,       6.31769,-0.0480057,-0.0143293,-6.62691e-07
19233,2.0,-13.0,0.00424306,  -505.448E-03,   64.4008E-03,       6.34916,-0.0484847,-0.0144732,-4.05799e-07
19238,1.0,-13.0,0.00425567,  -505.265E-03,   64.4008E-03,       6.36809,-0.0487729,-0.0145598,-1.9142e-07
19241,2.91156e-30,-13.0,0.00425988,  -505.241E-03,   64.4008E-03,       6.37441,-0.0488692,-0.0145887,-8.88178e-15
19242,-1.0,-13.0,0.00425567,  -505.217E-03,   64.4008E-03,       6.36809,-0.0487729,-0.0145598,1.9142e-07
19247,-2.0,-13.0,0.00424306,  -505.034E-03,   64.4008E-03,       6.34916,-0.0484847,-0.0144732,4.05799e-07
19248,-3.0,-13.0,0.00422209,  -504.535E-03,   64.4007E-03,       6.31769,-0.0480057,-0.0143293,6.62691e-07
19253,-4.0,-13.0,0.00419285,  -503.567E-03,   64.4007E-03,       6.27381,-0.0473377,-0.0141287,9.75305e-07
19256,-5.0,-13.0,0.00415546,  -501.986E-03,   64.4007E-03,       6.21771,-0.0464837,-0.0138722,1.3484e-06
19257,-6.0,-13.0,0.00411006,  -499.658E-03,   64.4006E-03,       6.14961,-0.045447,-0.0135609,1.77727e-06
19262,-7.0,-13.0,0.00405684,  -496.459E-03,   64.4006E-03,       6.06980,-0.0442319,-0.0131961,2.24799e-06
19263,-8.0,-13.0,0.00399599,  -492.282E-03,   64.4006E-03,       5.97859,-0.0428432,-0.0127791,2.7387e-06
19268,-9.0,-13.0,0.00392777,  -487.032E-03,   64.4006E-03,       5.87636,-0.0412865,-0.0123119,3.22193e-06
19271,-10.0,-13.0,0.00385245,  -480.633E-03,   64.4006E-03,       5.76352,-0.0395682,-0.0117961,3.6674e-06
19272,-11.0,-13.0,0.00377031,  -473.028E-03,   64.4006E-03,       5.64053,-0.0376948,-0.0112338,4.04519e-06
19277,-12.0,-13.0,0.00368169,  -464.176E-03,   64.4006E-03,       5.50789,-0.0356741,-0.0106274,4.32863e-06
19278,-13.0,-13.0,0.00358693,  -454.060E-03,   64.4006E-03,       5.36613,-0.0335138,-0.00997903,4.49682e-06
19283,-14.0,-13.0,0.00348642,  -442.678E-03,   64.4006E-03,       5.21581,-0.0312225,-0.00929139,4.5365e-06
19286,-15.0,-13.0,0.00338054,  -430.053E-03,   64.4007E-03,       5.05753,-0.0288092,-0.00856716,4.44306e-06
19287,-16.0,-13.0,0.00326972,  -416.223E-03,   64.4007E-03,       4.89193,-0.0262836,-0.00780916,4.22075e-06
19292,-17.0,-13.0,0.00315439,  -401.249E-03,   64.4007E-03,       4.71966,-0.0236554,-0.00702037,3.88214e-06
19293,-18.0,-13.0,0.00303502,  -385.207E-03,   64.4007E-03,       4.54140,-0.020935,-0.00620391,3.44691e-06
19298,-19.0,-13.0,0.00291207,  -368.190E-03,   64.4006E-03,       4.35785,-0.0181331,-0.00536299,2.94015e-06
19301,-20.0,-13.0,0.00278602,  -350.309E-03,   64.4006E-03,       4.16973,-0.0152608,-0.00450093,2.39029e-06
19302,-21.0,-13.0,0.00265739,  -331.685E-03,   64.4005E-03,       3.97778,-0.0123293,-0.00362114,1.82684e-06
19307,-22.0,-13.0,0.00252667,  -312.453E-03,   64.4005E-03,       3.78275,-0.00935025,-0.00272709,1.27812e-06
19308,-23.0,-13.0,0.00239438,  -292.756E-03,   64.4004E-03,       3.58540,-0.00633533,-0.00182232,7.69063e-07
19313,-24.0,-13.0,0.00226105,  -272.745E-03,   64.4004E-03,       3.38650,-0.00329643,-0.000910392,3.19291e-07
19316,-25.0,-13.0,0.00212721,  -252.576E-03,   64.4003E-03,       3.18683,-0.000245528,5.09106e-06,-5.83976e-08
19317,-26.0,-13.0,0.00199338,  -232.408E-03,   64.4003E-03,       2.98715,0.00280536,0.000920527,-3.58952e-07
19322,-27.0,-13.0,0.00186009,  -212.398E-03,   64.4002E-03,       2.78826,0.00584422,0.00183232,-5.85361e-07
19323,-28.0,-13.0,0.00172787,  -192.702E-03,   64.4002E-03,       2.59092,0.00885907,0.00273687,-7.48066e-07
19328,-29.0,-13.0,0.00159725,  -173.472E-03,   64.4002E-03,       2.39590,0.011838,0.00363064,-8.63649e-07
19331,-30.0,-13.0,0.00146873,  -154.851E-03,   64.4002E-03,       2.20396,0.0147694,0.00451009,-9.52631e-07
19332,-31.0,-13.0,0.00134284,  -136.973E-03,   64.4002E-03,       2.01586,0.0176416,0.00537177,-1.0368e-06
19337,-32.0,-13.0,0.00122006,  -119.961E-03,   64.4002E-03,       1.83234,0.0204433,0.00621226,-1.136e-06
19338,-33.0,-13.0,0.00110089,  -103.923E-03,   64.4002E-03,       1.65410,0.0231635,0.00702823,-1.26519e-06
19343,-34.0,-13.0,0.000985785,  -88.9542E-03,   64.4003E-03,       1.48186,0.0257915,0.00781643,-1.43159e-06
19346,-35.0,-13.0,0.0008752139999999999,  -75.1301E-03,   64.4003E-03,       1.31629,0.0283167,0.00857371,-1.63312e-06
19347,-36.0,-13.0,0.0007696080000000001,  -62.5104E-03,   64.4004E-03,       1.15805,0.0307293,0.00929705,-1.85759e-06
19352,-37.0,-13.0,0.000669385,  -51.1349E-03,   64.4005E-03,       1.00777,0.0330196,0.00998355,-2.0839e-06
19353,-38.0,-13.0,0.000574939,  -41.0242E-03,   64.4006E-03,   866.046E-03,0.0351785,0.0106305,-2.2841e-06
19358,-39.0,-13.0,0.00048664300000000004,  -32.1788E-03,   64.4007E-03,   733.449E-03,0.0371974,0.0112353,-2.42754e-06
19361,-40.0,-13.0,0.000404844,  -24.5791E-03,   64.4008E-03,   610.509E-03,0.0390682,0.0117955,-2.48522e-06
19362,-41.0,-13.0,0.000329862,  -18.1861E-03,   64.4010E-03,   497.721E-03,0.0407834,0.0123091,-2.43513e-06
19367,-42.0,-13.0,0.000261989,  -12.9414E-03,   64.4011E-03,   395.542E-03,0.0423361,0.0127738,-2.26668e-06
19368,-43.0,-13.0,0.00020149,  -8.76863E-03,   64.4012E-03,   304.383E-03,0.04372,0.013188,-1.98426e-06
19373,-44.0,-13.0,0.000148598,  -5.57431E-03,   64.4013E-03,   224.616E-03,0.0449294,0.0135501,-1.60909e-06
19376,-45.0,-13.0,0.000103515,  -3.24942E-03,   64.4014E-03,   156.565E-03,0.0459596,0.0138585,-1.17813e-06
19377,-46.0,-13.0,6.641e-05,  -1.67118E-03,   64.4014E-03,   100.506E-03,0.0468063,0.014112,-7.41769e-07
19382,-47.0,-13.0,3.74205e-05,  -704.924E-06,   64.4015E-03,   56.6672E-03,0.0474662,0.0143097,-3.57314e-07
19383,-48.0,-13.0,1.66491e-05,  -206.301E-06,   64.4015E-03,   25.2273E-03,0.0479366,0.0144508,-8.33337e-08
19388,-49.0,-13.0,4.16428e-06,  -23.5638E-06,   64.4015E-03,   6.31301E-03,0.0482157,0.0145345,2.95185e-08
19391,-50.0,-13.0,0.0,  -12.7574E-42,   64.4015E-03,           -0.,0.0483072,0.0145619,4.01893e-08
19392,50.0,-14.0,0.0,      -1.01048,   64.4005E-03,           -0.,0.0483065,0.0145614,-7.34944e-08
19397,49.0,-14.0,4.17204e-06,      -1.01046,   64.4005E-03,   6.31293E-03,0.0482151,0.014534,-8.34726e-08
19398,48.0,-14.0,1.668e-05,      -1.01028,   64.4005E-03,   25.2270E-03,0.0479363,0.0144504,1.27078e-08
19403,47.0,-14.0,3.74898e-05,      -1.00978,   64.4005E-03,   56.6667E-03,0.0474662,0.0143094,3.11295e-07
19406,46.0,-14.0,6.65324e-05,      -1.00881,   64.4004E-03,   100.505E-03,0.0468065,0.0141117,7.47401e-07
19407,45.0,-14.0,0.000103705,      -1.00723,   64.4004E-03,   156.564E-03,0.0459598,0.0138582,1.24923e-06
19412,44.0,-14.0,0.000148869,      -1.00491,   64.4003E-03,   224.615E-03,0.0449297,0.0135499,1.74595e-06
19413,43.0,-14.0,0.000201855,      -1.00171,   64.4002E-03,   304.382E-03,0.0437202,0.0131879,2.17742e-06
19418,42.0,-14.0,0.000262459,  -997.540E-03,   64.4000E-03,   395.541E-03,0.0423363,0.0127738,2.49917e-06
19421,41.0,-14.0,0.000330448,  -992.296E-03,   64.3999E-03,   497.721E-03,0.0407836,0.0123091,2.68671e-06
19422,40.0,-14.0,0.00040555699999999997,  -985.903E-03,   64.3998E-03,   610.508E-03,0.0390683,0.0117956,2.73558e-06
19427,39.0,-14.0,0.00048749300000000003,  -978.303E-03,   64.3996E-03,   733.448E-03,0.0371974,0.0112354,2.65924e-06
19428,38.0,-14.0,0.000575933,  -969.457E-03,   64.3995E-03,   866.046E-03,0.0351785,0.0106307,2.48488e-06
19433,37.0,-14.0,0.00067053,  -959.347E-03,   64.3994E-03,       1.00777,0.0330195,0.00998377,2.24743e-06
19436,36.0,-14.0,0.0007709110000000001,  -947.971E-03,   64.3993E-03,       1.15805,0.0307292,0.00929728,1.9839e-06
19437,35.0,-14.0,0.000876681,  -935.351E-03,   64.3992E-03,       1.31629,0.0283167,0.00857393,1.72734e-06
19442,34.0,-14.0,0.000987421,  -921.527E-03,   64.3991E-03,       1.48186,0.0257914,0.00781664,1.50276e-06
19443,33.0,-14.0,0.00110269,  -906.558E-03,   64.3991E-03,       1.65410,0.0231635,0.00702842,1.32401e-06
19448,32.0,-14.0,0.00122204,  -890.520E-03,   64.3990E-03,       1.83234,0.0204434,0.00621243,1.19304e-06
19451,31.0,-14.0,0.001345,  -873.508E-03,   64.3990E-03,       2.01586,0.0176417,0.00537192,1.10048e-06
19452,30.0,-14.0,0.00147107,  -855.630E-03,   64.3990E-03,       2.20396,0.0147695,0.00451023,1.02801e-06
19457,29.0,-14.0,0.00159977,  -837.009E-03,   64.3990E-03,       2.39590,0.0118381,0.00363076,9.51421e-07
19458,28.0,-14.0,0.00173057,  -817.779E-03,   64.3991E-03,       2.59092,0.00885902,0.00273699,8.4448e-07
19463,27.0,-14.0,0.00186297,  -798.083E-03,   64.3991E-03,       2.78826,0.00584409,0.00183242,6.82478e-07
19466,26.0,-14.0,0.00199644,  -778.074E-03,   64.3991E-03,       2.98715,0.00280514,0.000920632,4.45575e-07
19467,25.0,-14.0,0.00213044,  -757.905E-03,   64.3992E-03,       3.18683,-0.000245859,5.19073e-06,1.21205e-07
19472,24.0,-14.0,0.00226447,  -737.736E-03,   64.3992E-03,       3.38650,-0.00329687,-0.000910298,-2.94278e-07
19473,23.0,-14.0,0.00239797,  -717.725E-03,   64.3993E-03,       3.58540,-0.00633586,-0.00182223,-7.95066e-07
19478,22.0,-14.0,0.00253042,  -698.028E-03,   64.3994E-03,       3.78275,-0.00935084,-0.00272701,-1.36617e-06
19481,21.0,-14.0,0.00266131,  -678.796E-03,   64.3994E-03,       3.97778,-0.0123299,-0.00362107,-1.98459e-06
19482,20.0,-14.0,0.00279011,  -660.172E-03,   64.3995E-03,       4.16973,-0.0152614,-0.00450086,-2.62106e-06
19487,19.0,-14.0,0.00291631,  -642.291E-03,   64.3995E-03,       4.35785,-0.0181337,-0.00536293,-3.24238e-06
19488,18.0,-14.0,0.00303941,  -625.274E-03,   64.3996E-03,       4.54140,-0.0209355,-0.00620385,-3.81389e-06
19493,17.0,-14.0,0.00315893,  -609.232E-03,   64.3996E-03,       4.71966,-0.0236557,-0.0070203,-4.30228e-06
19496,16.0,-14.0,0.0032744,  -594.258E-03,   64.3996E-03,       4.89193,-0.0262838,-0.00780908,-4.67821e-06
19497,15.0,-14.0,0.00338535,  -580.429E-03,   64.3996E-03,       5.05753,-0.0288093,-0.00856708,-4.91878e-06
19502,14.0,-14.0,0.00349136,  -567.803E-03,   64.3995E-03,       5.21580,-0.0312224,-0.00929131,-5.00961e-06
19503,13.0,-14.0,0.00359199,  -556.422E-03,   64.3995E-03,       5.36612,-0.0335135,-0.00997894,-4.94627e-06
19508,12.0,-14.0,0.00368686,  -546.305E-03,   64.3995E-03,       5.50788,-0.0356736,-0.0106273,-4.73494e-06
19511,11.0,-14.0,0.00377558,  -537.454E-03,   64.3995E-03,       5.64053,-0.0376943,-0.0112338,-4.39218e-06
19512,10.0,-14.0,0.00385782,  -529.848E-03,   64.3995E-03,       5.76351,-0.0395675,-0.0117961,-3.94362e-06
19517,9.0,-14.0,0.00393323,  -523.450E-03,   64.3995E-03,       5.87635,-0.0412859,-0.0123119,-3.42173e-06
19518,8.0,-14.0,0.00400153,  -518.200E-03,   64.3995E-03,       5.97858,-0.0428426,-0.0127792,-2.86279e-06
19523,7.0,-14.0,0.00406245,  -514.022E-03,   64.3995E-03,       6.06979,-0.0442314,-0.0131962,-2.30326e-06
19526,6.0,-14.0,0.00411574,  -510.824E-03,   64.3995E-03,       6.14961,-0.0454467,-0.0135611,-1.77601e-06
19527,5.0,-14.0,0.00416119,  -508.496E-03,   64.3996E-03,       6.21770,-0.0464835,-0.0138725,-1.30684e-06
19532,4.0,-14.0,0.00419862,  -506.915E-03,   64.3996E-03,       6.27381,-0.0473377,-0.014129,-9.11799e-07
19533,3.0,-14.0,0.0042279,  -505.947E-03,   64.3997E-03,       6.31768,-0.0480058,-0.0143297,-5.95499e-07
19538,2.0,-14.0,0.00424889,  -505.448E-03,   64.3997E-03,       6.34915,-0.048485,-0.0144737,-3.50961e-07
19541,1.0,-14.0,0.00426151,  -505.265E-03,   64.3997E-03,       6.36809,-0.0487733,-0.0145603,-1.60836e-07
19542,-2.5212e-30,-14.0,0.00426573,  -505.241E-03,   64.3997E-03,       6.37441,-0.0488695,-0.0145892,3.55271e-15
19547,-1.0,-14.0,0.00426151,  -505.217E-03,   64.3997E-03,       6.36809,-0.0487733,-0.0145603,1.60836e-07
19548,-2.0,-14.0,0.00424889,  -505.034E-03,   64.3997E-03,       6.34915,-0.048485,-0.0144737,3.50961e-07
19553,-3.0,-14.0,0.0042279,  -504.535E-03,   64.3997E-03,       6.31768,-0.0480058,-0.0143297,5.95499e-07
19556,-4.0,-14.0,0.00419862,  -503.567E-03,   64.3996E-03,       6.27381,-0.0473377,-0.014129,9.11799e-07
19557,-5.0,-14.0,0.00416119,  -501.986E-03,   64.3996E-03,       6.21770,-0.0464835,-0.0138725,1.30684e-06
19562,-6.0,-14.0,0.00411574,  -499.658E-03,   64.3995E-03,       6.14961,-0.0454467,-0.0135611,1.77601e-06
19563,-7.0,-14.0,0.00406245,  -496.459E-03,   64.3995E-03,       6.06979,-0.0442314,-0.0131962,2.30326e-06
19568,-8.0,-14.0,0.00400153,  -492.282E-03,   64.3995E-03,       5.97858,-0.0428426,-0.0127792,2.86279e-06
19571,-9.0,-14.0,0.00393323,  -487.032E-03,   64.3995E-03,       5.87635,-0.0412859,-0.0123119,3.42173e-06
19572,-10.0,-14.0,0.00385782,  -480.633E-03,   64.3995E-03,       5.76351,-0.0395675,-0.0117961,3.94362e-06
19577,-11.0,-14.0,0.00377558,  -473.028E-03,   64.3995E-03,       5.64053,-0.0376943,-0.0112338,4.39218e-06
19578,-12.0,-14.0,0.00368686,  -464.176E-03,   64.3995E-03,       5.50788,-0.0356736,-0.0106273,4.73494e-06
19583,-13.0,-14.0,0.00359199,  -454.060E-03,   64.3995E-03,       5.36612,-0.0335135,-0.00997894,4.94627e-06
19586,-14.0,-14.0,0.00349136,  -442.678E-03,   64.3995E-03,       5.21580,-0.0312224,-0.00929131,5.00961e-06
19587,-15.0,-14.0,0.00338535,  -430.053E-03,   64.3996E-03,       5.05753,-0.0288093,-0.00856708,4.91878e-06
19592,-16.0,-14.0,0.0032744,  -416.224E-03,   64.3996E-03,       4.89193,-0.0262838,-0.00780908,4.67821e-06
19593,-17.0,-14.0,0.00315893,  -401.250E-03,   64.3996E-03,       4.71966,-0.0236557,-0.0070203,4.30228e-06
19598,-18.0,-14.0,0.00303941,  -385.208E-03,   64.3996E-03,       4.54140,-0.0209355,-0.00620385,3.81389e-06
19601,-19.0,-14.0,0.00291631,  -368.191E-03,   64.3995E-03,       4.35785,-0.0181337,-0.00536293,3.24238e-06
19602,-20.0,-14.0,0.00279011,  -350.310E-03,   64.3995E-03,       4.16973,-0.0152614,-0.00450086,2.62106e-06
19607,-21.0,-14.0,0.00266131,  -331.686E-03,   64.3994E-03,       3.97778,-0.0123299,-0.00362107,1.98459e-06
19608,-22.0,-14.0,0.00253042,  -312.454E-03,   64.3994E-03,       3.78275,-0.00935084,-0.00272701,1.36617e-06
19613,-23.0,-14.0,0.00239797,  -292.757E-03,   64.3993E-03,       3.58540,-0.00633586,-0.00182223,7.95066e-07
19616,-24.0,-14.0,0.00226447,  -272.746E-03,   64.3992E-03,       3.38650,-0.00329687,-0.000910298,2.94278e-07
19617,-25.0,-14.0,0.00213044,  -252.577E-03,   64.3992E-03,       3.18683,-0.000245859,5.19073e-06,-1.21205e-07
19622,-26.0,-14.0,0.00199644,  -232.408E-03,   64.3991E-03,       2.98715,0.00280514,0.000920632,-4.45575e-07
19623,-27.0,-14.0,0.00186297,  -212.398E-03,   64.3991E-03,       2.78826,0.00584409,0.00183242,-6.82478e-07
19628,-28.0,-14.0,0.00173057,  -192.703E-03,   64.3991E-03,       2.59092,0.00885902,0.00273699,-8.4448e-07
19631,-29.0,-14.0,0.00159977,  -173.473E-03,   64.3990E-03,       2.39590,0.0118381,0.00363076,-9.51421e-07
19632,-30.0,-14.0,0.00147107,  -154.852E-03,   64.3990E-03,       2.20396,0.0147695,0.00451023,-1.02801e-06
19637,-31.0,-14.0,0.001345,  -136.974E-03,   64.3990E-03,       2.01586,0.0176417,0.00537192,-1.10048e-06
19638,-32.0,-14.0,0.00122204,  -119.961E-03,   64.3990E-03,       1.83234,0.0204434,0.00621243,-1.19304e-06
19643,-33.0,-14.0,0.00110269,  -103.924E-03,   64.3991E-03,       1.65410,0.0231635,0.00702842,-1.32401e-06
19646,-34.0,-14.0,0.000987421,  -88.9544E-03,   64.3991E-03,       1.48186,0.0257914,0.00781664,-1.50276e-06
19647,-35.0,-14.0,0.000876681,  -75.1304E-03,   64.3992E-03,       1.31629,0.0283167,0.00857393,-1.72734e-06
19652,-36.0,-14.0,0.0007709110000000001,  -62.5106E-03,   64.3993E-03,       1.15805,0.0307292,0.00929728,-1.9839e-06
19653,-37.0,-14.0,0.00067053,  -51.1351E-03,   64.3994E-03,       1.00777,0.0330195,0.00998377,-2.24743e-06
19658,-38.0,-14.0,0.000575933,  -41.0243E-03,   64.3995E-03,   866.046E-03,0.0351785,0.0106307,-2.48488e-06
19661,-39.0,-14.0,0.00048749300000000003,  -32.1788E-03,   64.3996E-03,   733.448E-03,0.0371974,0.0112354,-2.65924e-06
19662,-40.0,-14.0,0.00040555699999999997,  -24.5791E-03,   64.3998E-03,   610.508E-03,0.0390683,0.0117956,-2.73558e-06
19667,-41.0,-14.0,0.000330448,  -18.1861E-03,   64.3999E-03,   497.721E-03,0.0407836,0.0123091,-2.68671e-06
19668,-42.0,-14.0,0.000262459,  -12.9414E-03,   64.4000E-03,   395.541E-03,0.0423363,0.0127738,-2.49917e-06
19673,-43.0,-14.0,0.000201855,  -8.76861E-03,   64.4002E-03,   304.382E-03,0.0437202,0.0131879,-2.17742e-06
19676,-44.0,-14.0,0.000148869,  -5.57428E-03,   64.4003E-03,   224.615E-03,0.0449297,0.0135499,-1.74595e-06
19677,-45.0,-14.0,0.000103705,  -3.24940E-03,   64.4004E-03,   156.564E-03,0.0459598,0.0138582,-1.24923e-06
19682,-46.0,-14.0,6.65324e-05,  -1.67116E-03,   64.4004E-03,   100.505E-03,0.0468065,0.0141117,-7.47401e-07
19683,-47.0,-14.0,3.74898e-05,  -704.914E-06,   64.4005E-03,   56.6667E-03,0.0474662,0.0143094,-3.11295e-07
19688,-48.0,-14.0,1.668e-05,  -206.297E-06,   64.4005E-03,   25.2270E-03,0.0479363,0.0144504,-1.27078e-08
19691,-49.0,-14.0,4.17204e-06,  -23.5634E-06,   64.4005E-03,   6.31293E-03,0.0482151,0.014534,8.34726e-08
19692,-50.0,-14.0,0.0,  -12.7630E-42,   64.4005E-03,           -0.,0.0483065,0.0145614,7.34945e-08
19697,50.0,-15.0,0.0,      -1.01048,   64.3996E-03,           -0.,0.0483056,0.0145609,-1.17303e-07
19698,49.0,-15.0,4.1805300000000004e-06,      -1.01046,   64.3995E-03,   6.31284E-03,0.0482145,0.0145335,-1.53706e-07
19703,48.0,-15.0,1.67139e-05,      -1.01028,   64.3995E-03,   25.2267E-03,0.047936,0.0144499,-8.27881e-08
19706,47.0,-15.0,3.75656e-05,      -1.00978,   64.3995E-03,   56.6661E-03,0.0474662,0.014309,2.39734e-07
19707,46.0,-15.0,6.66663e-05,      -1.00881,   64.3994E-03,   100.504E-03,0.0468067,0.0141114,7.33176e-07
19712,45.0,-15.0,0.000103912,      -1.00723,   64.3994E-03,   156.563E-03,0.0459601,0.013858,1.3081e-06
19713,44.0,-15.0,0.000149164,      -1.00491,   64.3992E-03,   224.614E-03,0.04493,0.0135497,1.87958e-06
19718,43.0,-15.0,0.00020225200000000001,      -1.00171,   64.3991E-03,   304.381E-03,0.0437205,0.0131878,2.37461e-06
19721,42.0,-15.0,0.000262971,  -997.540E-03,   64.3990E-03,   395.540E-03,0.0423365,0.0127738,2.74099e-06
19722,41.0,-15.0,0.000331087,  -992.296E-03,   64.3988E-03,   497.720E-03,0.0407837,0.0123091,2.94997e-06
19727,40.0,-15.0,0.000406334,  -985.903E-03,   64.3987E-03,   610.508E-03,0.0390683,0.0117957,2.99719e-06
19728,39.0,-15.0,0.000488416,  -978.303E-03,   64.3985E-03,   733.448E-03,0.0371974,0.0112356,2.89962e-06
19733,38.0,-15.0,0.000577013,  -969.457E-03,   64.3984E-03,   866.045E-03,0.0351784,0.0106309,2.69011e-06
19736,37.0,-15.0,0.000671774,  -959.347E-03,   64.3983E-03,       1.00777,0.0330194,0.00998399,2.41088e-06
19737,36.0,-15.0,0.000772326,  -947.971E-03,   64.3982E-03,       1.15805,0.0307291,0.00929751,2.10578e-06
19742,35.0,-15.0,0.0008782719999999999,  -935.351E-03,   64.3981E-03,       1.31629,0.0283166,0.00857416,1.81416e-06
19743,34.0,-15.0,0.0009891939999999999,  -921.527E-03,   64.3980E-03,       1.48186,0.0257914,0.00781685,1.56511e-06
19748,33.0,-15.0,0.00110465,  -906.558E-03,   64.3979E-03,       1.65410,0.0231635,0.00702862,1.37463e-06
19751,32.0,-15.0,0.00122419,  -890.520E-03,   64.3979E-03,       1.83234,0.0204434,0.00621261,1.24421e-06
19752,31.0,-15.0,0.00134734,  -873.508E-03,   64.3979E-03,       2.01586,0.0176417,0.00537208,1.16215e-06
19757,30.0,-15.0,0.00147361,  -855.630E-03,   64.3979E-03,       2.20396,0.0147695,0.00451037,1.10601e-06
19758,29.0,-15.0,0.00160249,  -837.009E-03,   64.3979E-03,       2.39590,0.0118381,0.00363089,1.04669e-06
19763,28.0,-15.0,0.00173349,  -817.778E-03,   64.3979E-03,       2.59092,0.00885898,0.00273711,9.52673e-07
19766,27.0,-15.0,0.00186609,  -798.083E-03,   64.3980E-03,       2.78826,0.00584396,0.00183254,7.94518e-07
19767,26.0,-15.0,0.00199975,  -778.073E-03,   64.3980E-03,       2.98715,0.00280489,0.000920747,5.48545e-07
19772,25.0,-15.0,0.00213395,  -757.904E-03,   64.3981E-03,       3.18683,-0.000246224,5.30169e-06,1.99819e-07
19773,24.0,-15.0,0.00226816,  -737.735E-03,   64.3981E-03,       3.38650,-0.00329735,-0.000910192,-2.56122e-07
19778,23.0,-15.0,0.00240184,  -717.724E-03,   64.3982E-03,       3.58540,-0.00633645,-0.00182213,-8.12539e-07
19781,22.0,-15.0,0.00253448,  -698.027E-03,   64.3983E-03,       3.78275,-0.00935151,-0.00272692,-1.45196e-06
19782,21.0,-15.0,0.00266555,  -678.795E-03,   64.3983E-03,       3.97778,-0.0123307,-0.00362098,-2.14746e-06
19787,20.0,-15.0,0.00279452,  -660.171E-03,   64.3984E-03,       4.16973,-0.0152621,-0.00450079,-2.86485e-06
19788,19.0,-15.0,0.00292089,  -642.290E-03,   64.3984E-03,       4.35785,-0.0181343,-0.00536286,-3.56522e-06
19793,18.0,-15.0,0.00304416,  -625.274E-03,   64.3984E-03,       4.54140,-0.020936,-0.00620378,-4.2081e-06
19796,17.0,-15.0,0.00316384,  -609.232E-03,   64.3985E-03,       4.71966,-0.0236562,-0.00702023,-4.75454e-06
19797,16.0,-15.0,0.00327945,  -594.257E-03,   64.3985E-03,       4.89193,-0.026284,-0.00780901,-5.17038e-06
19802,15.0,-15.0,0.00339055,  -580.428E-03,   64.3985E-03,       5.05753,-0.0288094,-0.008567,-5.42911e-06
19803,14.0,-15.0,0.00349669,  -567.803E-03,   64.3984E-03,       5.21580,-0.0312222,-0.00929123,-5.51438e-06
19808,13.0,-15.0,0.00359746,  -556.422E-03,   64.3984E-03,       5.36612,-0.0335131,-0.00997886,-5.42169e-06
19811,12.0,-15.0,0.00369245,  -546.305E-03,   64.3984E-03,       5.50788,-0.0356731,-0.0106272,-5.15922e-06
19812,11.0,-15.0,0.00378129,  -537.454E-03,   64.3984E-03,       5.64052,-0.0376937,-0.0112337,-4.74743e-06
19817,10.0,-15.0,0.00386363,  -529.848E-03,   64.3984E-03,       5.76350,-0.0395668,-0.011796,-4.21754e-06
19818,9.0,-15.0,0.00393914,  -523.450E-03,   64.3984E-03,       5.87634,-0.0412852,-0.0123119,-3.60882e-06
19823,8.0,-15.0,0.00400753,  -518.200E-03,   64.3984E-03,       5.97857,-0.042842,-0.0127793,-2.96485e-06
19826,7.0,-15.0,0.00406852,  -514.022E-03,   64.3984E-03,       6.06978,-0.0442309,-0.0131963,-2.32917e-06
19827,6.0,-15.0,0.00412187,  -510.824E-03,   64.3985E-03,       6.14960,-0.0454463,-0.0135613,-1.74077e-06
19832,5.0,-15.0,0.00416738,  -508.496E-03,   64.3985E-03,       6.21770,-0.0464833,-0.0138728,-1.2299e-06
19833,4.0,-15.0,0.00420486,  -506.915E-03,   64.3986E-03,       6.27380,-0.0473378,-0.0141294,-8.14817e-07
19838,3.0,-15.0,0.00423417,  -505.947E-03,   64.3986E-03,       6.31768,-0.048006,-0.0143301,-4.99932e-07
19841,2.0,-15.0,0.00425519,  -505.448E-03,   64.3987E-03,       6.34915,-0.0484853,-0.0144741,-2.75553e-07
19842,1.0,-15.0,0.00426783,  -505.265E-03,   64.3987E-03,       6.36808,-0.0487737,-0.0145608,-1.19451e-07
19847,-2.6803899999999998e-30,-15.0,0.00427205,  -505.241E-03,   64.3987E-03,       6.37440,-0.04887,-0.0145897,7.10543e-15
19848,-1.0,-15.0,0.00426783,  -505.217E-03,   64.3987E-03,       6.36808,-0.0487737,-0.0145608,1.19451e-07
19853,-2.0,-15.0,0.00425519,  -505.034E-03,   64.3987E-03,       6.34915,-0.0484853,-0.0144741,2.75553e-07
19856,-3.0,-15.0,0.00423417,  -504.535E-03,   64.3986E-03,       6.31768,-0.048006,-0.0143301,4.99932e-07
19857,-4.0,-15.0,0.00420486,  -503.567E-03,   64.3986E-03,       6.27380,-0.0473378,-0.0141294,8.14817e-07
19862,-5.0,-15.0,0.00416738,  -501.986E-03,   64.3985E-03,       6.21770,-0.0464833,-0.0138728,1.2299e-06
19863,-6.0,-15.0,0.00412187,  -499.658E-03,   64.3985E-03,       6.14960,-0.0454463,-0.0135613,1.74077e-06
19868,-7.0,-15.0,0.00406852,  -496.459E-03,   64.3984E-03,       6.06978,-0.0442309,-0.0131963,2.32917e-06
19871,-8.0,-15.0,0.00400753,  -492.282E-03,   64.3984E-03,       5.97857,-0.042842,-0.0127793,2.96485e-06
19872,-9.0,-15.0,0.00393914,  -487.032E-03,   64.3984E-03,       5.87634,-0.0412852,-0.0123119,3.60882e-06
19877,-10.0,-15.0,0.00386363,  -480.633E-03,   64.3984E-03,       5.76350,-0.0395668,-0.011796,4.21754e-06
19878,-11.0,-15.0,0.00378129,  -473.028E-03,   64.3984E-03,       5.64052,-0.0376937,-0.0112337,4.74743e-06
19883,-12.0,-15.0,0.00369245,  -464.177E-03,   64.3984E-03,       5.50788,-0.0356731,-0.0106272,5.15922e-06
19886,-13.0,-15.0,0.00359746,  -454.060E-03,   64.3984E-03,       5.36612,-0.0335131,-0.00997886,5.42169e-06
19887,-14.0,-15.0,0.00349669,  -442.679E-03,   64.3984E-03,       5.21580,-0.0312222,-0.00929123,5.51438e-06
19892,-15.0,-15.0,0.00339055,  -430.054E-03,   64.3985E-03,       5.05753,-0.0288094,-0.008567,5.42911e-06
19893,-16.0,-15.0,0.00327945,  -416.224E-03,   64.3985E-03,       4.89193,-0.026284,-0.00780901,5.17038e-06
19898,-17.0,-15.0,0.00316384,  -401.250E-03,   64.3985E-03,       4.71966,-0.0236562,-0.00702023,4.75454e-06
19901,-18.0,-15.0,0.00304416,  -385.208E-03,   64.3984E-03,       4.54140,-0.020936,-0.00620378,4.2081e-06
19902,-19.0,-15.0,0.00292089,  -368.192E-03,   64.3984E-03,       4.35785,-0.0181343,-0.00536286,3.56522e-06
19907,-20.0,-15.0,0.00279452,  -350.311E-03,   64.3984E-03,       4.16973,-0.0152621,-0.00450079,2.86485e-06
19908,-21.0,-15.0,0.00266555,  -331.687E-03,   64.3983E-03,       3.97778,-0.0123307,-0.00362098,2.14746e-06
19913,-22.0,-15.0,0.00253448,  -312.455E-03,   64.3983E-03,       3.78275,-0.00935151,-0.00272692,1.45196e-06
19916,-23.0,-15.0,0.00240184,  -292.757E-03,   64.3982E-03,       3.58540,-0.00633645,-0.00182213,8.12539e-07
19917,-24.0,-15.0,0.00226816,  -272.747E-03,   64.3981E-03,       3.38650,-0.00329735,-0.000910192,2.56122e-07
19922,-25.0,-15.0,0.00213395,  -252.578E-03,   64.3981E-03,       3.18683,-0.000246224,5.30169e-06,-1.99819e-07
19923,-26.0,-15.0,0.00199975,  -232.409E-03,   64.3980E-03,       2.98715,0.00280489,0.000920747,-5.48545e-07
19928,-27.0,-15.0,0.00186609,  -212.399E-03,   64.3980E-03,       2.78826,0.00584396,0.00183254,-7.94518e-07
19931,-28.0,-15.0,0.00173349,  -192.703E-03,   64.3979E-03,       2.59092,0.00885898,0.00273711,-9.52673e-07
19932,-29.0,-15.0,0.00160249,  -173.473E-03,   64.3979E-03,       2.39590,0.0118381,0.00363089,-1.04669e-06
19937,-30.0,-15.0,0.00147361,  -154.852E-03,   64.3979E-03,       2.20396,0.0147695,0.00451037,-1.10601e-06
19938,-31.0,-15.0,0.00134734,  -136.974E-03,   64.3979E-03,       2.01586,0.0176417,0.00537208,-1.16215e-06
19943,-32.0,-15.0,0.00122419,  -119.962E-03,   64.3979E-03,       1.83234,0.0204434,0.00621261,-1.24421e-06
19946,-33.0,-15.0,0.00110465,  -103.924E-03,   64.3979E-03,       1.65410,0.0231635,0.00702862,-1.37463e-06
19947,-34.0,-15.0,0.0009891939999999999,  -88.9547E-03,   64.3980E-03,       1.48186,0.0257914,0.00781685,-1.56511e-06
19952,-35.0,-15.0,0.0008782719999999999,  -75.1306E-03,   64.3981E-03,       1.31629,0.0283166,0.00857416,-1.81416e-06
19953,-36.0,-15.0,0.000772326,  -62.5108E-03,   64.3982E-03,       1.15805,0.0307291,0.00929751,-2.10578e-06
19958,-37.0,-15.0,0.000671774,  -51.1353E-03,   64.3983E-03,       1.00777,0.0330194,0.00998399,-2.41088e-06
19961,-38.0,-15.0,0.000577013,  -41.0245E-03,   64.3984E-03,   866.045E-03,0.0351784,0.0106309,-2.69011e-06
19962,-39.0,-15.0,0.000488416,  -32.1790E-03,   64.3985E-03,   733.448E-03,0.0371974,0.0112356,-2.89962e-06
19967,-40.0,-15.0,0.000406334,  -24.5792E-03,   64.3987E-03,   610.508E-03,0.0390683,0.0117957,-2.99719e-06
19968,-41.0,-15.0,0.000331087,  -18.1861E-03,   64.3988E-03,   497.720E-03,0.0407837,0.0123091,-2.94997e-06
19973,-42.0,-15.0,0.000262971,  -12.9414E-03,   64.3990E-03,   395.540E-03,0.0423365,0.0127738,-2.74099e-06
19976,-43.0,-15.0,0.00020225200000000001,  -8.76859E-03,   64.3991E-03,   304.381E-03,0.0437205,0.0131878,-2.37461e-06
19977,-44.0,-15.0,0.000149164,  -5.57426E-03,   64.3992E-03,   224.614E-03,0.04493,0.0135497,-1.87958e-06
19982,-45.0,-15.0,0.000103912,  -3.24937E-03,   64.3994E-03,   156.563E-03,0.0459601,0.013858,-1.3081e-06
19983,-46.0,-15.0,6.66663e-05,  -1.67114E-03,   64.3994E-03,   100.504E-03,0.0468067,0.0141114,-7.33176e-07
19988,-47.0,-15.0,3.75656e-05,  -704.903E-06,   64.3995E-03,   56.6661E-03,0.0474662,0.014309,-2.39734e-07
19991,-48.0,-15.0,1.67139e-05,  -206.294E-06,   64.3995E-03,   25.2267E-03,0.047936,0.0144499,8.27882e-08
19992,-49.0,-15.0,4.1805300000000004e-06,  -23.5632E-06,   64.3995E-03,   6.31284E-03,0.0482145,0.0145335,1.53706e-07
19997,-50.0,-15.0,0.0,  -12.7700E-42,   64.3996E-03,           -0.,0.0483056,0.0145609,1.17303e-07
19998,50.0,-16.0,0.0,      -1.01048,   64.3986E-03,           -0.,0.0483046,0.0145603,-1.71271e-07
20003,49.0,-16.0,4.18982e-06,      -1.01046,   64.3986E-03,   6.31272E-03,0.0482136,0.0145329,-2.43492e-07
20006,48.0,-16.0,1.67508e-05,      -1.01028,   64.3985E-03,   25.2263E-03,0.0479357,0.0144495,-2.08404e-07
20007,47.0,-16.0,3.76483e-05,      -1.00978,   64.3985E-03,   56.6654E-03,0.0474662,0.0143087,1.37663e-07
20012,46.0,-16.0,6.68121e-05,      -1.00881,   64.3984E-03,   100.503E-03,0.0468069,0.0141111,6.93394e-07
20013,45.0,-16.0,0.00010413700000000001,      -1.00723,   64.3983E-03,   156.562E-03,0.0459605,0.0138577,1.35087e-06
20018,44.0,-16.0,0.000149485,      -1.00491,   64.3982E-03,   224.613E-03,0.0449304,0.0135495,2.00635e-06
20021,43.0,-16.0,0.000202684,      -1.00171,   64.3981E-03,   304.380E-03,0.0437208,0.0131877,2.57373e-06
20022,42.0,-16.0,0.000263527,  -997.540E-03,   64.3979E-03,   395.539E-03,0.0423368,0.0127737,2.9907e-06
20027,41.0,-16.0,0.00033178,  -992.296E-03,   64.3978E-03,   497.719E-03,0.0407838,0.0123092,3.22423e-06
20028,40.0,-16.0,0.000407175,  -985.902E-03,   64.3976E-03,   610.507E-03,0.0390683,0.0117958,3.26993e-06
20033,39.0,-16.0,0.000489417,  -978.303E-03,   64.3975E-03,   733.447E-03,0.0371973,0.0112357,3.14861e-06
20036,38.0,-16.0,0.000578182,  -969.457E-03,   64.3973E-03,   866.045E-03,0.0351782,0.0106311,2.90003e-06
20037,37.0,-16.0,0.0006731189999999999,  -959.346E-03,   64.3972E-03,       1.00777,0.0330192,0.00998421,2.57419e-06
20042,36.0,-16.0,0.0007738560000000001,  -947.971E-03,   64.3971E-03,       1.15805,0.0307289,0.00929773,2.22335e-06
20043,35.0,-16.0,0.000879992,  -935.351E-03,   64.3969E-03,       1.31629,0.0283164,0.00857439,1.89346e-06
20048,34.0,-16.0,0.00099111,  -921.527E-03,   64.3969E-03,       1.48186,0.0257913,0.00781707,1.61871e-06
20051,33.0,-16.0,0.00110677,  -906.557E-03,   64.3968E-03,       1.65410,0.0231635,0.00702881,1.41714e-06
20052,32.0,-16.0,0.00122651,  -890.520E-03,   64.3968E-03,       1.83234,0.0204435,0.00621279,1.28999e-06
20057,31.0,-16.0,0.00134986,  -873.507E-03,   64.3968E-03,       2.01586,0.0176418,0.00537224,1.22259e-06
20058,30.0,-16.0,0.00147634,  -855.629E-03,   64.3967E-03,       2.20396,0.0147696,0.00451052,1.18794e-06
20063,29.0,-16.0,0.00160543,  -837.008E-03,   64.3968E-03,       2.39590,0.0118381,0.00363103,1.15114e-06
20066,28.0,-16.0,0.00173664,  -817.778E-03,   64.3968E-03,       2.59092,0.00885895,0.00273725,1.07474e-06
20067,27.0,-16.0,0.00186944,  -798.082E-03,   64.3968E-03,       2.78826,0.00584382,0.00183268,9.23756e-07
20072,26.0,-16.0,0.00200331,  -778.072E-03,   64.3969E-03,       2.98715,0.00280463,0.000920876,6.70184e-07
20073,25.0,-16.0,0.00213772,  -757.903E-03,   64.3969E-03,       3.18683,-0.000246625,5.42699e-06,2.96286e-07
20078,24.0,-16.0,0.00227213,  -737.734E-03,   64.3970E-03,       3.38650,-0.00329789,-0.000910073,-2.03263e-07
20079,23.0,-16.0,0.00240602,  -717.723E-03,   64.3971E-03,       3.58540,-0.00633711,-0.00182202,-8.20709e-07
20084,22.0,-16.0,0.00253885,  -698.026E-03,   64.3971E-03,       3.78275,-0.00935227,-0.00272682,-1.53566e-06
20085,21.0,-16.0,0.00267011,  -678.794E-03,   64.3972E-03,       3.97778,-0.0123315,-0.00362089,-2.31674e-06
20090,20.0,-16.0,0.00279927,  -660.170E-03,   64.3973E-03,       4.16973,-0.0152629,-0.00450071,-3.12399e-06
20093,19.0,-16.0,0.00292582,  -642.289E-03,   64.3973E-03,       4.35785,-0.0181351,-0.00536278,-3.91204e-06
20094,18.0,-16.0,0.00304927,  -625.273E-03,   64.3973E-03,       4.54139,-0.0209367,-0.00620371,-4.63364e-06
20099,17.0,-16.0,0.00316912,  -609.231E-03,   64.3974E-03,       4.71965,-0.0236566,-0.00702016,-5.24347e-06
20100,16.0,-16.0,0.0032849,  -594.257E-03,   64.3974E-03,       4.89192,-0.0262843,-0.00780893,-5.70187e-06
20105,15.0,-16.0,0.00339615,  -580.428E-03,   64.3973E-03,       5.05752,-0.0288094,-0.00856692,-5.97833e-06
20108,14.0,-16.0,0.00350244,  -567.803E-03,   64.3973E-03,       5.21579,-0.031222,-0.00929115,-6.05439e-06
20109,13.0,-16.0,0.00360335,  -556.422E-03,   64.3973E-03,       5.36611,-0.0335127,-0.00997879,-5.9257e-06
20114,12.0,-16.0,0.00369847,  -546.305E-03,   64.3973E-03,       5.50787,-0.0356725,-0.0106271,-5.60289e-06
20115,11.0,-16.0,0.00378743,  -537.454E-03,   64.3973E-03,       5.64051,-0.0376929,-0.0112337,-5.11112e-06
20120,10.0,-16.0,0.00386988,  -529.849E-03,   64.3973E-03,       5.76350,-0.039566,-0.011796,-4.48819e-06
20123,9.0,-16.0,0.0039455,  -523.450E-03,   64.3973E-03,       5.87633,-0.0412844,-0.0123119,-3.78121e-06
20124,8.0,-16.0,0.00401398,  -518.200E-03,   64.3973E-03,       5.97856,-0.0428412,-0.0127794,-3.04213e-06
20129,7.0,-16.0,0.00407505,  -514.023E-03,   64.3974E-03,       6.06977,-0.0442303,-0.0131965,-2.32253e-06
20130,6.0,-16.0,0.00412848,  -510.824E-03,   64.3974E-03,       6.14959,-0.0454459,-0.0135615,-1.66822e-06
20135,5.0,-16.0,0.00417405,  -508.496E-03,   64.3975E-03,       6.21769,-0.0464832,-0.0138731,-1.11435e-06
20138,4.0,-16.0,0.00421158,  -506.915E-03,   64.3975E-03,       6.27379,-0.0473378,-0.0141298,-6.81536e-07
20139,3.0,-16.0,0.00424093,  -505.947E-03,   64.3976E-03,       6.31767,-0.0480063,-0.0143306,-3.73727e-07
20144,2.0,-16.0,0.00426198,  -505.448E-03,   64.3976E-03,       6.34914,-0.0484857,-0.0144746,-1.78001e-07
20145,1.0,-16.0,0.00427464,  -505.265E-03,   64.3977E-03,       6.36807,-0.0487743,-0.0145613,-6.64586e-08
20150,2.99437e-30,-16.0,0.00427886,  -505.241E-03,   64.3977E-03,       6.37439,-0.0488706,-0.0145902,-5.9952e-15
20153,-1.0,-16.0,0.00427464,  -505.217E-03,   64.3977E-03,       6.36807,-0.0487743,-0.0145613,6.64586e-08
20154,-2.0,-16.0,0.00426198,  -505.034E-03,   64.3976E-03,       6.34914,-0.0484857,-0.0144746,1.78001e-07
20159,-3.0,-16.0,0.00424093,  -504.535E-03,   64.3976E-03,       6.31767,-0.0480063,-0.0143306,3.73727e-07
20160,-4.0,-16.0,0.00421158,  -503.567E-03,   64.3975E-03,       6.27379,-0.0473378,-0.0141298,6.81536e-07
20165,-5.0,-16.0,0.00417405,  -501.986E-03,   64.3975E-03,       6.21769,-0.0464832,-0.0138731,1.11435e-06
20168,-6.0,-16.0,0.00412848,  -499.658E-03,   64.3974E-03,       6.14959,-0.0454459,-0.0135615,1.66822e-06
20169,-7.0,-16.0,0.00407505,  -496.459E-03,   64.3974E-03,       6.06977,-0.0442303,-0.0131965,2.32253e-06
20174,-8.0,-16.0,0.00401398,  -492.282E-03,   64.3973E-03,       5.97856,-0.0428412,-0.0127794,3.04213e-06
20175,-9.0,-16.0,0.0039455,  -487.032E-03,   64.3973E-03,       5.87633,-0.0412844,-0.0123119,3.78121e-06
20180,-10.0,-16.0,0.00386988,  -480.633E-03,   64.3973E-03,       5.76350,-0.039566,-0.011796,4.48819e-06
20183,-11.0,-16.0,0.00378743,  -473.028E-03,   64.3973E-03,       5.64051,-0.0376929,-0.0112337,5.11112e-06
20184,-12.0,-16.0,0.00369847,  -464.177E-03,   64.3973E-03,       5.50787,-0.0356725,-0.0106271,5.60289e-06
20189,-13.0,-16.0,0.00360335,  -454.060E-03,   64.3973E-03,       5.36611,-0.0335127,-0.00997879,5.9257e-06
20190,-14.0,-16.0,0.00350244,  -442.679E-03,   64.3973E-03,       5.21579,-0.031222,-0.00929115,6.05439e-06
20195,-15.0,-16.0,0.00339615,  -430.054E-03,   64.3973E-03,       5.05752,-0.0288094,-0.00856692,5.97833e-06
20198,-16.0,-16.0,0.0032849,  -416.225E-03,   64.3974E-03,       4.89192,-0.0262843,-0.00780893,5.70187e-06
20199,-17.0,-16.0,0.00316912,  -401.251E-03,   64.3974E-03,       4.71965,-0.0236566,-0.00702016,5.24347e-06
20204,-18.0,-16.0,0.00304927,  -385.209E-03,   64.3973E-03,       4.54139,-0.0209367,-0.00620371,4.63364e-06
20205,-19.0,-16.0,0.00292582,  -368.193E-03,   64.3973E-03,       4.35785,-0.0181351,-0.00536278,3.91204e-06
20210,-20.0,-16.0,0.00279927,  -350.312E-03,   64.3973E-03,       4.16973,-0.0152629,-0.00450071,3.12399e-06
20213,-21.0,-16.0,0.00267011,  -331.688E-03,   64.3972E-03,       3.97778,-0.0123315,-0.00362089,2.31674e-06
20214,-22.0,-16.0,0.00253885,  -312.456E-03,   64.3971E-03,       3.78275,-0.00935227,-0.00272682,1.53566e-06
20219,-23.0,-16.0,0.00240602,  -292.758E-03,   64.3971E-03,       3.58540,-0.00633711,-0.00182202,8.20709e-07
20220,-24.0,-16.0,0.00227213,  -272.747E-03,   64.3970E-03,       3.38650,-0.00329789,-0.000910073,2.03263e-07
20225,-25.0,-16.0,0.00213772,  -252.578E-03,   64.3969E-03,       3.18683,-0.000246625,5.42699e-06,-2.96286e-07
20228,-26.0,-16.0,0.00200331,  -232.410E-03,   64.3969E-03,       2.98715,0.00280463,0.000920876,-6.70184e-07
20229,-27.0,-16.0,0.00186944,  -212.400E-03,   64.3968E-03,       2.78826,0.00584382,0.00183268,-9.23756e-07
20234,-28.0,-16.0,0.00173664,  -192.704E-03,   64.3968E-03,       2.59092,0.00885895,0.00273725,-1.07474e-06
20235,-29.0,-16.0,0.00160543,  -173.474E-03,   64.3968E-03,       2.39590,0.0118381,0.00363103,-1.15114e-06
20240,-30.0,-16.0,0.00147634,  -154.853E-03,   64.3967E-03,       2.20396,0.0147696,0.00451052,-1.18794e-06
20243,-31.0,-16.0,0.00134986,  -136.975E-03,   64.3968E-03,       2.01586,0.0176418,0.00537224,-1.22259e-06
20244,-32.0,-16.0,0.00122651,  -119.962E-03,   64.3968E-03,       1.83234,0.0204435,0.00621279,-1.28999e-06
20249,-33.0,-16.0,0.00110677,  -103.924E-03,   64.3968E-03,       1.65410,0.0231635,0.00702881,-1.41714e-06
20250,-34.0,-16.0,0.00099111,  -88.9551E-03,   64.3969E-03,       1.48186,0.0257913,0.00781707,-1.61871e-06
20255,-35.0,-16.0,0.000879992,  -75.1310E-03,   64.3969E-03,       1.31629,0.0283164,0.00857439,-1.89346e-06
20258,-36.0,-16.0,0.0007738560000000001,  -62.5111E-03,   64.3971E-03,       1.15805,0.0307289,0.00929773,-2.22335e-06
20259,-37.0,-16.0,0.0006731189999999999,  -51.1355E-03,   64.3972E-03,       1.00777,0.0330192,0.00998421,-2.57419e-06
20264,-38.0,-16.0,0.000578182,  -41.0247E-03,   64.3973E-03,   866.045E-03,0.0351782,0.0106311,-2.90003e-06
20265,-39.0,-16.0,0.000489417,  -32.1791E-03,   64.3975E-03,   733.447E-03,0.0371973,0.0112357,-3.14861e-06
20270,-40.0,-16.0,0.000407175,  -24.5793E-03,   64.3976E-03,   610.507E-03,0.0390683,0.0117958,-3.26993e-06
20273,-41.0,-16.0,0.00033178,  -18.1862E-03,   64.3978E-03,   497.719E-03,0.0407838,0.0123092,-3.22423e-06
20274,-42.0,-16.0,0.000263527,  -12.9414E-03,   64.3979E-03,   395.539E-03,0.0423368,0.0127737,-2.9907e-06
20279,-43.0,-16.0,0.000202684,  -8.76858E-03,   64.3981E-03,   304.380E-03,0.0437208,0.0131877,-2.57373e-06
20280,-44.0,-16.0,0.000149485,  -5.57423E-03,   64.3982E-03,   224.613E-03,0.0449304,0.0135495,-2.00635e-06
20285,-45.0,-16.0,0.00010413700000000001,  -3.24935E-03,   64.3983E-03,   156.562E-03,0.0459605,0.0138577,-1.35087e-06
20288,-46.0,-16.0,6.68121e-05,  -1.67112E-03,   64.3984E-03,   100.503E-03,0.0468069,0.0141111,-6.93394e-07
20289,-47.0,-16.0,3.76483e-05,  -704.891E-06,   64.3985E-03,   56.6654E-03,0.0474662,0.0143087,-1.37663e-07
20294,-48.0,-16.0,1.67508e-05,  -206.290E-06,   64.3985E-03,   25.2263E-03,0.0479357,0.0144495,2.08404e-07
20295,-49.0,-16.0,4.18982e-06,  -23.5634E-06,   64.3986E-03,   6.31272E-03,0.0482136,0.0145329,2.43492e-07
20300,-50.0,-16.0,0.0,  -12.7798E-42,   64.3986E-03,           -0.,0.0483046,0.0145603,1.71271e-07
20303,50.0,-17.0,0.0,      -1.01048,   64.3976E-03,           -0.,0.0483033,0.0145596,-2.40181e-07
20304,49.0,-17.0,4.19992e-06,      -1.01046,   64.3976E-03,   6.31258E-03,0.0482127,0.0145324,-3.56079e-07
20309,48.0,-17.0,1.67911e-05,      -1.01028,   64.3976E-03,   25.2258E-03,0.0479353,0.014449,-3.69467e-07
20310,47.0,-17.0,3.7738200000000004e-05,      -1.00978,   64.3975E-03,   56.6645E-03,0.0474662,0.0143083,-1.98074e-09
20315,46.0,-17.0,6.69704e-05,      -1.00881,   64.3974E-03,   100.502E-03,0.0468072,0.0141109,6.22561e-07
20318,45.0,-17.0,0.000104382,      -1.00723,   64.3973E-03,   156.560E-03,0.0459609,0.0138575,1.37154e-06
20319,44.0,-17.0,0.000149834,      -1.00491,   64.3972E-03,   224.611E-03,0.0449309,0.0135493,2.12229e-06
20324,43.0,-17.0,0.000203151,      -1.00171,   64.3971E-03,   304.379E-03,0.0437212,0.0131876,2.77129e-06
20325,42.0,-17.0,0.000264129,  -997.540E-03,   64.3969E-03,   395.537E-03,0.042337,0.0127737,3.24617e-06
20330,41.0,-17.0,0.00033252900000000003,  -992.296E-03,   64.3967E-03,   497.718E-03,0.0407839,0.0123092,3.50818e-06
20333,40.0,-17.0,0.000408084,  -985.902E-03,   64.3965E-03,   610.506E-03,0.0390683,0.0117959,3.55308e-06
20334,39.0,-17.0,0.000490496,  -978.303E-03,   64.3964E-03,   733.447E-03,0.0371972,0.0112359,3.40624e-06
20339,38.0,-17.0,0.000579442,  -969.457E-03,   64.3962E-03,   866.045E-03,0.035178,0.0106313,3.11467e-06
20340,37.0,-17.0,0.00067457,  -959.346E-03,   64.3961E-03,       1.00777,0.033019,0.00998442,2.73786e-06
20345,36.0,-17.0,0.000775503,  -947.970E-03,   64.3959E-03,       1.15805,0.0307287,0.00929795,2.33684e-06
20348,35.0,-17.0,0.000881843,  -935.350E-03,   64.3958E-03,       1.31629,0.0283163,0.0085746,1.96576e-06
20349,34.0,-17.0,0.00099317,  -921.526E-03,   64.3957E-03,       1.48186,0.0257912,0.00781727,1.66394e-06
20354,33.0,-17.0,0.00110904,  -906.557E-03,   64.3957E-03,       1.65410,0.0231635,0.00702901,1.45225e-06
20355,32.0,-17.0,0.001229,  -890.519E-03,   64.3956E-03,       1.83234,0.0204435,0.00621297,1.33119e-06
20360,31.0,-17.0,0.00135258,  -873.507E-03,   64.3956E-03,       2.01586,0.0176419,0.00537241,1.28304e-06
20363,30.0,-17.0,0.00147927,  -855.629E-03,   64.3956E-03,       2.20396,0.0147697,0.00451068,1.27536e-06
20364,29.0,-17.0,0.00160859,  -837.007E-03,   64.3956E-03,       2.39590,0.0118382,0.00363119,1.26681e-06
20369,28.0,-17.0,0.00174002,  -817.777E-03,   64.3956E-03,       2.59092,0.00885895,0.0027374,1.21302e-06
20370,27.0,-17.0,0.00187305,  -798.081E-03,   64.3957E-03,       2.78826,0.0058437,0.00183283,1.07277e-06
20375,26.0,-17.0,0.00200714,  -778.071E-03,   64.3957E-03,       2.98715,0.00280436,0.000921024,8.13003e-07
20378,25.0,-17.0,0.00214176,  -757.903E-03,   64.3958E-03,       3.18683,-0.000247063,5.57066e-06,4.12848e-07
20379,24.0,-17.0,0.00227639,  -737.733E-03,   64.3959E-03,       3.38650,-0.00329849,-0.000909936,-1.34099e-07
20384,23.0,-17.0,0.0024105,  -717.722E-03,   64.3959E-03,       3.58540,-0.00633785,-0.00182189,-8.18852e-07
20385,22.0,-17.0,0.00254354,  -698.025E-03,   64.3960E-03,       3.78275,-0.00935312,-0.0027267,-1.61772e-06
20390,21.0,-17.0,0.00267501,  -678.793E-03,   64.3961E-03,       3.97778,-0.0123324,-0.00362079,-2.4941e-06
20393,20.0,-17.0,0.00280437,  -660.169E-03,   64.3961E-03,       4.16973,-0.0152638,-0.00450062,-3.40145e-06
20394,19.0,-17.0,0.00293111,  -642.288E-03,   64.3962E-03,       4.35785,-0.018136,-0.0053627,-4.28687e-06
20399,18.0,-17.0,0.00305475,  -625.272E-03,   64.3962E-03,       4.54139,-0.0209374,-0.00620363,-5.0954e-06
20400,17.0,-17.0,0.00317478,  -609.230E-03,   64.3962E-03,       4.71965,-0.0236572,-0.00702009,-5.77437e-06
20405,16.0,-17.0,0.00329074,  -594.256E-03,   64.3963E-03,       4.89192,-0.0262846,-0.00780886,-6.27796e-06
20408,15.0,-17.0,0.00340216,  -580.427E-03,   64.3962E-03,       5.05752,-0.0288095,-0.00856685,-6.57122e-06
20409,14.0,-17.0,0.00350861,  -567.802E-03,   64.3962E-03,       5.21579,-0.0312218,-0.00929108,-6.63351e-06
20414,13.0,-17.0,0.00360966,  -556.422E-03,   64.3962E-03,       5.36610,-0.0335123,-0.00997872,-6.46092e-06
20415,12.0,-17.0,0.00370493,  -546.305E-03,   64.3962E-03,       5.50786,-0.0356718,-0.0106271,-6.06719e-06
20420,11.0,-17.0,0.00379402,  -537.454E-03,   64.3962E-03,       5.64050,-0.0376921,-0.0112337,-5.48312e-06
20423,10.0,-17.0,0.00387659,  -529.849E-03,   64.3962E-03,       5.76349,-0.0395651,-0.011796,-4.75418e-06
20424,9.0,-17.0,0.00395232,  -523.450E-03,   64.3962E-03,       5.87632,-0.0412835,-0.012312,-3.93651e-06
20429,8.0,-17.0,0.0040209,  -518.200E-03,   64.3962E-03,       5.97855,-0.0428404,-0.0127795,-3.09158e-06
20430,7.0,-17.0,0.00408206,  -514.023E-03,   64.3963E-03,       6.06976,-0.0442296,-0.0131967,-2.27996e-06
20435,6.0,-17.0,0.00413557,  -510.824E-03,   64.3964E-03,       6.14958,-0.0454454,-0.0135618,-1.55501e-06
20438,5.0,-17.0,0.00418121,  -508.496E-03,   64.3964E-03,       6.21768,-0.046483,-0.0138734,-9.57126e-07
20439,4.0,-17.0,0.00421879,  -506.915E-03,   64.3965E-03,       6.27379,-0.0473378,-0.0141302,-5.09345e-07
20444,3.0,-17.0,0.00424818,  -505.947E-03,   64.3966E-03,       6.31766,-0.0480065,-0.014331,-2.14866e-07
20445,2.0,-17.0,0.00426926,  -505.448E-03,   64.3966E-03,       6.34913,-0.0484862,-0.0144751,-5.69421e-08
20450,1.0,-17.0,0.00428194,  -505.265E-03,   64.3966E-03,       6.36807,-0.0487749,-0.0145618,-1.17479e-09
20453,0.0,-17.0,0.00428617,  -505.241E-03,   64.3966E-03,       6.37439,-0.0488712,-0.0145908,-2.06501e-14
20454,-1.0,-17.0,0.00428194,  -505.217E-03,   64.3966E-03,       6.36807,-0.0487749,-0.0145618,1.17476e-09
20459,-2.0,-17.0,0.00426926,  -505.034E-03,   64.3966E-03,       6.34913,-0.0484862,-0.0144751,5.69421e-08
20460,-3.0,-17.0,0.00424818,  -504.535E-03,   64.3966E-03,       6.31766,-0.0480065,-0.014331,2.14866e-07
20465,-4.0,-17.0,0.00421879,  -503.567E-03,   64.3965E-03,       6.27379,-0.0473378,-0.0141302,5.09345e-07
20468,-5.0,-17.0,0.00418121,  -501.986E-03,   64.3964E-03,       6.21768,-0.046483,-0.0138734,9.57126e-07
20469,-6.0,-17.0,0.00413557,  -499.658E-03,   64.3964E-03,       6.14958,-0.0454454,-0.0135618,1.55501e-06
20474,-7.0,-17.0,0.00408206,  -496.459E-03,   64.3963E-03,       6.06976,-0.0442296,-0.0131967,2.27996e-06
20475,-8.0,-17.0,0.0040209,  -492.282E-03,   64.3962E-03,       5.97855,-0.0428404,-0.0127795,3.09158e-06
20480,-9.0,-17.0,0.00395232,  -487.032E-03,   64.3962E-03,       5.87632,-0.0412835,-0.012312,3.93651e-06
20483,-10.0,-17.0,0.00387659,  -480.633E-03,   64.3962E-03,       5.76349,-0.0395651,-0.011796,4.75418e-06
20484,-11.0,-17.0,0.00379402,  -473.028E-03,   64.3962E-03,       5.64050,-0.0376921,-0.0112337,5.48312e-06
20489,-12.0,-17.0,0.00370493,  -464.177E-03,   64.3962E-03,       5.50786,-0.0356718,-0.0106271,6.06719e-06
20490,-13.0,-17.0,0.00360966,  -454.060E-03,   64.3962E-03,       5.36610,-0.0335123,-0.00997872,6.46092e-06
20495,-14.0,-17.0,0.00350861,  -442.679E-03,   64.3962E-03,       5.21579,-0.0312218,-0.00929108,6.63352e-06
20498,-15.0,-17.0,0.00340216,  -430.054E-03,   64.3962E-03,       5.05752,-0.0288095,-0.00856685,6.57122e-06
20499,-16.0,-17.0,0.00329074,  -416.225E-03,   64.3963E-03,       4.89192,-0.0262846,-0.00780886,6.27796e-06
20504,-17.0,-17.0,0.00317478,  -401.252E-03,   64.3962E-03,       4.71965,-0.0236572,-0.00702009,5.77437e-06
20505,-18.0,-17.0,0.00305475,  -385.210E-03,   64.3962E-03,       4.54139,-0.0209374,-0.00620363,5.0954e-06
20510,-19.0,-17.0,0.00293111,  -368.194E-03,   64.3962E-03,       4.35785,-0.018136,-0.0053627,4.28687e-06
20513,-20.0,-17.0,0.00280437,  -350.313E-03,   64.3961E-03,       4.16973,-0.0152638,-0.00450062,3.40145e-06
20514,-21.0,-17.0,0.00267501,  -331.689E-03,   64.3961E-03,       3.97778,-0.0123324,-0.00362079,2.4941e-06
20519,-22.0,-17.0,0.00254354,  -312.457E-03,   64.3960E-03,       3.78275,-0.00935312,-0.0027267,1.61772e-06
20520,-23.0,-17.0,0.0024105,  -292.759E-03,   64.3959E-03,       3.58540,-0.00633785,-0.00182189,8.18852e-07
20525,-24.0,-17.0,0.00227639,  -272.748E-03,   64.3959E-03,       3.38650,-0.00329849,-0.000909936,1.34099e-07
20528,-25.0,-17.0,0.00214176,  -252.579E-03,   64.3958E-03,       3.18683,-0.000247063,5.57066e-06,-4.12847e-07
20529,-26.0,-17.0,0.00200714,  -232.411E-03,   64.3957E-03,       2.98715,0.00280436,0.000921024,-8.13003e-07
20534,-27.0,-17.0,0.00187305,  -212.400E-03,   64.3957E-03,       2.78826,0.0058437,0.00183283,-1.07277e-06
20535,-28.0,-17.0,0.00174002,  -192.705E-03,   64.3956E-03,       2.59092,0.00885895,0.0027374,-1.21302e-06
20540,-29.0,-17.0,0.00160859,  -173.474E-03,   64.3956E-03,       2.39590,0.0118382,0.00363119,-1.26681e-06
20543,-30.0,-17.0,0.00147927,  -154.853E-03,   64.3956E-03,       2.20396,0.0147697,0.00451068,-1.27536e-06
20544,-31.0,-17.0,0.00135258,  -136.975E-03,   64.3956E-03,       2.01586,0.0176419,0.00537241,-1.28304e-06
20549,-32.0,-17.0,0.001229,  -119.963E-03,   64.3956E-03,       1.83234,0.0204435,0.00621297,-1.33119e-06
20550,-33.0,-17.0,0.00110904,  -103.925E-03,   64.3957E-03,       1.65410,0.0231635,0.00702901,-1.45225e-06
20555,-34.0,-17.0,0.00099317,  -88.9555E-03,   64.3957E-03,       1.48186,0.0257912,0.00781727,-1.66395e-06
20558,-35.0,-17.0,0.000881843,  -75.1313E-03,   64.3958E-03,       1.31629,0.0283163,0.0085746,-1.96576e-06
20559,-36.0,-17.0,0.000775503,  -62.5114E-03,   64.3959E-03,       1.15805,0.0307287,0.00929795,-2.33684e-06
20564,-37.0,-17.0,0.00067457,  -51.1358E-03,   64.3961E-03,       1.00777,0.033019,0.00998442,-2.73786e-06
20565,-38.0,-17.0,0.000579442,  -41.0249E-03,   64.3962E-03,   866.045E-03,0.035178,0.0106313,-3.11467e-06
20570,-39.0,-17.0,0.000490496,  -32.1793E-03,   64.3964E-03,   733.447E-03,0.0371972,0.0112359,-3.40624e-06
20573,-40.0,-17.0,0.000408084,  -24.5794E-03,   64.3965E-03,   610.506E-03,0.0390683,0.0117959,-3.55308e-06
20574,-41.0,-17.0,0.00033252900000000003,  -18.1862E-03,   64.3967E-03,   497.718E-03,0.0407839,0.0123092,-3.50818e-06
20579,-42.0,-17.0,0.000264129,  -12.9414E-03,   64.3969E-03,   395.537E-03,0.042337,0.0127737,-3.24617e-06
20580,-43.0,-17.0,0.000203151,  -8.76857E-03,   64.3971E-03,   304.379E-03,0.0437212,0.0131876,-2.77129e-06
20585,-44.0,-17.0,0.000149834,  -5.57420E-03,   64.3972E-03,   224.611E-03,0.0449309,0.0135493,-2.12229e-06
20588,-45.0,-17.0,0.000104382,  -3.24932E-03,   64.3973E-03,   156.560E-03,0.0459609,0.0138575,-1.37154e-06
20589,-46.0,-17.0,6.69704e-05,  -1.67110E-03,   64.3974E-03,   100.502E-03,0.0468072,0.0141109,-6.22561e-07
20594,-47.0,-17.0,3.7738200000000004e-05,  -704.877E-06,   64.3975E-03,   56.6645E-03,0.0474662,0.0143083,1.98072e-09
20595,-48.0,-17.0,1.67911e-05,  -206.286E-06,   64.3976E-03,   25.2258E-03,0.0479353,0.014449,3.69467e-07
20600,-49.0,-17.0,4.19992e-06,  -23.5641E-06,   64.3976E-03,   6.31258E-03,0.0482127,0.0145324,3.56079e-07
20603,-50.0,-17.0,0.0,  -12.7925E-42,   64.3976E-03,           -0.,0.0483033,0.0145596,2.4018e-07
20604,50.0,-18.0,0.0,      -1.01048,   64.3966E-03,           -0.,0.0483017,0.0145589,-3.22692e-07
20609,49.0,-18.0,4.2109e-06,      -1.01046,   64.3966E-03,   6.31242E-03,0.0482115,0.0145317,-4.95887e-07
20610,48.0,-18.0,1.68347e-05,      -1.01028,   64.3966E-03,   25.2252E-03,0.0479348,0.0144486,-5.7287e-07
20615,47.0,-18.0,3.78356e-05,      -1.00978,   64.3965E-03,   56.6635E-03,0.0474662,0.014308,-1.85757e-07
20618,46.0,-18.0,6.71419e-05,      -1.00881,   64.3965E-03,   100.501E-03,0.0468076,0.0141106,5.12482e-07
20619,45.0,-18.0,0.000104647,      -1.00723,   64.3964E-03,   156.559E-03,0.0459615,0.0138573,1.36421e-06
20624,44.0,-18.0,0.00015021,      -1.00491,   64.3962E-03,   224.610E-03,0.0449314,0.0135492,2.22125e-06
20625,43.0,-18.0,0.00020365599999999998,      -1.00171,   64.3961E-03,   304.377E-03,0.0437217,0.0131875,2.96314e-06
20630,42.0,-18.0,0.000264777,  -997.540E-03,   64.3959E-03,   395.536E-03,0.0423373,0.0127736,3.50402e-06
20633,41.0,-18.0,0.000333336,  -992.296E-03,   64.3957E-03,   497.717E-03,0.0407841,0.0123092,3.79967e-06
20634,40.0,-18.0,0.00040906199999999997,  -985.902E-03,   64.3955E-03,   610.506E-03,0.0390683,0.011796,3.84561e-06
20639,39.0,-18.0,0.0004916580000000001,  -978.302E-03,   64.3953E-03,   733.447E-03,0.037197,0.011236,3.67196e-06
20640,38.0,-18.0,0.000580797,  -969.457E-03,   64.3951E-03,   866.045E-03,0.0351777,0.0106314,3.33445e-06
20645,37.0,-18.0,0.000676127,  -959.346E-03,   64.3949E-03,       1.00777,0.0330187,0.00998459,2.90232e-06
20648,36.0,-18.0,0.0007772710000000001,  -947.970E-03,   64.3948E-03,       1.15805,0.0307284,0.00929814,2.44731e-06
20649,35.0,-18.0,0.0008838289999999999,  -935.350E-03,   64.3947E-03,       1.31629,0.0283161,0.0085748,2.03194e-06
20654,34.0,-18.0,0.000995379,  -921.526E-03,   64.3946E-03,       1.48186,0.0257911,0.00781747,1.70206e-06
20655,33.0,-18.0,0.00111148,  -906.556E-03,   64.3945E-03,       1.65410,0.0231635,0.0070292,1.48111e-06
20660,32.0,-18.0,0.00123167,  -890.519E-03,   64.3945E-03,       1.83234,0.0204436,0.00621315,1.36932e-06
20663,31.0,-18.0,0.00135548,  -873.506E-03,   64.3945E-03,       2.01586,0.017642,0.00537259,1.34514e-06
20664,30.0,-18.0,0.00148241,  -855.628E-03,   64.3945E-03,       2.20396,0.0147698,0.00451085,1.37034e-06
20669,29.0,-18.0,0.00161197,  -837.007E-03,   64.3945E-03,       2.39590,0.0118383,0.00363136,1.39604e-06
20670,28.0,-18.0,0.00174364,  -817.776E-03,   64.3945E-03,       2.59092,0.00885896,0.00273757,1.37021e-06
20675,27.0,-18.0,0.0018769,  -798.081E-03,   64.3945E-03,       2.78826,0.00584358,0.001833,1.24437e-06
20678,26.0,-18.0,0.00201123,  -778.070E-03,   64.3946E-03,       2.98715,0.00280407,0.000921195,9.7979e-07
20679,25.0,-18.0,0.00214609,  -757.902E-03,   64.3946E-03,       3.18683,-0.000247541,5.73805e-06,5.51878e-07
20684,24.0,-18.0,0.00228095,  -737.732E-03,   64.3947E-03,       3.38651,-0.00329916,-0.000909777,-4.69503e-08
20685,23.0,-18.0,0.00241528,  -717.721E-03,   64.3948E-03,       3.58540,-0.00633869,-0.00182175,-8.06382e-07
20690,22.0,-18.0,0.00254856,  -698.024E-03,   64.3949E-03,       3.78275,-0.00935408,-0.00272657,-1.69885e-06
20693,21.0,-18.0,0.00268024,  -678.792E-03,   64.3950E-03,       3.97778,-0.0123334,-0.00362067,-2.68177e-06
20694,20.0,-18.0,0.00280981,  -660.168E-03,   64.3950E-03,       4.16973,-0.0152649,-0.00450051,-3.70089e-06
20699,19.0,-18.0,0.00293677,  -642.287E-03,   64.3951E-03,       4.35785,-0.0181369,-0.00536261,-4.69468e-06
20700,18.0,-18.0,0.00306061,  -625.271E-03,   64.3951E-03,       4.54139,-0.0209382,-0.00620355,-5.5992e-06
20705,17.0,-18.0,0.00318083,  -609.229E-03,   64.3951E-03,       4.71965,-0.0236578,-0.00702002,-6.35348e-06
20708,16.0,-18.0,0.00329698,  -594.256E-03,   64.3951E-03,       4.89192,-0.026285,-0.00780879,-6.90471e-06
20709,15.0,-18.0,0.00340858,  -580.427E-03,   64.3951E-03,       5.05751,-0.0288095,-0.00856678,-7.21309e-06
20714,14.0,-18.0,0.0035152,  -567.802E-03,   64.3951E-03,       5.21578,-0.0312216,-0.00929101,-7.25587e-06
20715,13.0,-18.0,0.00361642,  -556.421E-03,   64.3951E-03,       5.36610,-0.0335117,-0.00997867,-7.02998e-06
20720,12.0,-18.0,0.00371183,  -546.305E-03,   64.3951E-03,       5.50786,-0.0356711,-0.0106271,-6.55312e-06
20723,11.0,-18.0,0.00380106,  -537.454E-03,   64.3951E-03,       5.64049,-0.0376912,-0.0112336,-5.86285e-06
20724,10.0,-18.0,0.00388377,  -529.849E-03,   64.3951E-03,       5.76348,-0.0395641,-0.0117961,-5.01361e-06
20729,9.0,-18.0,0.00395961,  -523.450E-03,   64.3951E-03,       5.87631,-0.0412825,-0.0123121,-4.07189e-06
20730,8.0,-18.0,0.0040283,  -518.200E-03,   64.3952E-03,       5.97854,-0.0428395,-0.0127796,-3.10983e-06
20735,7.0,-18.0,0.00408956,  -514.023E-03,   64.3952E-03,       6.06975,-0.0442289,-0.0131969,-2.19797e-06
20738,6.0,-18.0,0.00414315,  -510.824E-03,   64.3953E-03,       6.14957,-0.045445,-0.0135621,-1.39785e-06
20739,5.0,-18.0,0.00418886,  -508.496E-03,   64.3954E-03,       6.21767,-0.0464827,-0.0138738,-7.55414e-07
20744,4.0,-18.0,0.00422651,  -506.915E-03,   64.3955E-03,       6.27378,-0.0473379,-0.0141306,-2.96018e-07
20745,3.0,-18.0,0.00425594,  -505.947E-03,   64.3955E-03,       6.31765,-0.0480069,-0.0143315,-2.17344e-08
20750,2.0,-18.0,0.00427705,  -505.448E-03,   64.3956E-03,       6.34913,-0.0484868,-0.0144756,8.86566e-08
20753,1.0,-18.0,0.00428975,  -505.265E-03,   64.3956E-03,       6.36806,-0.0487755,-0.0145624,7.68991e-08
20754,4.4275699999999994e-30,-18.0,0.00429399,  -505.241E-03,   64.3956E-03,       6.37438,-0.0488719,-0.0145913,-1.46549e-14
20759,-1.0,-18.0,0.00428975,  -505.217E-03,   64.3956E-03,       6.36806,-0.0487755,-0.0145624,-7.68991e-08
20760,-2.0,-18.0,0.00427705,  -505.034E-03,   64.3956E-03,       6.34913,-0.0484868,-0.0144756,-8.86567e-08
20765,-3.0,-18.0,0.00425594,  -504.535E-03,   64.3955E-03,       6.31765,-0.0480069,-0.0143315,2.17344e-08
20768,-4.0,-18.0,0.00422651,  -503.567E-03,   64.3955E-03,       6.27378,-0.0473379,-0.0141306,2.96018e-07
20769,-5.0,-18.0,0.00418886,  -501.986E-03,   64.3954E-03,       6.21767,-0.0464827,-0.0138738,7.55414e-07
20774,-6.0,-18.0,0.00414315,  -499.657E-03,   64.3953E-03,       6.14957,-0.045445,-0.0135621,1.39785e-06
20775,-7.0,-18.0,0.00408956,  -496.459E-03,   64.3952E-03,       6.06975,-0.0442289,-0.0131969,2.19797e-06
20780,-8.0,-18.0,0.0040283,  -492.282E-03,   64.3952E-03,       5.97854,-0.0428395,-0.0127796,3.10983e-06
20783,-9.0,-18.0,0.00395961,  -487.032E-03,   64.3951E-03,       5.87631,-0.0412825,-0.0123121,4.07189e-06
20784,-10.0,-18.0,0.00388377,  -480.633E-03,   64.3951E-03,       5.76348,-0.0395641,-0.0117961,5.01361e-06
20789,-11.0,-18.0,0.00380106,  -473.028E-03,   64.3951E-03,       5.64049,-0.0376912,-0.0112336,5.86285e-06
20790,-12.0,-18.0,0.00371183,  -464.177E-03,   64.3951E-03,       5.50786,-0.0356711,-0.0106271,6.55312e-06
20795,-13.0,-18.0,0.00361642,  -454.060E-03,   64.3951E-03,       5.36610,-0.0335117,-0.00997867,7.02998e-06
20798,-14.0,-18.0,0.0035152,  -442.680E-03,   64.3951E-03,       5.21578,-0.0312216,-0.00929101,7.25587e-06
20799,-15.0,-18.0,0.00340858,  -430.055E-03,   64.3951E-03,       5.05751,-0.0288095,-0.00856678,7.21309e-06
20804,-16.0,-18.0,0.00329698,  -416.226E-03,   64.3951E-03,       4.89192,-0.026285,-0.00780879,6.90471e-06
20805,-17.0,-18.0,0.00318083,  -401.252E-03,   64.3951E-03,       4.71965,-0.0236578,-0.00702002,6.35348e-06
20810,-18.0,-18.0,0.00306061,  -385.211E-03,   64.3951E-03,       4.54139,-0.0209382,-0.00620355,5.5992e-06
20813,-19.0,-18.0,0.00293677,  -368.195E-03,   64.3951E-03,       4.35785,-0.0181369,-0.00536261,4.69468e-06
20814,-20.0,-18.0,0.00280981,  -350.314E-03,   64.3950E-03,       4.16973,-0.0152649,-0.00450051,3.70089e-06
20819,-21.0,-18.0,0.00268024,  -331.690E-03,   64.3950E-03,       3.97778,-0.0123334,-0.00362067,2.68177e-06
20820,-22.0,-18.0,0.00254856,  -312.458E-03,   64.3949E-03,       3.78275,-0.00935408,-0.00272657,1.69885e-06
20825,-23.0,-18.0,0.00241528,  -292.761E-03,   64.3948E-03,       3.58540,-0.00633869,-0.00182175,8.06382e-07
20828,-24.0,-18.0,0.00228095,  -272.749E-03,   64.3947E-03,       3.38651,-0.00329916,-0.000909777,4.69504e-08
20829,-25.0,-18.0,0.00214609,  -252.580E-03,   64.3946E-03,       3.18683,-0.000247541,5.73805e-06,-5.51878e-07
20834,-26.0,-18.0,0.00201123,  -232.411E-03,   64.3946E-03,       2.98715,0.00280407,0.000921195,-9.7979e-07
20835,-27.0,-18.0,0.0018769,  -212.401E-03,   64.3945E-03,       2.78826,0.00584358,0.001833,-1.24437e-06
20840,-28.0,-18.0,0.00174364,  -192.705E-03,   64.3945E-03,       2.59092,0.00885896,0.00273757,-1.37021e-06
20843,-29.0,-18.0,0.00161197,  -173.475E-03,   64.3945E-03,       2.39590,0.0118383,0.00363136,-1.39604e-06
20844,-30.0,-18.0,0.00148241,  -154.854E-03,   64.3945E-03,       2.20396,0.0147698,0.00451085,-1.37034e-06
20849,-31.0,-18.0,0.00135548,  -136.975E-03,   64.3945E-03,       2.01586,0.017642,0.00537259,-1.34514e-06
20850,-32.0,-18.0,0.00123167,  -119.963E-03,   64.3945E-03,       1.83234,0.0204436,0.00621315,-1.36932e-06
20855,-33.0,-18.0,0.00111148,  -103.925E-03,   64.3945E-03,       1.65410,0.0231635,0.0070292,-1.48111e-06
20858,-34.0,-18.0,0.000995379,  -88.9559E-03,   64.3946E-03,       1.48186,0.0257911,0.00781747,-1.70206e-06
20859,-35.0,-18.0,0.0008838289999999999,  -75.1317E-03,   64.3947E-03,       1.31629,0.0283161,0.0085748,-2.03194e-06
20864,-36.0,-18.0,0.0007772710000000001,  -62.5118E-03,   64.3948E-03,       1.15805,0.0307284,0.00929814,-2.44731e-06
20865,-37.0,-18.0,0.000676127,  -51.1361E-03,   64.3949E-03,       1.00777,0.0330187,0.00998459,-2.90232e-06
20870,-38.0,-18.0,0.000580797,  -41.0252E-03,   64.3951E-03,   866.045E-03,0.0351777,0.0106314,-3.33445e-06
20873,-39.0,-18.0,0.0004916580000000001,  -32.1795E-03,   64.3953E-03,   733.447E-03,0.037197,0.011236,-3.67196e-06
20874,-40.0,-18.0,0.00040906199999999997,  -24.5796E-03,   64.3955E-03,   610.506E-03,0.0390683,0.011796,-3.84561e-06
20879,-41.0,-18.0,0.000333336,  -18.1863E-03,   64.3957E-03,   497.717E-03,0.0407841,0.0123092,-3.79967e-06
20880,-42.0,-18.0,0.000264777,  -12.9415E-03,   64.3959E-03,   395.536E-03,0.0423373,0.0127736,-3.50402e-06
20885,-43.0,-18.0,0.00020365599999999998,  -8.76857E-03,   64.3961E-03,   304.377E-03,0.0437217,0.0131875,-2.96314e-06
20888,-44.0,-18.0,0.00015021,  -5.57418E-03,   64.3962E-03,   224.610E-03,0.0449314,0.0135492,-2.22125e-06
20889,-45.0,-18.0,0.000104647,  -3.24928E-03,   64.3964E-03,   156.559E-03,0.0459615,0.0138573,-1.36421e-06
20894,-46.0,-18.0,6.71419e-05,  -1.67107E-03,   64.3965E-03,   100.501E-03,0.0468076,0.0141106,-5.12482e-07
20895,-47.0,-18.0,3.78356e-05,  -704.864E-06,   64.3965E-03,   56.6635E-03,0.0474662,0.014308,1.85757e-07
20900,-48.0,-18.0,1.68347e-05,  -206.283E-06,   64.3966E-03,   25.2252E-03,0.0479348,0.0144486,5.7287e-07
20903,-49.0,-18.0,4.2109e-06,  -23.5656E-06,   64.3966E-03,   6.31242E-03,0.0482115,0.0145317,4.95887e-07
20904,-50.0,-18.0,0.0,  -12.8065E-42,   64.3966E-03,           -0.,0.0483017,0.0145589,3.22692e-07
20909,50.0,-19.0,0.0,      -1.01048,   64.3956E-03,           -0.,0.0482999,0.0145581,-4.26042e-07
20910,49.0,-19.0,4.2228e-06,      -1.01046,   64.3956E-03,   6.31222E-03,0.0482101,0.0145311,-6.66618e-07
20915,48.0,-19.0,1.6882000000000002e-05,      -1.01028,   64.3956E-03,   25.2246E-03,0.0479343,0.0144481,-8.25262e-07
20918,47.0,-19.0,3.7941e-05,      -1.00978,   64.3956E-03,   56.6623E-03,0.0474663,0.0143077,-4.23048e-07
20919,46.0,-19.0,6.73272e-05,      -1.00881,   64.3955E-03,   100.499E-03,0.046808,0.0141103,3.55764e-07
20924,45.0,-19.0,0.00010493299999999999,      -1.00723,   64.3954E-03,   156.557E-03,0.0459621,0.0138571,1.31989e-06
20925,44.0,-19.0,0.000150615,      -1.00491,   64.3952E-03,   224.608E-03,0.0449321,0.013549,2.29678e-06
20930,43.0,-19.0,0.00020419900000000001,      -1.00171,   64.3950E-03,   304.375E-03,0.0437223,0.0131874,3.14293e-06
20933,42.0,-19.0,0.000265475,  -997.540E-03,   64.3948E-03,   395.535E-03,0.0423377,0.0127736,3.75982e-06
20934,41.0,-19.0,0.00033420300000000004,  -992.295E-03,   64.3946E-03,   497.716E-03,0.0407842,0.0123092,4.09552e-06
20939,40.0,-19.0,0.00041011199999999997,  -985.902E-03,   64.3944E-03,   610.506E-03,0.0390682,0.011796,4.14549e-06
20940,39.0,-19.0,0.000492903,  -978.302E-03,   64.3942E-03,   733.447E-03,0.0371967,0.0112361,3.94526e-06
20945,38.0,-19.0,0.000582249,  -969.456E-03,   64.3940E-03,   866.046E-03,0.0351773,0.0106315,3.55934e-06
20948,37.0,-19.0,0.000677795,  -959.345E-03,   64.3938E-03,       1.00777,0.0330182,0.00998473,3.06873e-06
20949,36.0,-19.0,0.000779163,  -947.970E-03,   64.3937E-03,       1.15805,0.030728,0.0092983,2.55599e-06
20954,35.0,-19.0,0.000885953,  -935.350E-03,   64.3936E-03,       1.31629,0.0283158,0.00857497,2.09392e-06
20955,34.0,-19.0,0.0009977410000000001,  -921.525E-03,   64.3935E-03,       1.48186,0.0257909,0.00781765,1.73486e-06
20960,33.0,-19.0,0.00111408,  -906.556E-03,   64.3934E-03,       1.65410,0.0231635,0.00702938,1.50589e-06
20963,32.0,-19.0,0.00123452,  -890.518E-03,   64.3933E-03,       1.83234,0.0204437,0.00621334,1.40646e-06
20964,31.0,-19.0,0.00135858,  -873.506E-03,   64.3933E-03,       2.01586,0.0176422,0.00537278,1.41129e-06
20969,30.0,-19.0,0.00148577,  -855.628E-03,   64.3933E-03,       2.20396,0.01477,0.00451105,1.47536e-06
20970,29.0,-19.0,0.00161558,  -837.006E-03,   64.3933E-03,       2.39590,0.0118385,0.00363156,1.54167e-06
20975,28.0,-19.0,0.0017475,  -817.776E-03,   64.3933E-03,       2.59092,0.00885901,0.00273777,1.54931e-06
20978,27.0,-19.0,0.00188101,  -798.080E-03,   64.3934E-03,       2.78826,0.00584347,0.0018332,1.44172e-06
20979,26.0,-19.0,0.00201559,  -778.070E-03,   64.3934E-03,       2.98716,0.00280377,0.000921398,1.17354e-06
20984,25.0,-19.0,0.0021507,  -757.901E-03,   64.3935E-03,       3.18683,-0.000248061,5.93591e-06,7.15942e-07
20985,24.0,-19.0,0.00228581,  -737.731E-03,   64.3936E-03,       3.38651,-0.00329989,-0.000909589,5.985e-08
20990,23.0,-19.0,0.00242039,  -717.720E-03,   64.3936E-03,       3.58541,-0.00633962,-0.00182157,-7.82862e-07
20993,22.0,-19.0,0.0025539,  -698.023E-03,   64.3937E-03,       3.78275,-0.00935516,-0.00272642,-1.78022e-06
20994,21.0,-19.0,0.00268582,  -678.791E-03,   64.3938E-03,       3.97778,-0.0123346,-0.00362054,-2.88262e-06
20999,20.0,-19.0,0.00281562,  -660.167E-03,   64.3939E-03,       4.16973,-0.015266,-0.0045004,-4.02692e-06
21000,19.0,-19.0,0.0029428,  -642.286E-03,   64.3939E-03,       4.35784,-0.018138,-0.00536251,-5.14147e-06
21005,18.0,-19.0,0.00306685,  -625.270E-03,   64.3940E-03,       4.54139,-0.0209392,-0.00620347,-6.15204e-06
21008,17.0,-19.0,0.00318729,  -609.228E-03,   64.3940E-03,       4.71965,-0.0236585,-0.00701995,-6.9881e-06
21009,16.0,-19.0,0.00330363,  -594.255E-03,   64.3940E-03,       4.89191,-0.0262854,-0.00780873,-7.58906e-06
21014,15.0,-19.0,0.00341543,  -580.427E-03,   64.3940E-03,       5.05751,-0.0288096,-0.00856672,-7.90991e-06
21015,14.0,-19.0,0.00352223,  -567.802E-03,   64.3940E-03,       5.21578,-0.0312213,-0.00929096,-7.92588e-06
21020,13.0,-19.0,0.00362362,  -556.421E-03,   64.3940E-03,       5.36609,-0.0335111,-0.00997863,-7.63545e-06
21023,12.0,-19.0,0.00371919,  -546.305E-03,   64.3940E-03,       5.50785,-0.0356702,-0.010627,-7.06136e-06
21024,11.0,-19.0,0.00380858,  -537.454E-03,   64.3940E-03,       5.64049,-0.0376901,-0.0112337,-6.24928e-06
21029,10.0,-19.0,0.00389142,  -529.849E-03,   64.3940E-03,       5.76347,-0.039563,-0.0117961,-5.26411e-06
21030,9.0,-19.0,0.00396739,  -523.450E-03,   64.3941E-03,       5.87630,-0.0412814,-0.0123122,-4.18411e-06
21035,8.0,-19.0,0.0040362,  -518.200E-03,   64.3941E-03,       5.97853,-0.0428385,-0.0127798,-3.09333e-06
21036,7.0,-19.0,0.00409756,  -514.023E-03,   64.3942E-03,       6.06974,-0.0442281,-0.0131971,-2.07316e-06
21041,6.0,-19.0,0.00415124,  -510.824E-03,   64.3943E-03,       6.14956,-0.0454444,-0.0135624,-1.19382e-06
21042,5.0,-19.0,0.00419702,  -508.496E-03,   64.3943E-03,       6.21766,-0.0464825,-0.0138741,-5.06934e-07
21047,4.0,-19.0,0.00423473,  -506.915E-03,   64.3944E-03,       6.27377,-0.047338,-0.014131,-3.99653e-08
21050,3.0,-19.0,0.00426422,  -505.947E-03,   64.3945E-03,       6.31765,-0.0480073,-0.014332,2.06651e-07
21051,2.0,-19.0,0.00428536,  -505.448E-03,   64.3946E-03,       6.34912,-0.0484874,-0.0144762,2.59322e-07
21056,1.0,-19.0,0.00429808,  -505.265E-03,   64.3946E-03,       6.36805,-0.0487763,-0.0145629,1.67982e-07
21057,0.0,-19.0,0.00430233,  -505.241E-03,   64.3946E-03,       6.37437,-0.0488728,-0.0145919,-3.55271e-15
21062,-1.0,-19.0,0.00429808,  -505.217E-03,   64.3946E-03,       6.36805,-0.0487763,-0.0145629,-1.67982e-07
21065,-2.0,-19.0,0.00428536,  -505.034E-03,   64.3946E-03,       6.34912,-0.0484874,-0.0144762,-2.59322e-07
21066,-3.0,-19.0,0.00426422,  -504.535E-03,   64.3945E-03,       6.31765,-0.0480073,-0.014332,-2.06651e-07
21071,-4.0,-19.0,0.00423473,  -503.567E-03,   64.3944E-03,       6.27377,-0.047338,-0.014131,3.99653e-08
21072,-5.0,-19.0,0.00419702,  -501.986E-03,   64.3943E-03,       6.21766,-0.0464825,-0.0138741,5.06934e-07
21077,-6.0,-19.0,0.00415124,  -499.657E-03,   64.3943E-03,       6.14956,-0.0454444,-0.0135624,1.19382e-06
21080,-7.0,-19.0,0.00409756,  -496.459E-03,   64.3942E-03,       6.06974,-0.0442281,-0.0131971,2.07316e-06
21081,-8.0,-19.0,0.0040362,  -492.281E-03,   64.3941E-03,       5.97853,-0.0428385,-0.0127798,3.09333e-06
21086,-9.0,-19.0,0.00396739,  -487.031E-03,   64.3941E-03,       5.87630,-0.0412814,-0.0123122,4.18411e-06
21087,-10.0,-19.0,0.00389142,  -480.633E-03,   64.3940E-03,       5.76347,-0.039563,-0.0117961,5.26411e-06
21092,-11.0,-19.0,0.00380858,  -473.028E-03,   64.3940E-03,       5.64049,-0.0376901,-0.0112337,6.24928e-06
21095,-12.0,-19.0,0.00371919,  -464.177E-03,   64.3940E-03,       5.50785,-0.0356702,-0.010627,7.06136e-06
21096,-13.0,-19.0,0.00362362,  -454.061E-03,   64.3940E-03,       5.36609,-0.0335111,-0.00997863,7.63545e-06
21101,-14.0,-19.0,0.00352223,  -442.680E-03,   64.3940E-03,       5.21578,-0.0312213,-0.00929096,7.92588e-06
21102,-15.0,-19.0,0.00341543,  -430.055E-03,   64.3940E-03,       5.05751,-0.0288096,-0.00856672,7.90991e-06
21107,-16.0,-19.0,0.00330363,  -416.227E-03,   64.3940E-03,       4.89191,-0.0262854,-0.00780873,7.58906e-06
21110,-17.0,-19.0,0.00318729,  -401.253E-03,   64.3940E-03,       4.71965,-0.0236585,-0.00701995,6.9881e-06
21111,-18.0,-19.0,0.00306685,  -385.212E-03,   64.3940E-03,       4.54139,-0.0209392,-0.00620347,6.15204e-06
21116,-19.0,-19.0,0.0029428,  -368.196E-03,   64.3939E-03,       4.35784,-0.018138,-0.00536251,5.14147e-06
21117,-20.0,-19.0,0.00281562,  -350.315E-03,   64.3939E-03,       4.16973,-0.015266,-0.0045004,4.02692e-06
21122,-21.0,-19.0,0.00268582,  -331.691E-03,   64.3938E-03,       3.97778,-0.0123346,-0.00362054,2.88262e-06
21125,-22.0,-19.0,0.0025539,  -312.459E-03,   64.3937E-03,       3.78275,-0.00935516,-0.00272642,1.78022e-06
21126,-23.0,-19.0,0.00242039,  -292.762E-03,   64.3936E-03,       3.58541,-0.00633962,-0.00182157,7.82862e-07
21131,-24.0,-19.0,0.00228581,  -272.750E-03,   64.3936E-03,       3.38651,-0.00329989,-0.000909589,-5.985e-08
21132,-25.0,-19.0,0.0021507,  -252.581E-03,   64.3935E-03,       3.18683,-0.000248061,5.93591e-06,-7.15942e-07
21137,-26.0,-19.0,0.00201559,  -232.412E-03,   64.3934E-03,       2.98716,0.00280377,0.000921398,-1.17354e-06
21140,-27.0,-19.0,0.00188101,  -212.402E-03,   64.3934E-03,       2.78826,0.00584347,0.0018332,-1.44172e-06
21141,-28.0,-19.0,0.0017475,  -192.706E-03,   64.3933E-03,       2.59092,0.00885901,0.00273777,-1.54931e-06
21146,-29.0,-19.0,0.00161558,  -173.476E-03,   64.3933E-03,       2.39590,0.0118385,0.00363156,-1.54167e-06
21147,-30.0,-19.0,0.00148577,  -154.854E-03,   64.3933E-03,       2.20396,0.01477,0.00451105,-1.47536e-06
21152,-31.0,-19.0,0.00135858,  -136.976E-03,   64.3933E-03,       2.01586,0.0176422,0.00537278,-1.41129e-06
21155,-32.0,-19.0,0.00123452,  -119.964E-03,   64.3933E-03,       1.83234,0.0204437,0.00621334,-1.40646e-06
21156,-33.0,-19.0,0.00111408,  -103.926E-03,   64.3934E-03,       1.65410,0.0231635,0.00702938,-1.50589e-06
21161,-34.0,-19.0,0.0009977410000000001,  -88.9563E-03,   64.3935E-03,       1.48186,0.0257909,0.00781765,-1.73486e-06
21162,-35.0,-19.0,0.000885953,  -75.1322E-03,   64.3936E-03,       1.31629,0.0283158,0.00857497,-2.09392e-06
21167,-36.0,-19.0,0.000779163,  -62.5122E-03,   64.3937E-03,       1.15805,0.030728,0.0092983,-2.55599e-06
21170,-37.0,-19.0,0.000677795,  -51.1365E-03,   64.3938E-03,       1.00777,0.0330182,0.00998473,-3.06873e-06
21171,-38.0,-19.0,0.000582249,  -41.0255E-03,   64.3940E-03,   866.046E-03,0.0351773,0.0106315,-3.55934e-06
21176,-39.0,-19.0,0.000492903,  -32.1797E-03,   64.3942E-03,   733.447E-03,0.0371967,0.0112361,-3.94526e-06
21177,-40.0,-19.0,0.00041011199999999997,  -24.5798E-03,   64.3944E-03,   610.506E-03,0.0390682,0.011796,-4.14549e-06
21182,-41.0,-19.0,0.00033420300000000004,  -18.1864E-03,   64.3946E-03,   497.716E-03,0.0407842,0.0123092,-4.09552e-06
21185,-42.0,-19.0,0.000265475,  -12.9415E-03,   64.3948E-03,   395.535E-03,0.0423377,0.0127736,-3.75982e-06
21186,-43.0,-19.0,0.00020419900000000001,  -8.76857E-03,   64.3950E-03,   304.375E-03,0.0437223,0.0131874,-3.14293e-06
21191,-44.0,-19.0,0.000150615,  -5.57415E-03,   64.3952E-03,   224.608E-03,0.0449321,0.013549,-2.29678e-06
21192,-45.0,-19.0,0.00010493299999999999,  -3.24925E-03,   64.3954E-03,   156.557E-03,0.0459621,0.0138571,-1.31989e-06
21197,-46.0,-19.0,6.73272e-05,  -1.67104E-03,   64.3955E-03,   100.499E-03,0.046808,0.0141103,-3.55764e-07
21200,-47.0,-19.0,3.7941e-05,  -704.849E-06,   64.3956E-03,   56.6623E-03,0.0474663,0.0143077,4.23048e-07
21201,-48.0,-19.0,1.6882000000000002e-05,  -206.280E-06,   64.3956E-03,   25.2246E-03,0.0479343,0.0144481,8.25262e-07
21206,-49.0,-19.0,4.2228e-06,  -23.5677E-06,   64.3956E-03,   6.31222E-03,0.0482101,0.0145311,6.66617e-07
21207,-50.0,-19.0,0.0,  -12.8261E-42,   64.3956E-03,           -0.,0.0482999,0.0145581,4.26042e-07
21212,50.0,-20.0,0.0,      -1.01048,   64.3947E-03,           -0.,0.0482977,0.0145573,-5.46619e-07
21215,49.0,-20.0,4.2356699999999995e-06,      -1.01046,   64.3947E-03,   6.31199E-03,0.0482085,0.0145304,-8.73924e-07
21216,48.0,-20.0,1.69331e-05,      -1.01028,   64.3946E-03,   25.2238E-03,0.0479337,0.0144477,-1.13496e-06
21221,47.0,-20.0,3.80548e-05,      -1.00978,   64.3946E-03,   56.6609E-03,0.0474664,0.0143074,-7.21779e-07
21222,46.0,-20.0,6.75269e-05,      -1.00881,   64.3945E-03,   100.497E-03,0.0468086,0.0141102,1.41207e-07
21227,45.0,-20.0,0.00010524,      -1.00723,   64.3944E-03,   156.555E-03,0.0459629,0.013857,1.23021e-06
21230,44.0,-20.0,0.00015105200000000002,      -1.00491,   64.3942E-03,   224.606E-03,0.0449329,0.0135489,2.33909e-06
21231,43.0,-20.0,0.000204783,      -1.00171,   64.3940E-03,   304.374E-03,0.0437229,0.0131873,3.30344e-06
21236,42.0,-20.0,0.000266224,  -997.540E-03,   64.3938E-03,   395.534E-03,0.0423381,0.0127735,4.00705e-06
21237,41.0,-20.0,0.000335132,  -992.295E-03,   64.3936E-03,   497.716E-03,0.0407843,0.0123091,4.39104e-06
21242,40.0,-20.0,0.00041123699999999995,  -985.902E-03,   64.3933E-03,   610.506E-03,0.039068,0.011796,4.4499e-06
21245,39.0,-20.0,0.000494236,  -978.302E-03,   64.3931E-03,   733.448E-03,0.0371963,0.0112361,4.22448e-06
21246,38.0,-20.0,0.000583801,  -969.456E-03,   64.3929E-03,   866.046E-03,0.0351768,0.0106316,3.78965e-06
21251,37.0,-20.0,0.0006795760000000001,  -959.345E-03,   64.3927E-03,       1.00777,0.0330177,0.00998482,3.23801e-06
21252,36.0,-20.0,0.0007811830000000001,  -947.969E-03,   64.3925E-03,       1.15805,0.0307275,0.00929841,2.6652e-06
21257,35.0,-20.0,0.0008882180000000001,  -935.349E-03,   64.3924E-03,       1.31629,0.0283154,0.00857511,2.15418e-06
21260,34.0,-20.0,0.00100026,  -921.525E-03,   64.3923E-03,       1.48186,0.0257907,0.00781781,1.76552e-06
21261,33.0,-20.0,0.00111686,  -906.556E-03,   64.3922E-03,       1.65410,0.0231634,0.00702956,1.52962e-06
21266,32.0,-20.0,0.00123756,  -890.518E-03,   64.3922E-03,       1.83234,0.0204438,0.00621353,1.44588e-06
21267,31.0,-20.0,0.00136188,  -873.505E-03,   64.3922E-03,       2.01586,0.0176424,0.00537299,1.4846e-06
21272,30.0,-20.0,0.00148933,  -855.627E-03,   64.3921E-03,       2.20396,0.0147703,0.00451127,1.59372e-06
21275,29.0,-20.0,0.00161941,  -837.006E-03,   64.3922E-03,       2.39590,0.0118387,0.00363179,1.707e-06
21276,28.0,-20.0,0.0017516,  -817.775E-03,   64.3922E-03,       2.59092,0.0088591,0.00273801,1.7538e-06
21281,27.0,-20.0,0.00188539,  -798.079E-03,   64.3922E-03,       2.78826,0.00584339,0.00183345,1.66826e-06
21282,26.0,-20.0,0.00202023,  -778.069E-03,   64.3923E-03,       2.98716,0.00280345,0.000921643,1.3975e-06
21287,25.0,-20.0,0.00215561,  -757.900E-03,   64.3923E-03,       3.18683,-0.000248625,6.17282e-06,9.07664e-07
21290,24.0,-20.0,0.00229098,  -737.730E-03,   64.3924E-03,       3.38651,-0.00330071,-0.000909366,1.87918e-07
21291,23.0,-20.0,0.00242581,  -717.719E-03,   64.3925E-03,       3.58541,-0.00634066,-0.00182137,-7.48195e-07
21296,22.0,-20.0,0.00255958,  -698.022E-03,   64.3926E-03,       3.78276,-0.00935637,-0.00272623,-1.86355e-06
21297,21.0,-20.0,0.00269175,  -678.789E-03,   64.3927E-03,       3.97778,-0.0123359,-0.00362038,-3.10044e-06
21302,20.0,-20.0,0.00282179,  -660.165E-03,   64.3927E-03,       4.16973,-0.0152674,-0.00450027,-4.38525e-06
21305,19.0,-20.0,0.00294921,  -642.285E-03,   64.3928E-03,       4.35784,-0.0181392,-0.0053624,-5.63456e-06
21306,18.0,-20.0,0.00307349,  -625.269E-03,   64.3929E-03,       4.54139,-0.0209402,-0.00620338,-6.76221e-06
21311,17.0,-20.0,0.00319415,  -609.228E-03,   64.3929E-03,       4.71964,-0.0236592,-0.00701987,-7.68678e-06
21312,16.0,-20.0,0.00331071,  -594.254E-03,   64.3929E-03,       4.89191,-0.0262858,-0.00780867,-8.33896e-06
21317,15.0,-20.0,0.00342271,  -580.426E-03,   64.3929E-03,       5.05750,-0.0288096,-0.00856668,-8.66826e-06
21320,14.0,-20.0,0.0035297,  -567.802E-03,   64.3929E-03,       5.21577,-0.031221,-0.00929094,-8.64825e-06
21321,13.0,-20.0,0.00363128,  -556.421E-03,   64.3929E-03,       5.36608,-0.0335105,-0.00997862,-8.27987e-06
21326,12.0,-20.0,0.00372702,  -546.305E-03,   64.3929E-03,       5.50784,-0.0356693,-0.0106271,-7.59229e-06
21327,11.0,-20.0,0.00381657,  -537.454E-03,   64.3929E-03,       5.64048,-0.037689,-0.0112337,-6.64094e-06
21332,10.0,-20.0,0.00389956,  -529.849E-03,   64.3930E-03,       5.76346,-0.0395618,-0.0117962,-5.5029e-06
21335,9.0,-20.0,0.00397567,  -523.450E-03,   64.3930E-03,       5.87629,-0.0412802,-0.0123123,-4.26971e-06
21336,8.0,-20.0,0.0040446,  -518.201E-03,   64.3931E-03,       5.97852,-0.0428374,-0.01278,-3.03858e-06
21341,7.0,-20.0,0.00410607,  -514.023E-03,   64.3931E-03,       6.06973,-0.0442272,-0.0131974,-1.90248e-06
21342,6.0,-20.0,0.00415985,  -510.825E-03,   64.3932E-03,       6.14955,-0.0454439,-0.0135627,-9.40677e-07
21347,5.0,-20.0,0.00420571,  -508.496E-03,   64.3933E-03,       6.21765,-0.0464823,-0.0138745,-2.10347e-07
21350,4.0,-20.0,0.00424349,  -506.915E-03,   64.3934E-03,       6.27376,-0.0473382,-0.0141315,2.59359e-07
21351,3.0,-20.0,0.00427303,  -505.947E-03,   64.3935E-03,       6.31764,-0.0480077,-0.0143325,4.70297e-07
21356,2.0,-20.0,0.00429421,  -505.448E-03,   64.3936E-03,       6.34911,-0.0484881,-0.0144767,4.54828e-07
21357,1.0,-20.0,0.00430695,  -505.265E-03,   64.3936E-03,       6.36805,-0.0487772,-0.0145635,2.71884e-07
21362,2.78867e-30,-20.0,0.00431121,  -505.241E-03,   64.3936E-03,       6.37437,-0.0488737,-0.0145925,-1.24345e-14
21365,-1.0,-20.0,0.00430695,  -505.217E-03,   64.3936E-03,       6.36805,-0.0487772,-0.0145635,-2.71884e-07
21366,-2.0,-20.0,0.00429421,  -505.034E-03,   64.3936E-03,       6.34911,-0.0484881,-0.0144767,-4.54828e-07
21371,-3.0,-20.0,0.00427303,  -504.534E-03,   64.3935E-03,       6.31764,-0.0480077,-0.0143325,-4.70297e-07
21372,-4.0,-20.0,0.00424349,  -503.566E-03,   64.3934E-03,       6.27376,-0.0473382,-0.0141315,-2.59359e-07
21377,-5.0,-20.0,0.00420571,  -501.986E-03,   64.3933E-03,       6.21765,-0.0464823,-0.0138745,2.10347e-07
21380,-6.0,-20.0,0.00415985,  -499.657E-03,   64.3932E-03,       6.14955,-0.0454439,-0.0135627,9.40677e-07
21381,-7.0,-20.0,0.00410607,  -496.459E-03,   64.3931E-03,       6.06973,-0.0442272,-0.0131974,1.90248e-06
21386,-8.0,-20.0,0.0040446,  -492.281E-03,   64.3931E-03,       5.97852,-0.0428374,-0.01278,3.03858e-06
21387,-9.0,-20.0,0.00397567,  -487.031E-03,   64.3930E-03,       5.87629,-0.0412802,-0.0123123,4.26971e-06
21392,-10.0,-20.0,0.00389956,  -480.633E-03,   64.3930E-03,       5.76346,-0.0395618,-0.0117962,5.5029e-06
21395,-11.0,-20.0,0.00381657,  -473.028E-03,   64.3929E-03,       5.64048,-0.037689,-0.0112337,6.64094e-06
21396,-12.0,-20.0,0.00372702,  -464.177E-03,   64.3929E-03,       5.50784,-0.0356693,-0.0106271,7.59229e-06
21401,-13.0,-20.0,0.00363128,  -454.061E-03,   64.3929E-03,       5.36608,-0.0335105,-0.00997862,8.27987e-06
21402,-14.0,-20.0,0.0035297,  -442.680E-03,   64.3929E-03,       5.21577,-0.031221,-0.00929094,8.64825e-06
21407,-15.0,-20.0,0.00342271,  -430.056E-03,   64.3929E-03,       5.05750,-0.0288096,-0.00856668,8.66826e-06
21410,-16.0,-20.0,0.00331071,  -416.227E-03,   64.3929E-03,       4.89191,-0.0262858,-0.00780867,8.33896e-06
21411,-17.0,-20.0,0.00319415,  -401.254E-03,   64.3929E-03,       4.71964,-0.0236592,-0.00701987,7.68678e-06
21416,-18.0,-20.0,0.00307349,  -385.213E-03,   64.3929E-03,       4.54139,-0.0209402,-0.00620338,6.76221e-06
21417,-19.0,-20.0,0.00294921,  -368.197E-03,   64.3928E-03,       4.35784,-0.0181392,-0.0053624,5.63456e-06
21422,-20.0,-20.0,0.00282179,  -350.316E-03,   64.3927E-03,       4.16973,-0.0152674,-0.00450027,4.38525e-06
21425,-21.0,-20.0,0.00269175,  -331.693E-03,   64.3927E-03,       3.97778,-0.0123359,-0.00362038,3.10044e-06
21426,-22.0,-20.0,0.00255958,  -312.460E-03,   64.3926E-03,       3.78276,-0.00935637,-0.00272623,1.86355e-06
21431,-23.0,-20.0,0.00242581,  -292.763E-03,   64.3925E-03,       3.58541,-0.00634066,-0.00182137,7.48195e-07
21432,-24.0,-20.0,0.00229098,  -272.752E-03,   64.3924E-03,       3.38651,-0.00330071,-0.000909366,-1.87918e-07
21437,-25.0,-20.0,0.00215561,  -252.582E-03,   64.3923E-03,       3.18683,-0.000248625,6.17282e-06,-9.07664e-07
21440,-26.0,-20.0,0.00202023,  -232.413E-03,   64.3923E-03,       2.98716,0.00280345,0.000921643,-1.3975e-06
21441,-27.0,-20.0,0.00188539,  -212.403E-03,   64.3922E-03,       2.78826,0.00584339,0.00183345,-1.66826e-06
21446,-28.0,-20.0,0.0017516,  -192.707E-03,   64.3922E-03,       2.59092,0.0088591,0.00273801,-1.7538e-06
21447,-29.0,-20.0,0.00161941,  -173.476E-03,   64.3922E-03,       2.39590,0.0118387,0.00363179,-1.707e-06
21452,-30.0,-20.0,0.00148933,  -154.855E-03,   64.3921E-03,       2.20396,0.0147703,0.00451127,-1.59372e-06
21455,-31.0,-20.0,0.00136188,  -136.976E-03,   64.3922E-03,       2.01586,0.0176424,0.00537299,-1.4846e-06
21456,-32.0,-20.0,0.00123756,  -119.964E-03,   64.3922E-03,       1.83234,0.0204438,0.00621353,-1.44588e-06
21461,-33.0,-20.0,0.00111686,  -103.926E-03,   64.3922E-03,       1.65410,0.0231634,0.00702956,-1.52962e-06
21462,-34.0,-20.0,0.00100026,  -88.9568E-03,   64.3923E-03,       1.48186,0.0257907,0.00781781,-1.76552e-06
21467,-35.0,-20.0,0.0008882180000000001,  -75.1327E-03,   64.3924E-03,       1.31629,0.0283154,0.00857511,-2.15418e-06
21470,-36.0,-20.0,0.0007811830000000001,  -62.5127E-03,   64.3925E-03,       1.15805,0.0307275,0.00929841,-2.6652e-06
21471,-37.0,-20.0,0.0006795760000000001,  -51.1370E-03,   64.3927E-03,       1.00777,0.0330177,0.00998482,-3.23801e-06
21476,-38.0,-20.0,0.000583801,  -41.0259E-03,   64.3929E-03,   866.046E-03,0.0351768,0.0106316,-3.78965e-06
21477,-39.0,-20.0,0.000494236,  -32.1801E-03,   64.3931E-03,   733.448E-03,0.0371963,0.0112361,-4.22448e-06
21482,-40.0,-20.0,0.00041123699999999995,  -24.5800E-03,   64.3933E-03,   610.506E-03,0.039068,0.011796,-4.4499e-06
21485,-41.0,-20.0,0.000335132,  -18.1866E-03,   64.3936E-03,   497.716E-03,0.0407843,0.0123091,-4.39104e-06
21486,-42.0,-20.0,0.000266224,  -12.9416E-03,   64.3938E-03,   395.534E-03,0.0423381,0.0127735,-4.00705e-06
21491,-43.0,-20.0,0.000204783,  -8.76858E-03,   64.3940E-03,   304.374E-03,0.0437229,0.0131873,-3.30344e-06
21492,-44.0,-20.0,0.00015105200000000002,  -5.57413E-03,   64.3942E-03,   224.606E-03,0.0449329,0.0135489,-2.33909e-06
21497,-45.0,-20.0,0.00010524,  -3.24922E-03,   64.3944E-03,   156.555E-03,0.0459629,0.013857,-1.23021e-06
21500,-46.0,-20.0,6.75269e-05,  -1.67101E-03,   64.3945E-03,   100.497E-03,0.0468086,0.0141102,-1.41207e-07
21501,-47.0,-20.0,3.80548e-05,  -704.834E-06,   64.3946E-03,   56.6609E-03,0.0474664,0.0143074,7.21779e-07
21506,-48.0,-20.0,1.69331e-05,  -206.278E-06,   64.3946E-03,   25.2238E-03,0.0479337,0.0144477,1.13496e-06
21507,-49.0,-20.0,4.2356699999999995e-06,  -23.5710E-06,   64.3947E-03,   6.31199E-03,0.0482085,0.0145304,8.73924e-07
21512,-50.0,-20.0,0.0,  -12.8499E-42,   64.3947E-03,           -0.,0.0482977,0.0145573,5.46619e-07
21515,50.0,-21.0,0.0,      -1.01048,   64.3937E-03,           -0.,0.0482951,0.0145564,-6.95262e-07
21516,49.0,-21.0,4.2495699999999995e-06,      -1.01046,   64.3937E-03,   6.31172E-03,0.0482066,0.0145297,-1.12106e-06
21521,48.0,-21.0,1.6988199999999998e-05,      -1.01028,   64.3937E-03,   25.2229E-03,0.047933,0.0144473,-1.50927e-06
21522,47.0,-21.0,3.81773e-05,      -1.00978,   64.3936E-03,   56.6593E-03,0.0474666,0.0143072,-1.09355e-06
21527,46.0,-21.0,6.77418e-05,      -1.00881,   64.3935E-03,   100.495E-03,0.0468093,0.01411,-1.40358e-07
21530,45.0,-21.0,0.00010557100000000001,      -1.00723,   64.3934E-03,   156.552E-03,0.0459639,0.0138569,1.08224e-06
21531,44.0,-21.0,0.00015152,      -1.00491,   64.3932E-03,   224.603E-03,0.0449338,0.0135489,2.33837e-06
21536,43.0,-21.0,0.000205408,      -1.00171,   64.3930E-03,   304.372E-03,0.0437237,0.0131872,3.43399e-06
21537,42.0,-21.0,0.000267025,  -997.540E-03,   64.3928E-03,   395.532E-03,0.0423385,0.0127734,4.23751e-06
21542,41.0,-21.0,0.00033612599999999996,  -992.295E-03,   64.3925E-03,   497.715E-03,0.0407844,0.0123091,4.67957e-06
21545,40.0,-21.0,0.00041243800000000005,  -985.902E-03,   64.3923E-03,   610.506E-03,0.0390678,0.0117959,4.754e-06
21546,39.0,-21.0,0.0004956569999999999,  -978.301E-03,   64.3920E-03,   733.448E-03,0.0371958,0.011236,4.50739e-06
21551,38.0,-21.0,0.000585455,  -969.455E-03,   64.3918E-03,   866.048E-03,0.0351762,0.0106315,4.02452e-06
21552,37.0,-21.0,0.000681473,  -959.344E-03,   64.3916E-03,       1.00777,0.033017,0.00998482,3.41175e-06
21557,36.0,-21.0,0.000783332,  -947.968E-03,   64.3914E-03,       1.15805,0.0307269,0.00929845,2.77737e-06
21560,35.0,-21.0,0.000890627,  -935.349E-03,   64.3913E-03,       1.31629,0.0283149,0.00857518,2.21674e-06
21561,34.0,-21.0,0.00100293,  -921.524E-03,   64.3912E-03,       1.48186,0.0257904,0.00781792,1.79826e-06
21566,33.0,-21.0,0.00111981,  -906.555E-03,   64.3911E-03,       1.65410,0.0231634,0.00702972,1.55712e-06
21567,32.0,-21.0,0.00124078,  -890.517E-03,   64.3910E-03,       1.83234,0.0204439,0.00621373,1.49218e-06
21572,31.0,-21.0,0.00136538,  -873.505E-03,   64.3910E-03,       2.01586,0.0176427,0.00537322,1.5697e-06
21575,30.0,-21.0,0.00149312,  -855.627E-03,   64.3910E-03,       2.20396,0.0147706,0.00451153,1.72975e-06
21576,29.0,-21.0,0.00162348,  -837.005E-03,   64.3910E-03,       2.39590,0.0118389,0.00363207,1.89628e-06
21581,28.0,-21.0,0.00175596,  -817.775E-03,   64.3910E-03,       2.59092,0.00885925,0.00273831,1.98772e-06
21582,27.0,-21.0,0.00189002,  -798.078E-03,   64.3910E-03,       2.78826,0.00584333,0.00183375,1.92785e-06
21587,26.0,-21.0,0.00202515,  -778.068E-03,   64.3911E-03,       2.98715,0.00280313,0.00092194,1.65504e-06
21590,25.0,-21.0,0.00216081,  -757.899E-03,   64.3912E-03,       3.18683,-0.000249238,6.45926e-06,1.12962e-06
21591,24.0,-21.0,0.00229646,  -737.729E-03,   64.3912E-03,       3.38651,-0.00330162,-0.000909097,3.38523e-07
21596,23.0,-21.0,0.00243157,  -717.718E-03,   64.3913E-03,       3.58541,-0.00634182,-0.00182112,-7.02849e-07
21597,22.0,-21.0,0.0025656,  -698.020E-03,   64.3914E-03,       3.78276,-0.00935774,-0.00272602,-1.95148e-06
21602,21.0,-21.0,0.00269803,  -678.788E-03,   64.3915E-03,       3.97778,-0.0123373,-0.00362019,-3.34012e-06
21605,20.0,-21.0,0.00282834,  -660.164E-03,   64.3916E-03,       4.16973,-0.0152688,-0.00450011,-4.78292e-06
21606,19.0,-21.0,0.00295601,  -642.283E-03,   64.3917E-03,       4.35784,-0.0181406,-0.00536228,-6.18269e-06
21611,18.0,-21.0,0.00308054,  -625.268E-03,   64.3917E-03,       4.54139,-0.0209413,-0.00620328,-7.43942e-06
21612,17.0,-21.0,0.00320143,  -609.227E-03,   64.3918E-03,       4.71964,-0.0236601,-0.0070198,-8.45925e-06
21617,16.0,-21.0,0.00331822,  -594.254E-03,   64.3918E-03,       4.89190,-0.0262863,-0.00780862,-9.16327e-06
21620,15.0,-21.0,0.00343043,  -580.426E-03,   64.3918E-03,       5.05750,-0.0288097,-0.00856665,-9.4953e-06
21621,14.0,-21.0,0.00353764,  -567.801E-03,   64.3918E-03,       5.21576,-0.0312206,-0.00929093,-9.42785e-06
21626,13.0,-21.0,0.00363941,  -556.421E-03,   64.3918E-03,       5.36607,-0.0335097,-0.00997865,-8.9656e-06
21627,12.0,-21.0,0.00373534,  -546.305E-03,   64.3918E-03,       5.50783,-0.0356682,-0.0106271,-8.14592e-06
21632,11.0,-21.0,0.00382506,  -537.454E-03,   64.3919E-03,       5.64046,-0.0376877,-0.0112338,-7.036e-06
21635,10.0,-21.0,0.00390821,  -529.849E-03,   64.3919E-03,       5.76345,-0.0395604,-0.0117964,-5.72698e-06
21636,9.0,-21.0,0.00398446,  -523.451E-03,   64.3919E-03,       5.87628,-0.0412788,-0.0123125,-4.32537e-06
21641,8.0,-21.0,0.00405352,  -518.201E-03,   64.3920E-03,       5.97851,-0.0428363,-0.0127803,-2.9426e-06
21642,7.0,-21.0,0.00411511,  -514.023E-03,   64.3921E-03,       6.06972,-0.0442263,-0.0131977,-1.6839e-06
21647,6.0,-21.0,0.00416899,  -510.825E-03,   64.3922E-03,       6.14954,-0.0454433,-0.0135631,-6.37536e-07
21650,5.0,-21.0,0.00421494,  -508.496E-03,   64.3923E-03,       6.21764,-0.0464821,-0.013875,1.34107e-07
21651,4.0,-21.0,0.00425279,  -506.915E-03,   64.3924E-03,       6.27375,-0.0473383,-0.014132,6.0088e-07
21656,3.0,-21.0,0.00428239,  -505.947E-03,   64.3925E-03,       6.31763,-0.0480083,-0.014333,7.67748e-07
21657,2.0,-21.0,0.00430361,  -505.448E-03,   64.3925E-03,       6.34910,-0.0484889,-0.0144773,6.73843e-07
21662,1.0,-21.0,0.00431637,  -505.265E-03,   64.3926E-03,       6.36804,-0.0487782,-0.0145641,3.87817e-07
21665,1.13445e-29,-21.0,0.00432064,  -505.241E-03,   64.3926E-03,       6.37436,-0.0488747,-0.014593,-1.77636e-14
21666,-1.0,-21.0,0.00431637,  -505.217E-03,   64.3926E-03,       6.36804,-0.0487782,-0.0145641,-3.87817e-07
21671,-2.0,-21.0,0.00430361,  -505.034E-03,   64.3925E-03,       6.34910,-0.0484889,-0.0144773,-6.73843e-07
21672,-3.0,-21.0,0.00428239,  -504.534E-03,   64.3925E-03,       6.31763,-0.0480083,-0.014333,-7.67748e-07
21677,-4.0,-21.0,0.00425279,  -503.566E-03,   64.3924E-03,       6.27375,-0.0473383,-0.014132,-6.0088e-07
21680,-5.0,-21.0,0.00421494,  -501.985E-03,   64.3923E-03,       6.21764,-0.0464821,-0.013875,-1.34107e-07
21681,-6.0,-21.0,0.00416899,  -499.657E-03,   64.3922E-03,       6.14954,-0.0454433,-0.0135631,6.37536e-07
21686,-7.0,-21.0,0.00411511,  -496.459E-03,   64.3921E-03,       6.06972,-0.0442263,-0.0131977,1.6839e-06
21687,-8.0,-21.0,0.00405352,  -492.281E-03,   64.3920E-03,       5.97851,-0.0428363,-0.0127803,2.9426e-06
21692,-9.0,-21.0,0.00398446,  -487.031E-03,   64.3919E-03,       5.87628,-0.0412788,-0.0123125,4.32537e-06
21695,-10.0,-21.0,0.00390821,  -480.633E-03,   64.3919E-03,       5.76345,-0.0395604,-0.0117964,5.72698e-06
21696,-11.0,-21.0,0.00382506,  -473.027E-03,   64.3919E-03,       5.64046,-0.0376877,-0.0112338,7.036e-06
21701,-12.0,-21.0,0.00373534,  -464.177E-03,   64.3918E-03,       5.50783,-0.0356682,-0.0106271,8.14592e-06
21702,-13.0,-21.0,0.00363941,  -454.061E-03,   64.3918E-03,       5.36607,-0.0335097,-0.00997865,8.9656e-06
21707,-14.0,-21.0,0.00353764,  -442.680E-03,   64.3918E-03,       5.21576,-0.0312206,-0.00929093,9.42785e-06
21710,-15.0,-21.0,0.00343043,  -430.056E-03,   64.3918E-03,       5.05750,-0.0288097,-0.00856665,9.4953e-06
21711,-16.0,-21.0,0.00331822,  -416.228E-03,   64.3918E-03,       4.89190,-0.0262863,-0.00780862,9.16327e-06
21716,-17.0,-21.0,0.00320143,  -401.255E-03,   64.3918E-03,       4.71964,-0.0236601,-0.0070198,8.45925e-06
21717,-18.0,-21.0,0.00308054,  -385.214E-03,   64.3917E-03,       4.54139,-0.0209413,-0.00620328,7.43942e-06
21722,-19.0,-21.0,0.00295601,  -368.198E-03,   64.3917E-03,       4.35784,-0.0181406,-0.00536228,6.18269e-06
21725,-20.0,-21.0,0.00282834,  -350.318E-03,   64.3916E-03,       4.16973,-0.0152688,-0.00450011,4.78292e-06
21726,-21.0,-21.0,0.00269803,  -331.694E-03,   64.3915E-03,       3.97778,-0.0123373,-0.00362019,3.34012e-06
21731,-22.0,-21.0,0.0025656,  -312.461E-03,   64.3914E-03,       3.78276,-0.00935774,-0.00272602,1.95148e-06
21732,-23.0,-21.0,0.00243157,  -292.764E-03,   64.3913E-03,       3.58541,-0.00634182,-0.00182112,7.02849e-07
21737,-24.0,-21.0,0.00229646,  -272.753E-03,   64.3912E-03,       3.38651,-0.00330162,-0.000909097,-3.38523e-07
21740,-25.0,-21.0,0.00216081,  -252.583E-03,   64.3912E-03,       3.18683,-0.000249238,6.45926e-06,-1.12962e-06
21741,-26.0,-21.0,0.00202515,  -232.414E-03,   64.3911E-03,       2.98715,0.00280313,0.00092194,-1.65504e-06
21746,-27.0,-21.0,0.00189002,  -212.403E-03,   64.3910E-03,       2.78826,0.00584333,0.00183375,-1.92785e-06
21747,-28.0,-21.0,0.00175596,  -192.707E-03,   64.3910E-03,       2.59092,0.00885925,0.00273831,-1.98772e-06
21752,-29.0,-21.0,0.00162348,  -173.477E-03,   64.3910E-03,       2.39590,0.0118389,0.00363207,-1.89628e-06
21755,-30.0,-21.0,0.00149312,  -154.855E-03,   64.3910E-03,       2.20396,0.0147706,0.00451153,-1.72975e-06
21756,-31.0,-21.0,0.00136538,  -136.977E-03,   64.3910E-03,       2.01586,0.0176427,0.00537322,-1.5697e-06
21761,-32.0,-21.0,0.00124078,  -119.965E-03,   64.3910E-03,       1.83234,0.0204439,0.00621373,-1.49218e-06
21762,-33.0,-21.0,0.00111981,  -103.927E-03,   64.3911E-03,       1.65410,0.0231634,0.00702972,-1.55712e-06
21767,-34.0,-21.0,0.00100293,  -88.9574E-03,   64.3912E-03,       1.48186,0.0257904,0.00781792,-1.79826e-06
21770,-35.0,-21.0,0.000890627,  -75.1332E-03,   64.3913E-03,       1.31629,0.0283149,0.00857518,-2.21674e-06
21771,-36.0,-21.0,0.000783332,  -62.5133E-03,   64.3914E-03,       1.15805,0.0307269,0.00929845,-2.77737e-06
21776,-37.0,-21.0,0.000681473,  -51.1375E-03,   64.3916E-03,       1.00777,0.033017,0.00998482,-3.41175e-06
21777,-38.0,-21.0,0.000585455,  -41.0264E-03,   64.3918E-03,   866.048E-03,0.0351762,0.0106315,-4.02452e-06
21782,-39.0,-21.0,0.0004956569999999999,  -32.1805E-03,   64.3920E-03,   733.448E-03,0.0371958,0.011236,-4.50739e-06
21785,-40.0,-21.0,0.00041243800000000005,  -24.5803E-03,   64.3923E-03,   610.506E-03,0.0390678,0.0117959,-4.754e-06
21786,-41.0,-21.0,0.00033612599999999996,  -18.1867E-03,   64.3925E-03,   497.715E-03,0.0407844,0.0123091,-4.67957e-06
21791,-42.0,-21.0,0.000267025,  -12.9417E-03,   64.3928E-03,   395.532E-03,0.0423385,0.0127734,-4.23751e-06
21792,-43.0,-21.0,0.000205408,  -8.76860E-03,   64.3930E-03,   304.372E-03,0.0437237,0.0131872,-3.43399e-06
21797,-44.0,-21.0,0.00015152,  -5.57411E-03,   64.3932E-03,   224.603E-03,0.0449338,0.0135489,-2.33837e-06
21800,-45.0,-21.0,0.00010557100000000001,  -3.24918E-03,   64.3934E-03,   156.552E-03,0.0459639,0.0138569,-1.08224e-06
21801,-46.0,-21.0,6.77418e-05,  -1.67098E-03,   64.3935E-03,   100.495E-03,0.0468093,0.01411,1.40358e-07
21806,-47.0,-21.0,3.81773e-05,  -704.817E-06,   64.3936E-03,   56.6593E-03,0.0474666,0.0143072,1.09355e-06
21807,-48.0,-21.0,1.6988199999999998e-05,  -206.277E-06,   64.3937E-03,   25.2229E-03,0.047933,0.0144473,1.50927e-06
21812,-49.0,-21.0,4.2495699999999995e-06,  -23.5754E-06,   64.3937E-03,   6.31172E-03,0.0482066,0.0145297,1.12106e-06
21815,-50.0,-21.0,0.0,  -12.8793E-42,   64.3937E-03,           -0.,0.0482951,0.0145564,6.95262e-07
21816,50.0,-22.0,0.0,      -1.01048,   64.3927E-03,           -0.,0.048292,0.0145556,-8.63698e-07
21821,49.0,-22.0,4.2645599999999995e-06,      -1.01046,   64.3927E-03,   6.31140E-03,0.0482044,0.014529,-1.41456e-06
21822,48.0,-22.0,1.70476e-05,      -1.01028,   64.3927E-03,   25.2218E-03,0.0479321,0.014447,-1.95695e-06
21827,47.0,-22.0,3.8309099999999995e-05,      -1.00978,   64.3926E-03,   56.6575E-03,0.0474668,0.014307,-1.54671e-06
21830,46.0,-22.0,6.79725e-05,      -1.00881,   64.3925E-03,   100.492E-03,0.0468102,0.01411,-5.03531e-07
21831,45.0,-22.0,0.000105925,      -1.00723,   64.3924E-03,   156.550E-03,0.045965,0.0138569,8.64763e-07
21836,44.0,-22.0,0.00015202100000000001,      -1.00491,   64.3922E-03,   224.601E-03,0.0449349,0.0135489,2.27969e-06
21837,43.0,-22.0,0.000206077,      -1.00171,   64.3920E-03,   304.369E-03,0.0437245,0.0131872,3.52268e-06
21842,42.0,-22.0,0.00026788,  -997.540E-03,   64.3917E-03,   395.531E-03,0.042339,0.0127733,4.43935e-06
21845,41.0,-22.0,0.000337186,  -992.295E-03,   64.3915E-03,   497.714E-03,0.0407845,0.0123089,4.95161e-06
21846,40.0,-22.0,0.00041371699999999997,  -985.901E-03,   64.3912E-03,   610.506E-03,0.0390675,0.0117958,5.05086e-06
21851,39.0,-22.0,0.000497171,  -978.301E-03,   64.3909E-03,   733.449E-03,0.0371952,0.0112359,4.78911e-06
21852,38.0,-22.0,0.000587214,  -969.455E-03,   64.3907E-03,   866.049E-03,0.0351754,0.0106314,4.26258e-06
21857,37.0,-22.0,0.0006834889999999999,  -959.344E-03,   64.3905E-03,       1.00777,0.0330162,0.0099847,3.5905e-06
21860,36.0,-22.0,0.0007856139999999999,  -947.968E-03,   64.3903E-03,       1.15805,0.0307262,0.00929838,2.89616e-06
21861,35.0,-22.0,0.000893183,  -935.348E-03,   64.3901E-03,       1.31629,0.0283143,0.00857518,2.28651e-06
21866,34.0,-22.0,0.00100577,  -921.524E-03,   64.3900E-03,       1.48186,0.0257901,0.00781799,1.83975e-06
21867,33.0,-22.0,0.00112293,  -906.554E-03,   64.3899E-03,       1.65410,0.0231633,0.00702986,1.5953e-06
21872,32.0,-22.0,0.0012442,  -890.517E-03,   64.3899E-03,       1.83233,0.020444,0.00621394,1.55258e-06
21875,31.0,-22.0,0.00136909,  -873.504E-03,   64.3898E-03,       2.01586,0.017643,0.00537349,1.67326e-06
21876,30.0,-22.0,0.00149713,  -855.626E-03,   64.3898E-03,       2.20396,0.014771,0.00451184,1.88967e-06
21881,29.0,-22.0,0.00162779,  -837.005E-03,   64.3898E-03,       2.39590,0.0118393,0.00363242,2.11504e-06
21882,28.0,-22.0,0.00176056,  -817.774E-03,   64.3898E-03,       2.59091,0.00885946,0.00273868,2.25601e-06
21887,27.0,-22.0,0.00189493,  -798.078E-03,   64.3899E-03,       2.78826,0.0058433,0.00183412,2.22466e-06
21890,26.0,-22.0,0.00203036,  -778.067E-03,   64.3899E-03,       2.98715,0.00280281,0.000922307,1.94947e-06
21891,25.0,-22.0,0.00216631,  -757.898E-03,   64.3900E-03,       3.18683,-0.000249905,6.80821e-06,1.38389e-06
21896,24.0,-22.0,0.00230226,  -737.728E-03,   64.3901E-03,       3.38651,-0.00330262,-0.000908774,5.12107e-07
21897,23.0,-22.0,0.00243766,  -717.716E-03,   64.3901E-03,       3.58541,-0.00634313,-0.00182083,-6.48475e-07
21902,22.0,-22.0,0.00257198,  -698.019E-03,   64.3902E-03,       3.78276,-0.00935927,-0.00272576,-2.04801e-06
21905,21.0,-22.0,0.00270469,  -678.787E-03,   64.3903E-03,       3.97778,-0.012339,-0.00361997,-3.60813e-06
21906,20.0,-22.0,0.00283527,  -660.163E-03,   64.3904E-03,       4.16973,-0.0152705,-0.00449993,-5.2286e-06
21911,19.0,-22.0,0.00296321,  -642.282E-03,   64.3905E-03,       4.35784,-0.0181421,-0.00536213,-6.79613e-06
21912,18.0,-22.0,0.003088,  -625.267E-03,   64.3906E-03,       4.54139,-0.0209426,-0.00620317,-8.19465e-06
21917,17.0,-22.0,0.00320914,  -609.226E-03,   64.3906E-03,       4.71964,-0.023661,-0.00701971,-9.3162e-06
21920,16.0,-22.0,0.00332617,  -594.253E-03,   64.3907E-03,       4.89190,-0.0262867,-0.00780857,-1.00713e-05
21921,15.0,-22.0,0.00343862,  -580.425E-03,   64.3907E-03,       5.05749,-0.0288097,-0.00856663,-1.03982e-05
21926,14.0,-22.0,0.00354604,  -567.801E-03,   64.3907E-03,       5.21575,-0.0312201,-0.00929095,-1.02692e-05
21927,13.0,-22.0,0.00364802,  -556.421E-03,   64.3907E-03,       5.36606,-0.0335088,-0.00997871,-9.69451e-06
21932,12.0,-22.0,0.00374415,  -546.305E-03,   64.3907E-03,       5.50782,-0.035667,-0.0106272,-8.72177e-06
21935,11.0,-22.0,0.00383405,  -537.455E-03,   64.3908E-03,       5.64045,-0.0376863,-0.011234,-7.43231e-06
21936,10.0,-22.0,0.00391737,  -529.849E-03,   64.3908E-03,       5.76344,-0.0395589,-0.0117966,-5.9335e-06
21941,9.0,-22.0,0.00399378,  -523.451E-03,   64.3909E-03,       5.87627,-0.0412774,-0.0123128,-4.34839e-06
21942,8.0,-22.0,0.00406298,  -518.201E-03,   64.3910E-03,       5.97850,-0.042835,-0.0127806,-2.80372e-06
21947,7.0,-22.0,0.0041247,  -514.023E-03,   64.3911E-03,       6.06971,-0.0442254,-0.0131981,-1.4172e-06
21950,6.0,-22.0,0.00417868,  -510.825E-03,   64.3912E-03,       6.14953,-0.0454427,-0.0135636,-2.85819e-07
21951,5.0,-22.0,0.00422473,  -508.496E-03,   64.3913E-03,       6.21763,-0.0464819,-0.0138755,5.23636e-07
21956,4.0,-22.0,0.00426265,  -506.915E-03,   64.3914E-03,       6.27374,-0.0473386,-0.0141325,9.81002e-07
21957,3.0,-22.0,0.00429231,  -505.947E-03,   64.3915E-03,       6.31762,-0.0480088,-0.0143336,1.09535e-06
21962,2.0,-22.0,0.00431357,  -505.448E-03,   64.3915E-03,       6.34909,-0.0484898,-0.0144778,9.13405e-07
21965,1.0,-22.0,0.00432637,  -505.265E-03,   64.3916E-03,       6.36803,-0.0487792,-0.0145646,5.14131e-07
21966,1.7538299999999996e-30,-22.0,0.00433064,  -505.241E-03,   64.3916E-03,       6.37435,-0.0488758,-0.0145936,-1.42109e-14
21971,-1.0,-22.0,0.00432637,  -505.217E-03,   64.3916E-03,       6.36803,-0.0487792,-0.0145646,-5.14131e-07
21972,-2.0,-22.0,0.00431357,  -505.034E-03,   64.3915E-03,       6.34909,-0.0484898,-0.0144778,-9.13405e-07
21977,-3.0,-22.0,0.00429231,  -504.534E-03,   64.3915E-03,       6.31762,-0.0480088,-0.0143336,-1.09535e-06
21980,-4.0,-22.0,0.00426265,  -503.566E-03,   64.3914E-03,       6.27374,-0.0473386,-0.0141325,-9.81002e-07
21981,-5.0,-22.0,0.00422473,  -501.985E-03,   64.3913E-03,       6.21763,-0.0464819,-0.0138755,-5.23636e-07
21986,-6.0,-22.0,0.00417868,  -499.657E-03,   64.3912E-03,       6.14953,-0.0454427,-0.0135636,2.85819e-07
21987,-7.0,-22.0,0.0041247,  -496.458E-03,   64.3911E-03,       6.06971,-0.0442254,-0.0131981,1.4172e-06
21992,-8.0,-22.0,0.00406298,  -492.281E-03,   64.3910E-03,       5.97850,-0.042835,-0.0127806,2.80372e-06
21993,-9.0,-22.0,0.00399378,  -487.031E-03,   64.3909E-03,       5.87627,-0.0412774,-0.0123128,4.34839e-06
21998,-10.0,-22.0,0.00391737,  -480.632E-03,   64.3908E-03,       5.76344,-0.0395589,-0.0117966,5.9335e-06
21999,-11.0,-22.0,0.00383405,  -473.027E-03,   64.3908E-03,       5.64045,-0.0376863,-0.011234,7.43231e-06
22004,-12.0,-22.0,0.00374415,  -464.177E-03,   64.3907E-03,       5.50782,-0.035667,-0.0106272,8.72177e-06
22007,-13.0,-22.0,0.00364802,  -454.061E-03,   64.3907E-03,       5.36606,-0.0335088,-0.00997871,9.69451e-06
22008,-14.0,-22.0,0.00354604,  -442.681E-03,   64.3907E-03,       5.21575,-0.0312201,-0.00929095,1.02692e-05
22013,-15.0,-22.0,0.00343862,  -430.057E-03,   64.3907E-03,       5.05749,-0.0288097,-0.00856663,1.03982e-05
22014,-16.0,-22.0,0.00332617,  -416.229E-03,   64.3907E-03,       4.89190,-0.0262867,-0.00780857,1.00713e-05
22019,-17.0,-22.0,0.00320914,  -401.256E-03,   64.3906E-03,       4.71964,-0.023661,-0.00701971,9.3162e-06
22022,-18.0,-22.0,0.003088,  -385.215E-03,   64.3906E-03,       4.54139,-0.0209426,-0.00620317,8.19465e-06
22023,-19.0,-22.0,0.00296321,  -368.200E-03,   64.3905E-03,       4.35784,-0.0181421,-0.00536213,6.79613e-06
22028,-20.0,-22.0,0.00283527,  -350.319E-03,   64.3904E-03,       4.16973,-0.0152705,-0.00449993,5.2286e-06
22029,-21.0,-22.0,0.00270469,  -331.695E-03,   64.3903E-03,       3.97778,-0.012339,-0.00361997,3.60813e-06
22034,-22.0,-22.0,0.00257198,  -312.463E-03,   64.3902E-03,       3.78276,-0.00935927,-0.00272576,2.04801e-06
22037,-23.0,-22.0,0.00243766,  -292.765E-03,   64.3901E-03,       3.58541,-0.00634313,-0.00182083,6.48475e-07
22038,-24.0,-22.0,0.00230226,  -272.754E-03,   64.3901E-03,       3.38651,-0.00330262,-0.000908774,-5.12107e-07
22043,-25.0,-22.0,0.00216631,  -252.584E-03,   64.3900E-03,       3.18683,-0.000249905,6.80821e-06,-1.38389e-06
22044,-26.0,-22.0,0.00203036,  -232.415E-03,   64.3899E-03,       2.98715,0.00280281,0.000922307,-1.94947e-06
22049,-27.0,-22.0,0.00189493,  -212.404E-03,   64.3899E-03,       2.78826,0.0058433,0.00183412,-2.22466e-06
22052,-28.0,-22.0,0.00176056,  -192.708E-03,   64.3898E-03,       2.59091,0.00885946,0.00273868,-2.25601e-06
22053,-29.0,-22.0,0.00162779,  -173.477E-03,   64.3898E-03,       2.39590,0.0118393,0.00363242,-2.11504e-06
22058,-30.0,-22.0,0.00149713,  -154.856E-03,   64.3898E-03,       2.20396,0.014771,0.00451184,-1.88967e-06
22059,-31.0,-22.0,0.00136909,  -136.977E-03,   64.3898E-03,       2.01586,0.017643,0.00537349,-1.67326e-06
22064,-32.0,-22.0,0.0012442,  -119.965E-03,   64.3899E-03,       1.83233,0.020444,0.00621394,-1.55258e-06
22067,-33.0,-22.0,0.00112293,  -103.927E-03,   64.3899E-03,       1.65410,0.0231633,0.00702986,-1.5953e-06
22068,-34.0,-22.0,0.00100577,  -88.9580E-03,   64.3900E-03,       1.48186,0.0257901,0.00781799,-1.83975e-06
22073,-35.0,-22.0,0.000893183,  -75.1339E-03,   64.3901E-03,       1.31629,0.0283143,0.00857518,-2.28651e-06
22074,-36.0,-22.0,0.0007856139999999999,  -62.5139E-03,   64.3903E-03,       1.15805,0.0307262,0.00929838,-2.89616e-06
22079,-37.0,-22.0,0.0006834889999999999,  -51.1381E-03,   64.3905E-03,       1.00777,0.0330162,0.0099847,-3.5905e-06
22082,-38.0,-22.0,0.000587214,  -41.0269E-03,   64.3907E-03,   866.049E-03,0.0351754,0.0106314,-4.26258e-06
22083,-39.0,-22.0,0.000497171,  -32.1809E-03,   64.3909E-03,   733.449E-03,0.0371952,0.0112359,-4.78911e-06
22088,-40.0,-22.0,0.00041371699999999997,  -24.5806E-03,   64.3912E-03,   610.506E-03,0.0390675,0.0117958,-5.05086e-06
22089,-41.0,-22.0,0.000337186,  -18.1870E-03,   64.3915E-03,   497.714E-03,0.0407845,0.0123089,-4.95161e-06
22094,-42.0,-22.0,0.00026788,  -12.9418E-03,   64.3917E-03,   395.531E-03,0.042339,0.0127733,-4.43935e-06
22097,-43.0,-22.0,0.000206077,  -8.76864E-03,   64.3920E-03,   304.369E-03,0.0437245,0.0131872,-3.52268e-06
22098,-44.0,-22.0,0.00015202100000000001,  -5.57409E-03,   64.3922E-03,   224.601E-03,0.0449349,0.0135489,-2.27969e-06
22103,-45.0,-22.0,0.000105925,  -3.24914E-03,   64.3924E-03,   156.550E-03,0.045965,0.0138569,-8.64763e-07
22104,-46.0,-22.0,6.79725e-05,  -1.67095E-03,   64.3925E-03,   100.492E-03,0.0468102,0.01411,5.03531e-07
22109,-47.0,-22.0,3.8309099999999995e-05,  -704.802E-06,   64.3926E-03,   56.6575E-03,0.0474668,0.014307,1.54671e-06
22112,-48.0,-22.0,1.70476e-05,  -206.277E-06,   64.3927E-03,   25.2218E-03,0.0479321,0.014447,1.95695e-06
22113,-49.0,-22.0,4.2645599999999995e-06,  -23.5816E-06,   64.3927E-03,   6.31140E-03,0.0482044,0.014529,1.41456e-06
22118,-50.0,-22.0,0.0,  -12.9144E-42,   64.3927E-03,           -0.,0.048292,0.0145556,8.63697e-07
22119,50.0,-23.0,0.0,      -1.01048,   64.3917E-03,           -0.,0.0482884,0.0145546,-1.06777e-06
22124,49.0,-23.0,4.2806999999999995e-06,      -1.01046,   64.3917E-03,   6.31103E-03,0.0482018,0.0145284,-1.7554e-06
22127,48.0,-23.0,1.71114e-05,      -1.01028,   64.3917E-03,   25.2206E-03,0.0479312,0.0144467,-2.48439e-06
22128,47.0,-23.0,3.84506e-05,      -1.00978,   64.3917E-03,   56.6553E-03,0.0474671,0.014307,-2.09465e-06
22133,46.0,-23.0,6.82198e-05,      -1.00881,   64.3916E-03,   100.490E-03,0.0468112,0.0141101,-9.58826e-07
22134,45.0,-23.0,0.000106305,      -1.00723,   64.3914E-03,   156.546E-03,0.0459663,0.013857,5.59636e-07
22139,44.0,-23.0,0.000152556,      -1.00491,   64.3912E-03,   224.598E-03,0.0449362,0.0135489,2.14849e-06
22142,43.0,-23.0,0.00020679,      -1.00171,   64.3910E-03,   304.367E-03,0.0437255,0.0131871,3.55193e-06
22143,42.0,-23.0,0.000268792,  -997.540E-03,   64.3907E-03,   395.529E-03,0.0423395,0.0127732,4.59766e-06
22148,41.0,-23.0,0.00033831400000000004,  -992.295E-03,   64.3904E-03,   497.714E-03,0.0407845,0.0123087,5.19348e-06
22149,40.0,-23.0,0.00041507699999999997,  -985.901E-03,   64.3901E-03,   610.506E-03,0.0390671,0.0117955,5.32917e-06
22154,39.0,-23.0,0.0004987769999999999,  -978.300E-03,   64.3898E-03,   733.451E-03,0.0371944,0.0112355,5.06231e-06
22157,38.0,-23.0,0.00058908,  -969.454E-03,   64.3896E-03,   866.051E-03,0.0351744,0.0106311,4.49943e-06
22158,37.0,-23.0,0.000685626,  -959.343E-03,   64.3894E-03,       1.00777,0.0330151,0.00998442,3.77482e-06
22163,36.0,-23.0,0.000788031,  -947.967E-03,   64.3892E-03,       1.15806,0.0307252,0.00929817,3.02512e-06
22164,35.0,-23.0,0.0008958880000000001,  -935.347E-03,   64.3890E-03,       1.31629,0.0283136,0.00857507,2.37104e-06
22169,34.0,-23.0,0.00100877,  -921.523E-03,   64.3889E-03,       1.48186,0.0257897,0.00781799,1.8993e-06
22172,33.0,-23.0,0.00112623,  -906.554E-03,   64.3888E-03,       1.65410,0.0231632,0.00702997,1.65516e-06
22173,32.0,-23.0,0.00124781,  -890.516E-03,   64.3887E-03,       1.83233,0.0204442,0.00621416,1.638e-06
22178,31.0,-23.0,0.00137301,  -873.504E-03,   64.3887E-03,       2.01586,0.0176433,0.00537381,1.80586e-06
22179,30.0,-23.0,0.00150136,  -855.626E-03,   64.3887E-03,       2.20396,0.0147714,0.00451224,2.08278e-06
22184,29.0,-23.0,0.00163234,  -837.004E-03,   64.3886E-03,       2.39589,0.0118397,0.00363287,2.37118e-06
22187,28.0,-23.0,0.00176543,  -817.773E-03,   64.3887E-03,       2.59091,0.00885975,0.00273915,2.5649e-06
22188,27.0,-23.0,0.00190011,  -798.077E-03,   64.3887E-03,       2.78826,0.00584332,0.00183459,2.56327e-06
22193,26.0,-23.0,0.00203586,  -778.066E-03,   64.3887E-03,       2.98715,0.00280247,0.000922764,2.28353e-06
22194,25.0,-23.0,0.00217212,  -757.897E-03,   64.3888E-03,       3.18683,-0.000250632,7.23558e-06,1.67121e-06
22199,24.0,-23.0,0.00230838,  -737.727E-03,   64.3889E-03,       3.38651,-0.00330374,-0.000908385,7.07166e-07
22202,23.0,-23.0,0.00244409,  -717.715E-03,   64.3890E-03,       3.58541,-0.0063446,-0.00182049,-5.89023e-07
22203,22.0,-23.0,0.00257871,  -698.018E-03,   64.3891E-03,       3.78276,-0.009361,-0.00272546,-2.15964e-06
22208,21.0,-23.0,0.00271172,  -678.785E-03,   64.3892E-03,       3.97778,-0.0123409,-0.00361972,-3.91332e-06
22209,20.0,-23.0,0.00284259,  -660.161E-03,   64.3893E-03,       4.16973,-0.0152723,-0.00449971,-5.73301e-06
22214,19.0,-23.0,0.00297082,  -642.281E-03,   64.3893E-03,       4.35784,-0.0181438,-0.00536196,-7.48667e-06
22217,18.0,-23.0,0.00309588,  -625.266E-03,   64.3894E-03,       4.54138,-0.020944,-0.00620303,-9.03977e-06
22218,17.0,-23.0,0.00321729,  -609.225E-03,   64.3895E-03,       4.71963,-0.023662,-0.00701962,-1.02685e-05
22223,16.0,-23.0,0.00333458,  -594.252E-03,   64.3895E-03,       4.89189,-0.0262872,-0.00780852,-1.1072e-05
22224,15.0,-23.0,0.00344727,  -580.425E-03,   64.3896E-03,       5.05748,-0.0288096,-0.00856663,-1.13832e-05
22229,14.0,-23.0,0.00355493,  -567.801E-03,   64.3896E-03,       5.21574,-0.0312196,-0.00929101,-1.11757e-05
22232,13.0,-23.0,0.00365713,  -556.421E-03,   64.3896E-03,       5.36605,-0.0335078,-0.00997883,-1.04671e-05
22233,12.0,-23.0,0.00375347,  -546.305E-03,   64.3897E-03,       5.50781,-0.0356656,-0.0106274,-9.31833e-06
22238,11.0,-23.0,0.00384356,  -537.455E-03,   64.3897E-03,       5.64044,-0.0376847,-0.0112342,-7.82735e-06
22239,10.0,-23.0,0.00392707,  -529.850E-03,   64.3898E-03,       5.76342,-0.0395572,-0.0117969,-6.11999e-06
22244,9.0,-23.0,0.00400364,  -523.451E-03,   64.3898E-03,       5.87626,-0.0412759,-0.0123132,-4.3375e-06
22247,8.0,-23.0,0.00407299,  -518.201E-03,   64.3899E-03,       5.97849,-0.0428337,-0.0127811,-2.62258e-06
22248,7.0,-23.0,0.00413484,  -514.024E-03,   64.3900E-03,       6.06970,-0.0442244,-0.0131986,-1.10531e-06
22253,6.0,-23.0,0.00418894,  -510.825E-03,   64.3902E-03,       6.14952,-0.0454421,-0.0135641,1.0939e-07
22254,5.0,-23.0,0.00423509,  -508.497E-03,   64.3903E-03,       6.21762,-0.0464818,-0.013876,9.51568e-07
22259,4.0,-23.0,0.0042731,  -506.916E-03,   64.3904E-03,       6.27373,-0.0473388,-0.0141331,1.39242e-06
22262,3.0,-23.0,0.00430281,  -505.947E-03,   64.3905E-03,       6.31761,-0.0480095,-0.0143342,1.44627e-06
22263,2.0,-23.0,0.00432412,  -505.448E-03,   64.3905E-03,       6.34908,-0.0484907,-0.0144784,1.16824e-06
22268,1.0,-23.0,0.00433694,  -505.265E-03,   64.3906E-03,       6.36802,-0.0487804,-0.0145652,6.47955e-07
22269,-1.12456e-30,-23.0,0.00434122,  -505.241E-03,   64.3906E-03,       6.37434,-0.0488771,-0.0145942,-2.84217e-14
22274,-1.0,-23.0,0.00433694,  -505.217E-03,   64.3906E-03,       6.36802,-0.0487804,-0.0145652,-6.47955e-07
22277,-2.0,-23.0,0.00432412,  -505.034E-03,   64.3905E-03,       6.34908,-0.0484907,-0.0144784,-1.16824e-06
22278,-3.0,-23.0,0.00430281,  -504.534E-03,   64.3905E-03,       6.31761,-0.0480095,-0.0143342,-1.44627e-06
22283,-4.0,-23.0,0.0042731,  -503.566E-03,   64.3904E-03,       6.27373,-0.0473388,-0.0141331,-1.39242e-06
22284,-5.0,-23.0,0.00423509,  -501.985E-03,   64.3903E-03,       6.21762,-0.0464818,-0.013876,-9.51568e-07
22289,-6.0,-23.0,0.00418894,  -499.657E-03,   64.3902E-03,       6.14952,-0.0454421,-0.0135641,-1.0939e-07
22292,-7.0,-23.0,0.00413484,  -496.458E-03,   64.3900E-03,       6.06970,-0.0442244,-0.0131986,1.10531e-06
22293,-8.0,-23.0,0.00407299,  -492.280E-03,   64.3899E-03,       5.97849,-0.0428337,-0.0127811,2.62258e-06
22298,-9.0,-23.0,0.00400364,  -487.031E-03,   64.3898E-03,       5.87626,-0.0412759,-0.0123132,4.3375e-06
22299,-10.0,-23.0,0.00392707,  -480.632E-03,   64.3898E-03,       5.76342,-0.0395572,-0.0117969,6.11999e-06
22304,-11.0,-23.0,0.00384356,  -473.027E-03,   64.3897E-03,       5.64044,-0.0376847,-0.0112342,7.82735e-06
22307,-12.0,-23.0,0.00375347,  -464.176E-03,   64.3897E-03,       5.50781,-0.0356656,-0.0106274,9.31833e-06
22308,-13.0,-23.0,0.00365713,  -454.061E-03,   64.3896E-03,       5.36605,-0.0335078,-0.00997883,1.04671e-05
22313,-14.0,-23.0,0.00355493,  -442.681E-03,   64.3896E-03,       5.21574,-0.0312196,-0.00929101,1.11757e-05
22314,-15.0,-23.0,0.00344727,  -430.057E-03,   64.3896E-03,       5.05748,-0.0288096,-0.00856663,1.13832e-05
22319,-16.0,-23.0,0.00333458,  -416.230E-03,   64.3895E-03,       4.89189,-0.0262872,-0.00780852,1.1072e-05
22322,-17.0,-23.0,0.00321729,  -401.257E-03,   64.3895E-03,       4.71963,-0.023662,-0.00701962,1.02685e-05
22323,-18.0,-23.0,0.00309588,  -385.216E-03,   64.3894E-03,       4.54138,-0.020944,-0.00620303,9.03977e-06
22328,-19.0,-23.0,0.00297082,  -368.201E-03,   64.3893E-03,       4.35784,-0.0181438,-0.00536196,7.48667e-06
22329,-20.0,-23.0,0.00284259,  -350.320E-03,   64.3893E-03,       4.16973,-0.0152723,-0.00449971,5.73301e-06
22334,-21.0,-23.0,0.00271172,  -331.697E-03,   64.3892E-03,       3.97778,-0.0123409,-0.00361972,3.91332e-06
22337,-22.0,-23.0,0.00257871,  -312.464E-03,   64.3891E-03,       3.78276,-0.009361,-0.00272546,2.15964e-06
22338,-23.0,-23.0,0.00244409,  -292.767E-03,   64.3890E-03,       3.58541,-0.0063446,-0.00182049,5.89023e-07
22343,-24.0,-23.0,0.00230838,  -272.755E-03,   64.3889E-03,       3.38651,-0.00330374,-0.000908385,-7.07166e-07
22344,-25.0,-23.0,0.00217212,  -252.585E-03,   64.3888E-03,       3.18683,-0.000250632,7.23558e-06,-1.67121e-06
22349,-26.0,-23.0,0.00203586,  -232.416E-03,   64.3887E-03,       2.98715,0.00280247,0.000922764,-2.28353e-06
22352,-27.0,-23.0,0.00190011,  -212.405E-03,   64.3887E-03,       2.78826,0.00584332,0.00183459,-2.56327e-06
22353,-28.0,-23.0,0.00176543,  -192.708E-03,   64.3887E-03,       2.59091,0.00885975,0.00273915,-2.5649e-06
22358,-29.0,-23.0,0.00163234,  -173.478E-03,   64.3886E-03,       2.39589,0.0118397,0.00363287,-2.37118e-06
22359,-30.0,-23.0,0.00150136,  -154.856E-03,   64.3887E-03,       2.20396,0.0147714,0.00451224,-2.08278e-06
22364,-31.0,-23.0,0.00137301,  -136.978E-03,   64.3887E-03,       2.01586,0.0176433,0.00537381,-1.80586e-06
22367,-32.0,-23.0,0.00124781,  -119.966E-03,   64.3887E-03,       1.83233,0.0204442,0.00621416,-1.638e-06
22368,-33.0,-23.0,0.00112623,  -103.928E-03,   64.3888E-03,       1.65410,0.0231632,0.00702997,-1.65516e-06
22373,-34.0,-23.0,0.00100877,  -88.9587E-03,   64.3889E-03,       1.48186,0.0257897,0.00781799,-1.8993e-06
22374,-35.0,-23.0,0.0008958880000000001,  -75.1346E-03,   64.3890E-03,       1.31629,0.0283136,0.00857507,-2.37104e-06
22379,-36.0,-23.0,0.000788031,  -62.5147E-03,   64.3892E-03,       1.15806,0.0307252,0.00929817,-3.02512e-06
22382,-37.0,-23.0,0.000685626,  -51.1389E-03,   64.3894E-03,       1.00777,0.0330151,0.00998442,-3.77482e-06
22383,-38.0,-23.0,0.00058908,  -41.0276E-03,   64.3896E-03,   866.051E-03,0.0351744,0.0106311,-4.49943e-06
22388,-39.0,-23.0,0.0004987769999999999,  -32.1815E-03,   64.3898E-03,   733.451E-03,0.0371944,0.0112355,-5.06231e-06
22389,-40.0,-23.0,0.00041507699999999997,  -24.5810E-03,   64.3901E-03,   610.506E-03,0.0390671,0.0117955,-5.32917e-06
22394,-41.0,-23.0,0.00033831400000000004,  -18.1873E-03,   64.3904E-03,   497.714E-03,0.0407845,0.0123087,-5.19348e-06
22397,-42.0,-23.0,0.000268792,  -12.9419E-03,   64.3907E-03,   395.529E-03,0.0423395,0.0127732,-4.59766e-06
22398,-43.0,-23.0,0.00020679,  -8.76869E-03,   64.3910E-03,   304.367E-03,0.0437255,0.0131871,-3.55193e-06
22403,-44.0,-23.0,0.000152556,  -5.57408E-03,   64.3912E-03,   224.598E-03,0.0449362,0.0135489,-2.14849e-06
22404,-45.0,-23.0,0.000106305,  -3.24911E-03,   64.3914E-03,   156.546E-03,0.0459663,0.013857,-5.59636e-07
22409,-46.0,-23.0,6.82198e-05,  -1.67092E-03,   64.3916E-03,   100.490E-03,0.0468112,0.0141101,9.58826e-07
22412,-47.0,-23.0,3.84506e-05,  -704.786E-06,   64.3917E-03,   56.6553E-03,0.0474671,0.014307,2.09465e-06
22413,-48.0,-23.0,1.71114e-05,  -206.280E-06,   64.3917E-03,   25.2206E-03,0.0479312,0.0144467,2.48439e-06
22418,-49.0,-23.0,4.2806999999999995e-06,  -23.5894E-06,   64.3917E-03,   6.31103E-03,0.0482018,0.0145284,1.7554e-06
22419,-50.0,-23.0,0.0,  -12.9592E-42,   64.3917E-03,           -0.,0.0482884,0.0145546,1.06777e-06
22424,50.0,-24.0,0.0,      -1.01048,   64.3908E-03,           -0.,0.0482843,0.0145537,-1.29094e-06
22427,49.0,-24.0,4.2980400000000004e-06,      -1.01046,   64.3908E-03,   6.31060E-03,0.0481987,0.0145278,-2.15018e-06
22428,48.0,-24.0,1.71799e-05,      -1.01028,   64.3907E-03,   25.2192E-03,0.0479302,0.0144466,-3.09945e-06
22433,47.0,-24.0,3.86022e-05,      -1.00978,   64.3907E-03,   56.6529E-03,0.0474675,0.0143072,-2.74489e-06
22434,46.0,-24.0,6.848439999999999e-05,      -1.00881,   64.3906E-03,   100.486E-03,0.0468124,0.0141104,-1.52526e-06
22439,45.0,-24.0,0.00010671,      -1.00723,   64.3905E-03,   156.543E-03,0.0459678,0.0138573,1.51937e-07
22442,44.0,-24.0,0.000153127,      -1.00491,   64.3903E-03,   224.595E-03,0.0449376,0.0135491,1.92203e-06
22443,43.0,-24.0,0.00020755,      -1.00171,   64.3900E-03,   304.365E-03,0.0437265,0.0131871,3.50203e-06
22448,42.0,-24.0,0.000269761,  -997.540E-03,   64.3897E-03,   395.528E-03,0.0423401,0.012773,4.69076e-06
22449,41.0,-24.0,0.00033951099999999997,  -992.294E-03,   64.3894E-03,   497.714E-03,0.0407845,0.0123084,5.38557e-06
22454,40.0,-24.0,0.00041652,  -985.900E-03,   64.3891E-03,   610.507E-03,0.0390665,0.011795,5.57231e-06
22457,39.0,-24.0,0.00050048,  -978.300E-03,   64.3888E-03,   733.453E-03,0.0371934,0.011235,5.31365e-06
22458,38.0,-24.0,0.000591055,  -969.453E-03,   64.3885E-03,   866.054E-03,0.0351732,0.0106305,4.72824e-06
22463,37.0,-24.0,0.000687885,  -959.342E-03,   64.3882E-03,       1.00778,0.0330139,0.0099839,3.96284e-06
22464,36.0,-24.0,0.000790584,  -947.966E-03,   64.3880E-03,       1.15806,0.0307241,0.00929776,3.1697e-06
22469,35.0,-24.0,0.000898745,  -935.346E-03,   64.3879E-03,       1.31630,0.0283127,0.0085748,2.48038e-06
22470,34.0,-24.0,0.00101194,  -921.522E-03,   64.3877E-03,       1.48186,0.0257892,0.00781789,1.99189e-06
22475,33.0,-24.0,0.00112972,  -906.553E-03,   64.3876E-03,       1.65410,0.023163,0.00703006,1.75362e-06
22476,32.0,-24.0,0.00125161,  -890.516E-03,   64.3876E-03,       1.83233,0.0204444,0.00621442,1.76645e-06
22481,31.0,-24.0,0.00137715,  -873.503E-03,   64.3875E-03,       2.01586,0.0176438,0.00537421,1.98427e-06
22484,30.0,-24.0,0.00150582,  -855.625E-03,   64.3875E-03,       2.20396,0.014772,0.00451275,2.32384e-06
22485,29.0,-24.0,0.00163713,  -837.004E-03,   64.3875E-03,       2.39589,0.0118403,0.00363345,2.67635e-06
22490,28.0,-24.0,0.00177056,  -817.773E-03,   64.3875E-03,       2.59091,0.00886013,0.00273976,2.92267e-06
22491,27.0,-24.0,0.00190557,  -798.077E-03,   64.3875E-03,       2.78825,0.0058434,0.0018352,2.94835e-06
22496,26.0,-24.0,0.00204165,  -778.065E-03,   64.3875E-03,       2.98715,0.00280213,0.000923339,2.65839e-06
22499,25.0,-24.0,0.00217825,  -757.896E-03,   64.3876E-03,       3.18683,-0.000251433,7.76134e-06,1.98934e-06
22500,24.0,-24.0,0.00231483,  -737.726E-03,   64.3877E-03,       3.38651,-0.003305,-0.000907919,9.18235e-07
22505,23.0,-24.0,0.00245087,  -717.714E-03,   64.3878E-03,       3.58541,-0.00634625,-0.00182008,-5.32878e-07
22506,22.0,-24.0,0.00258581,  -698.016E-03,   64.3879E-03,       3.78276,-0.00936294,-0.00272512,-2.29721e-06
22511,21.0,-24.0,0.00271914,  -678.784E-03,   64.3880E-03,       3.97778,-0.012343,-0.00361943,-4.26831e-06
22514,20.0,-24.0,0.00285032,  -660.160E-03,   64.3881E-03,       4.16973,-0.0152744,-0.00449947,-6.30964e-06
22515,19.0,-24.0,0.00297884,  -642.279E-03,   64.3882E-03,       4.35784,-0.0181457,-0.00536176,-8.26758e-06
22520,18.0,-24.0,0.0031042,  -625.264E-03,   64.3883E-03,       4.54138,-0.0209455,-0.00620288,-9.98671e-06
22521,17.0,-24.0,0.00322589,  -609.224E-03,   64.3883E-03,       4.71963,-0.023663,-0.00701952,-1.13256e-05
22526,16.0,-24.0,0.00334345,  -594.252E-03,   64.3884E-03,       4.89189,-0.0262877,-0.00780846,-1.21718e-05
22529,15.0,-24.0,0.0034564,  -580.424E-03,   64.3884E-03,       5.05747,-0.0288096,-0.00856664,-1.24533e-05
22530,14.0,-24.0,0.00356431,  -567.801E-03,   64.3885E-03,       5.21573,-0.0312189,-0.00929108,-1.2147e-05
22535,13.0,-24.0,0.00366675,  -556.421E-03,   64.3885E-03,       5.36604,-0.0335067,-0.00997898,-1.12809e-05
22536,12.0,-24.0,0.00376331,  -546.306E-03,   64.3886E-03,       5.50779,-0.0356642,-0.0106277,-9.93188e-06
22541,11.0,-24.0,0.00385362,  -537.455E-03,   64.3887E-03,       5.64043,-0.037683,-0.0112346,-8.21754e-06
22544,10.0,-24.0,0.00393731,  -529.850E-03,   64.3887E-03,       5.76341,-0.0395555,-0.0117973,-6.28448e-06
22545,9.0,-24.0,0.00401406,  -523.452E-03,   64.3888E-03,       5.87624,-0.0412742,-0.0123137,-4.2934e-06
22550,8.0,-24.0,0.00408357,  -518.202E-03,   64.3889E-03,       5.97847,-0.0428323,-0.0127816,-2.40322e-06
22551,7.0,-24.0,0.00414556,  -514.024E-03,   64.3890E-03,       6.06968,-0.0442234,-0.0131992,-7.55694e-07
22556,6.0,-24.0,0.00419979,  -510.825E-03,   64.3891E-03,       6.14950,-0.0454416,-0.0135648,5.37778e-07
22559,5.0,-24.0,0.00424604,  -508.497E-03,   64.3893E-03,       6.21761,-0.0464817,-0.0138767,1.40584e-06
22560,4.0,-24.0,0.00428414,  -506.916E-03,   64.3894E-03,       6.27372,-0.0473392,-0.0141338,1.82274e-06
22565,3.0,-24.0,0.00431392,  -505.947E-03,   64.3895E-03,       6.31760,-0.0480102,-0.0143348,1.80938e-06
22566,2.0,-24.0,0.00433528,  -505.448E-03,   64.3895E-03,       6.34907,-0.0484918,-0.0144791,1.42996e-06
22571,1.0,-24.0,0.00434813,  -505.265E-03,   64.3896E-03,       6.36801,-0.0487816,-0.0145659,7.84787e-07
22574,8.38311e-30,-24.0,0.00435242,  -505.241E-03,   64.3896E-03,       6.37433,-0.0488784,-0.0145949,-4.26326e-14
22575,-1.0,-24.0,0.00434813,  -505.217E-03,   64.3896E-03,       6.36801,-0.0487816,-0.0145659,-7.84787e-07
22580,-2.0,-24.0,0.00433528,  -505.034E-03,   64.3895E-03,       6.34907,-0.0484918,-0.0144791,-1.42996e-06
22581,-3.0,-24.0,0.00431392,  -504.534E-03,   64.3895E-03,       6.31760,-0.0480102,-0.0143348,-1.80938e-06
22586,-4.0,-24.0,0.00428414,  -503.566E-03,   64.3894E-03,       6.27372,-0.0473392,-0.0141338,-1.82274e-06
22589,-5.0,-24.0,0.00424604,  -501.985E-03,   64.3893E-03,       6.21761,-0.0464817,-0.0138767,-1.40584e-06
22590,-6.0,-24.0,0.00419979,  -499.657E-03,   64.3891E-03,       6.14950,-0.0454416,-0.0135648,-5.37778e-07
22595,-7.0,-24.0,0.00414556,  -496.458E-03,   64.3890E-03,       6.06968,-0.0442234,-0.0131992,7.55694e-07
22596,-8.0,-24.0,0.00408357,  -492.280E-03,   64.3889E-03,       5.97847,-0.0428323,-0.0127816,2.40322e-06
22601,-9.0,-24.0,0.00401406,  -487.030E-03,   64.3888E-03,       5.87624,-0.0412742,-0.0123137,4.2934e-06
22604,-10.0,-24.0,0.00393731,  -480.632E-03,   64.3887E-03,       5.76341,-0.0395555,-0.0117973,6.28448e-06
22605,-11.0,-24.0,0.00385362,  -473.027E-03,   64.3887E-03,       5.64043,-0.037683,-0.0112346,8.21754e-06
22610,-12.0,-24.0,0.00376331,  -464.176E-03,   64.3886E-03,       5.50779,-0.0356642,-0.0106277,9.93188e-06
22611,-13.0,-24.0,0.00366675,  -454.061E-03,   64.3885E-03,       5.36604,-0.0335067,-0.00997898,1.12809e-05
22616,-14.0,-24.0,0.00356431,  -442.681E-03,   64.3885E-03,       5.21573,-0.0312189,-0.00929108,1.2147e-05
22619,-15.0,-24.0,0.0034564,  -430.058E-03,   64.3884E-03,       5.05747,-0.0288096,-0.00856664,1.24533e-05
22620,-16.0,-24.0,0.00334345,  -416.230E-03,   64.3884E-03,       4.89189,-0.0262877,-0.00780846,1.21718e-05
22625,-17.0,-24.0,0.00322589,  -401.258E-03,   64.3883E-03,       4.71963,-0.023663,-0.00701952,1.13256e-05
22626,-18.0,-24.0,0.0031042,  -385.217E-03,   64.3883E-03,       4.54138,-0.0209455,-0.00620288,9.98671e-06
22631,-19.0,-24.0,0.00297884,  -368.202E-03,   64.3882E-03,       4.35784,-0.0181457,-0.00536176,8.26758e-06
22634,-20.0,-24.0,0.00285032,  -350.322E-03,   64.3881E-03,       4.16973,-0.0152744,-0.00449947,6.30964e-06
22635,-21.0,-24.0,0.00271914,  -331.698E-03,   64.3880E-03,       3.97778,-0.012343,-0.00361943,4.26831e-06
22640,-22.0,-24.0,0.00258581,  -312.466E-03,   64.3879E-03,       3.78276,-0.00936294,-0.00272512,2.29721e-06
22641,-23.0,-24.0,0.00245087,  -292.768E-03,   64.3878E-03,       3.58541,-0.00634625,-0.00182008,5.32878e-07
22646,-24.0,-24.0,0.00231483,  -272.756E-03,   64.3877E-03,       3.38651,-0.003305,-0.000907919,-9.18235e-07
22649,-25.0,-24.0,0.00217825,  -252.586E-03,   64.3876E-03,       3.18683,-0.000251433,7.76134e-06,-1.98934e-06
22650,-26.0,-24.0,0.00204165,  -232.416E-03,   64.3875E-03,       2.98715,0.00280213,0.000923339,-2.65839e-06
22655,-27.0,-24.0,0.00190557,  -212.405E-03,   64.3875E-03,       2.78825,0.0058434,0.0018352,-2.94835e-06
22656,-28.0,-24.0,0.00177056,  -192.709E-03,   64.3875E-03,       2.59091,0.00886013,0.00273976,-2.92267e-06
22661,-29.0,-24.0,0.00163713,  -173.478E-03,   64.3875E-03,       2.39589,0.0118403,0.00363345,-2.67635e-06
22664,-30.0,-24.0,0.00150582,  -154.856E-03,   64.3875E-03,       2.20396,0.014772,0.00451275,-2.32384e-06
22665,-31.0,-24.0,0.00137715,  -136.978E-03,   64.3875E-03,       2.01586,0.0176438,0.00537421,-1.98427e-06
22670,-32.0,-24.0,0.00125161,  -119.966E-03,   64.3876E-03,       1.83233,0.0204444,0.00621442,-1.76645e-06
22671,-33.0,-24.0,0.00112972,  -103.929E-03,   64.3876E-03,       1.65410,0.023163,0.00703006,-1.75362e-06
22676,-34.0,-24.0,0.00101194,  -88.9594E-03,   64.3877E-03,       1.48186,0.0257892,0.00781789,-1.99189e-06
22679,-35.0,-24.0,0.000898745,  -75.1354E-03,   64.3879E-03,       1.31630,0.0283127,0.0085748,-2.48038e-06
22680,-36.0,-24.0,0.000790584,  -62.5155E-03,   64.3880E-03,       1.15806,0.0307241,0.00929776,-3.1697e-06
22685,-37.0,-24.0,0.000687885,  -51.1397E-03,   64.3882E-03,       1.00778,0.0330139,0.0099839,-3.96284e-06
22686,-38.0,-24.0,0.000591055,  -41.0284E-03,   64.3885E-03,   866.054E-03,0.0351732,0.0106305,-4.72824e-06
22691,-39.0,-24.0,0.00050048,  -32.1821E-03,   64.3888E-03,   733.453E-03,0.0371934,0.011235,-5.31365e-06
22694,-40.0,-24.0,0.00041652,  -24.5815E-03,   64.3891E-03,   610.507E-03,0.0390665,0.011795,-5.57231e-06
22695,-41.0,-24.0,0.00033951099999999997,  -18.1876E-03,   64.3894E-03,   497.714E-03,0.0407845,0.0123084,-5.38557e-06
22700,-42.0,-24.0,0.000269761,  -12.9421E-03,   64.3897E-03,   395.528E-03,0.0423401,0.012773,-4.69076e-06
22701,-43.0,-24.0,0.00020755,  -8.76877E-03,   64.3900E-03,   304.365E-03,0.0437265,0.0131871,-3.50203e-06
22706,-44.0,-24.0,0.000153127,  -5.57408E-03,   64.3903E-03,   224.595E-03,0.0449376,0.0135491,-1.92203e-06
22709,-45.0,-24.0,0.00010671,  -3.24907E-03,   64.3905E-03,   156.543E-03,0.0459678,0.0138573,-1.51937e-07
22710,-46.0,-24.0,6.848439999999999e-05,  -1.67088E-03,   64.3906E-03,   100.486E-03,0.0468124,0.0141104,1.52526e-06
22715,-47.0,-24.0,3.86022e-05,  -704.773E-06,   64.3907E-03,   56.6529E-03,0.0474675,0.0143072,2.74489e-06
22716,-48.0,-24.0,1.71799e-05,  -206.284E-06,   64.3907E-03,   25.2192E-03,0.0479302,0.0144466,3.09945e-06
22721,-49.0,-24.0,4.2980400000000004e-06,  -23.5999E-06,   64.3908E-03,   6.31060E-03,0.0481987,0.0145278,2.15018e-06
22724,-50.0,-24.0,0.0,  -13.0111E-42,   64.3908E-03,           -0.,0.0482843,0.0145537,1.29094e-06
22725,50.0,-25.0,0.0,      -1.01048,   64.3898E-03,           -0.,0.0482795,0.0145527,-1.55586e-06
22730,49.0,-25.0,4.31667e-06,      -1.01046,   64.3898E-03,   6.31012E-03,0.0481953,0.0145272,-2.59568e-06
22731,48.0,-25.0,1.72534e-05,      -1.01028,   64.3898E-03,   25.2176E-03,0.047929,0.0144466,-3.80621e-06
22736,47.0,-25.0,3.87645e-05,      -1.00978,   64.3897E-03,   56.6501E-03,0.0474679,0.0143075,-3.5137e-06
22739,46.0,-25.0,6.8767e-05,      -1.00881,   64.3896E-03,   100.483E-03,0.0468137,0.0141108,-2.21521e-06
22740,45.0,-25.0,0.00010714200000000001,      -1.00723,   64.3895E-03,   156.539E-03,0.0459695,0.0138576,-3.84627e-07
22745,44.0,-25.0,0.000153735,      -1.00491,   64.3893E-03,   224.591E-03,0.0449392,0.0135493,1.57803e-06
22746,43.0,-25.0,0.00020835799999999999,      -1.00171,   64.3890E-03,   304.362E-03,0.0437277,0.0131871,3.34349e-06
22751,42.0,-25.0,0.00027079,  -997.539E-03,   64.3887E-03,   395.527E-03,0.0423406,0.0127727,4.69064e-06
22754,41.0,-25.0,0.00034078,  -992.294E-03,   64.3884E-03,   497.714E-03,0.0407843,0.0123078,5.49962e-06
22755,40.0,-25.0,0.000418046,  -985.900E-03,   64.3880E-03,   610.509E-03,0.0390657,0.0117943,5.75431e-06
22760,39.0,-25.0,0.000502279,  -978.299E-03,   64.3877E-03,   733.455E-03,0.0371922,0.0112341,5.5237e-06
22761,38.0,-25.0,0.00059314,  -969.453E-03,   64.3874E-03,   866.057E-03,0.0351717,0.0106296,4.93578e-06
22766,37.0,-25.0,0.0006902680000000001,  -959.341E-03,   64.3871E-03,       1.00778,0.0330123,0.00998306,4.15239e-06
22769,36.0,-25.0,0.000793275,  -947.965E-03,   64.3869E-03,       1.15806,0.0307227,0.00929706,3.33619e-06
22770,35.0,-25.0,0.0009017539999999999,  -935.345E-03,   64.3867E-03,       1.31630,0.0283117,0.00857431,2.63122e-06
22775,34.0,-25.0,0.00101527,  -921.522E-03,   64.3866E-03,       1.48186,0.0257886,0.00781766,2.14039e-06
22776,33.0,-25.0,0.00113338,  -906.553E-03,   64.3865E-03,       1.65410,0.0231629,0.0070301,1.91871e-06
22781,32.0,-25.0,0.00125562,  -890.515E-03,   64.3864E-03,       1.83233,0.0204447,0.00621472,1.96675e-06
22784,31.0,-25.0,0.00138149,  -873.503E-03,   64.3863E-03,       2.01586,0.0176444,0.00537472,2.23613e-06
22785,30.0,-25.0,0.00151051,  -855.625E-03,   64.3863E-03,       2.20396,0.0147728,0.00451343,2.63628e-06
22790,29.0,-25.0,0.00164217,  -837.003E-03,   64.3863E-03,       2.39589,0.011841,0.00363422,3.04847e-06
22791,28.0,-25.0,0.00177595,  -817.773E-03,   64.3863E-03,       2.59091,0.00886063,0.00274057,3.34052e-06
22796,27.0,-25.0,0.00191132,  -798.076E-03,   64.3863E-03,       2.78825,0.00584352,0.00183599,3.38425e-06
22799,26.0,-25.0,0.00204774,  -778.065E-03,   64.3863E-03,       2.98715,0.00280178,0.000924072,3.07173e-06
22800,25.0,-25.0,0.00218469,  -757.895E-03,   64.3864E-03,       3.18683,-0.000252327,8.41088e-06,2.33004e-06
22805,24.0,-25.0,0.00232162,  -737.724E-03,   64.3864E-03,       3.38651,-0.00330642,-0.000907363,1.13224e-06
22806,23.0,-25.0,0.002458,  -717.712E-03,   64.3865E-03,       3.58541,-0.00634813,-0.00181962,-4.96652e-07
22811,22.0,-25.0,0.00259328,  -698.015E-03,   64.3866E-03,       3.78276,-0.00936514,-0.00272473,-2.47932e-06
22814,21.0,-25.0,0.00272694,  -678.782E-03,   64.3868E-03,       3.97778,-0.0123453,-0.00361911,-4.69206e-06
22815,20.0,-25.0,0.00285845,  -660.158E-03,   64.3869E-03,       4.16973,-0.0152767,-0.00449921,-6.97614e-06
22820,19.0,-25.0,0.00298729,  -642.278E-03,   64.3870E-03,       4.35784,-0.0181478,-0.00536154,-9.15368e-06
22821,18.0,-25.0,0.00311296,  -625.263E-03,   64.3871E-03,       4.54138,-0.0209472,-0.00620271,-1.10462e-05
22826,17.0,-25.0,0.00323496,  -609.223E-03,   64.3872E-03,       4.71962,-0.0236641,-0.00701939,-1.24935e-05
22829,16.0,-25.0,0.0033528,  -594.251E-03,   64.3872E-03,       4.89188,-0.0262882,-0.00780839,-1.33714e-05
22830,15.0,-25.0,0.00346604,  -580.424E-03,   64.3873E-03,       5.05747,-0.0288094,-0.00856664,-1.36048e-05
22835,14.0,-25.0,0.00357421,  -567.800E-03,   64.3874E-03,       5.21572,-0.0312182,-0.00929117,-1.31761e-05
22836,13.0,-25.0,0.0036769,  -556.421E-03,   64.3875E-03,       5.36603,-0.0335054,-0.00997917,-1.21271e-05
22841,12.0,-25.0,0.0037737,  -546.306E-03,   64.3875E-03,       5.50778,-0.0356625,-0.010628,-1.05538e-05
22844,11.0,-25.0,0.00386422,  -537.455E-03,   64.3876E-03,       5.64041,-0.0376812,-0.011235,-8.59654e-06
22845,10.0,-25.0,0.00394812,  -529.850E-03,   64.3877E-03,       5.76339,-0.0395537,-0.0117979,-6.4245e-06
22850,9.0,-25.0,0.00402506,  -523.452E-03,   64.3878E-03,       5.87623,-0.0412726,-0.0123143,-4.21866e-06
22851,8.0,-25.0,0.00409474,  -518.202E-03,   64.3879E-03,       5.97846,-0.042831,-0.0127823,-2.15367e-06
22856,7.0,-25.0,0.00415688,  -514.024E-03,   64.3880E-03,       6.06967,-0.0442224,-0.0132,-3.81401e-07
22859,6.0,-25.0,0.00421125,  -510.825E-03,   64.3882E-03,       6.14949,-0.0454411,-0.0135655,9.82429e-07
22860,5.0,-25.0,0.00425761,  -508.497E-03,   64.3883E-03,       6.21760,-0.0464817,-0.0138775,1.86744e-06
22865,4.0,-25.0,0.0042958,  -506.916E-03,   64.3884E-03,       6.27371,-0.0473397,-0.0141345,2.25303e-06
22866,3.0,-25.0,0.00432566,  -505.947E-03,   64.3885E-03,       6.31759,-0.0480111,-0.0143356,2.16803e-06
22871,2.0,-25.0,0.00434707,  -505.448E-03,   64.3885E-03,       6.34906,-0.0484929,-0.0144798,1.6862e-06
22874,1.0,-25.0,0.00435995,  -505.265E-03,   64.3886E-03,       6.36800,-0.048783,-0.0145666,9.18039e-07
22875,-8.073769999999999e-30,-25.0,0.00436425,  -505.241E-03,   64.3886E-03,       6.37432,-0.0488798,-0.0145956,-3.55271e-14
22880,-1.0,-25.0,0.00435995,  -505.217E-03,   64.3886E-03,       6.36800,-0.048783,-0.0145666,-9.18039e-07
22881,-2.0,-25.0,0.00434707,  -505.034E-03,   64.3885E-03,       6.34906,-0.0484929,-0.0144798,-1.6862e-06
22886,-3.0,-25.0,0.00432566,  -504.534E-03,   64.3885E-03,       6.31759,-0.0480111,-0.0143356,-2.16803e-06
22889,-4.0,-25.0,0.0042958,  -503.566E-03,   64.3884E-03,       6.27371,-0.0473397,-0.0141345,-2.25303e-06
22890,-5.0,-25.0,0.00425761,  -501.985E-03,   64.3883E-03,       6.21760,-0.0464817,-0.0138775,-1.86744e-06
22895,-6.0,-25.0,0.00421125,  -499.656E-03,   64.3882E-03,       6.14949,-0.0454411,-0.0135655,-9.82429e-07
22896,-7.0,-25.0,0.00415688,  -496.458E-03,   64.3880E-03,       6.06967,-0.0442224,-0.0132,3.81401e-07
22901,-8.0,-25.0,0.00409474,  -492.280E-03,   64.3879E-03,       5.97846,-0.042831,-0.0127823,2.15367e-06
22904,-9.0,-25.0,0.00402506,  -487.030E-03,   64.3878E-03,       5.87623,-0.0412726,-0.0123143,4.21866e-06
22905,-10.0,-25.0,0.00394812,  -480.631E-03,   64.3877E-03,       5.76339,-0.0395537,-0.0117979,6.4245e-06
22910,-11.0,-25.0,0.00386422,  -473.026E-03,   64.3876E-03,       5.64041,-0.0376812,-0.011235,8.59654e-06
22911,-12.0,-25.0,0.0037737,  -464.176E-03,   64.3875E-03,       5.50778,-0.0356625,-0.010628,1.05538e-05
22916,-13.0,-25.0,0.0036769,  -454.061E-03,   64.3875E-03,       5.36603,-0.0335054,-0.00997917,1.21271e-05
22919,-14.0,-25.0,0.00357421,  -442.681E-03,   64.3874E-03,       5.21572,-0.0312182,-0.00929117,1.31761e-05
22920,-15.0,-25.0,0.00346604,  -430.058E-03,   64.3873E-03,       5.05747,-0.0288094,-0.00856664,1.36048e-05
22925,-16.0,-25.0,0.0033528,  -416.231E-03,   64.3872E-03,       4.89188,-0.0262882,-0.00780839,1.33714e-05
22926,-17.0,-25.0,0.00323496,  -401.259E-03,   64.3872E-03,       4.71962,-0.0236641,-0.00701939,1.24935e-05
22931,-18.0,-25.0,0.00311296,  -385.219E-03,   64.3871E-03,       4.54138,-0.0209472,-0.00620271,1.10462e-05
22934,-19.0,-25.0,0.00298729,  -368.204E-03,   64.3870E-03,       4.35784,-0.0181478,-0.00536154,9.15368e-06
22935,-20.0,-25.0,0.00285845,  -350.323E-03,   64.3869E-03,       4.16973,-0.0152767,-0.00449921,6.97614e-06
22940,-21.0,-25.0,0.00272694,  -331.700E-03,   64.3868E-03,       3.97778,-0.0123453,-0.00361911,4.69206e-06
22941,-22.0,-25.0,0.00259328,  -312.467E-03,   64.3866E-03,       3.78276,-0.00936514,-0.00272473,2.47932e-06
22946,-23.0,-25.0,0.002458,  -292.769E-03,   64.3865E-03,       3.58541,-0.00634813,-0.00181962,4.96652e-07
22947,-24.0,-25.0,0.00232162,  -272.757E-03,   64.3864E-03,       3.38651,-0.00330642,-0.000907363,-1.13224e-06
22952,-25.0,-25.0,0.00218469,  -252.587E-03,   64.3864E-03,       3.18683,-0.000252327,8.41088e-06,-2.33004e-06
22953,-26.0,-25.0,0.00204774,  -232.417E-03,   64.3863E-03,       2.98715,0.00280178,0.000924072,-3.07173e-06
22958,-27.0,-25.0,0.00191132,  -212.406E-03,   64.3863E-03,       2.78825,0.00584352,0.00183599,-3.38425e-06
22961,-28.0,-25.0,0.00177595,  -192.709E-03,   64.3863E-03,       2.59091,0.00886063,0.00274057,-3.34052e-06
22962,-29.0,-25.0,0.00164217,  -173.478E-03,   64.3863E-03,       2.39589,0.011841,0.00363422,-3.04847e-06
22967,-30.0,-25.0,0.00151051,  -154.857E-03,   64.3863E-03,       2.20396,0.0147728,0.00451343,-2.63628e-06
22968,-31.0,-25.0,0.00138149,  -136.979E-03,   64.3863E-03,       2.01586,0.0176444,0.00537472,-2.23613e-06
22973,-32.0,-25.0,0.00125562,  -119.967E-03,   64.3864E-03,       1.83233,0.0204447,0.00621472,-1.96675e-06
22976,-33.0,-25.0,0.00113338,  -103.929E-03,   64.3865E-03,       1.65410,0.0231629,0.0070301,-1.91871e-06
22977,-34.0,-25.0,0.00101527,  -88.9602E-03,   64.3866E-03,       1.48186,0.0257886,0.00781766,-2.14039e-06
22982,-35.0,-25.0,0.0009017539999999999,  -75.1363E-03,   64.3867E-03,       1.31630,0.0283117,0.00857431,-2.63122e-06
22983,-36.0,-25.0,0.000793275,  -62.5165E-03,   64.3869E-03,       1.15806,0.0307227,0.00929706,-3.33619e-06
22988,-37.0,-25.0,0.0006902680000000001,  -51.1406E-03,   64.3871E-03,       1.00778,0.0330123,0.00998306,-4.15239e-06
22991,-38.0,-25.0,0.00059314,  -41.0292E-03,   64.3874E-03,   866.057E-03,0.0351717,0.0106296,-4.93578e-06
22992,-39.0,-25.0,0.000502279,  -32.1829E-03,   64.3877E-03,   733.455E-03,0.0371922,0.0112341,-5.5237e-06
22997,-40.0,-25.0,0.000418046,  -24.5821E-03,   64.3880E-03,   610.509E-03,0.0390657,0.0117943,-5.75431e-06
22998,-41.0,-25.0,0.00034078,  -18.1880E-03,   64.3884E-03,   497.714E-03,0.0407843,0.0123078,-5.49962e-06
23003,-42.0,-25.0,0.00027079,  -12.9424E-03,   64.3887E-03,   395.527E-03,0.0423406,0.0127727,-4.69064e-06
23006,-43.0,-25.0,0.00020835799999999999,  -8.76887E-03,   64.3890E-03,   304.362E-03,0.0437277,0.0131871,-3.34349e-06
23007,-44.0,-25.0,0.000153735,  -5.57410E-03,   64.3893E-03,   224.591E-03,0.0449392,0.0135493,-1.57803e-06
23012,-45.0,-25.0,0.00010714200000000001,  -3.24904E-03,   64.3895E-03,   156.539E-03,0.0459695,0.0138576,3.84627e-07
23013,-46.0,-25.0,6.8767e-05,  -1.67085E-03,   64.3896E-03,   100.483E-03,0.0468137,0.0141108,2.21521e-06
23018,-47.0,-25.0,3.87645e-05,  -704.760E-06,   64.3897E-03,   56.6501E-03,0.0474679,0.0143075,3.5137e-06
23021,-48.0,-25.0,1.72534e-05,  -206.293E-06,   64.3898E-03,   25.2176E-03,0.047929,0.0144466,3.80621e-06
23022,-49.0,-25.0,4.31667e-06,  -23.6126E-06,   64.3898E-03,   6.31012E-03,0.0481953,0.0145272,2.59568e-06
23027,-50.0,-25.0,0.0,  -13.0741E-42,   64.3898E-03,           -0.,0.0482795,0.0145527,1.55586e-06
23028,50.0,-26.0,0.0,      -1.01048,   64.3888E-03,           -0.,0.0482741,0.014552,-1.83453e-06
23033,49.0,-26.0,4.3366300000000005e-06,      -1.01046,   64.3888E-03,   6.30956E-03,0.0481913,0.0145268,-3.09891e-06
23036,48.0,-26.0,1.7332e-05,      -1.01028,   64.3888E-03,   25.2158E-03,0.0479277,0.0144468,-4.61349e-06
23037,47.0,-26.0,3.8937800000000005e-05,      -1.00978,   64.3887E-03,   56.6470E-03,0.0474683,0.0143081,-4.40911e-06
23042,46.0,-26.0,6.90682e-05,      -1.00881,   64.3887E-03,   100.479E-03,0.0468152,0.0141115,-3.05653e-06
23043,45.0,-26.0,0.000107601,      -1.00723,   64.3885E-03,   156.535E-03,0.0459714,0.0138582,-1.07191e-06
23048,44.0,-26.0,0.00015438,      -1.00491,   64.3883E-03,   224.587E-03,0.044941,0.0135495,1.08036e-06
23051,43.0,-26.0,0.000209213,      -1.00171,   64.3880E-03,   304.359E-03,0.043729,0.013187,3.0419e-06
23052,42.0,-26.0,0.000271878,  -997.539E-03,   64.3877E-03,   395.525E-03,0.0423412,0.0127723,4.55683e-06
23057,41.0,-26.0,0.00034212099999999997,  -992.293E-03,   64.3874E-03,   497.714E-03,0.040784,0.012307,5.49515e-06
23058,40.0,-26.0,0.000419657,  -985.899E-03,   64.3870E-03,   610.511E-03,0.0390647,0.0117932,5.83857e-06
23063,39.0,-26.0,0.000504175,  -978.298E-03,   64.3867E-03,   733.458E-03,0.0371907,0.0112329,5.66137e-06
23066,38.0,-26.0,0.000595336,  -969.452E-03,   64.3863E-03,   866.061E-03,0.0351698,0.0106283,5.10476e-06
23067,37.0,-26.0,0.000692775,  -959.340E-03,   64.3860E-03,       1.00779,0.0330105,0.00998178,4.33845e-06
23072,36.0,-26.0,0.000796105,  -947.964E-03,   64.3858E-03,       1.15807,0.0307211,0.00929598,3.5373e-06
23073,35.0,-26.0,0.000904915,  -935.344E-03,   64.3856E-03,       1.31630,0.0283105,0.00857354,2.8491e-06
23078,34.0,-26.0,0.00101877,  -921.521E-03,   64.3854E-03,       1.48187,0.0257879,0.00781726,2.38331e-06
23081,33.0,-26.0,0.00113723,  -906.552E-03,   64.3853E-03,       1.65410,0.0231628,0.0070301,2.19509e-06
23082,32.0,-26.0,0.00125982,  -890.515E-03,   64.3852E-03,       1.83233,0.0204451,0.00621509,2.28652e-06
23087,31.0,-26.0,0.00138605,  -873.503E-03,   64.3851E-03,       2.01586,0.0176452,0.00537542,2.60577e-06
23088,30.0,-26.0,0.00151544,  -855.625E-03,   64.3851E-03,       2.20395,0.0147737,0.00451435,3.05777e-06
23093,29.0,-26.0,0.00164746,  -837.003E-03,   64.3850E-03,       2.39589,0.0118419,0.00363528,3.51484e-06
23096,28.0,-26.0,0.00178161,  -817.772E-03,   64.3850E-03,       2.59090,0.00886124,0.00274166,3.83387e-06
23097,27.0,-26.0,0.00191734,  -798.075E-03,   64.3850E-03,       2.78825,0.0058437,0.00183704,3.87374e-06
23102,26.0,-26.0,0.00205414,  -778.064E-03,   64.3851E-03,       2.98715,0.00280138,0.000925018,3.51448e-06
23103,25.0,-26.0,0.00219146,  -757.894E-03,   64.3851E-03,       3.18683,-0.000253352,9.21787e-06,2.67415e-06
23108,24.0,-26.0,0.00232875,  -737.723E-03,   64.3852E-03,       3.38650,-0.00330806,-0.000906705,1.32247e-06
23111,23.0,-26.0,0.00246549,  -717.711E-03,   64.3853E-03,       3.58541,-0.00635028,-0.0018191,-5.11434e-07
23112,22.0,-26.0,0.00260113,  -698.013E-03,   64.3854E-03,       3.78276,-0.00936764,-0.00272433,-2.7381e-06
23117,21.0,-26.0,0.00273515,  -678.780E-03,   64.3855E-03,       3.97778,-0.012348,-0.0036188,-5.21437e-06
23118,20.0,-26.0,0.002867,  -660.157E-03,   64.3856E-03,       4.16973,-0.0152793,-0.00449896,-7.75704e-06
23123,19.0,-26.0,0.00299618,  -642.277E-03,   64.3858E-03,       4.35784,-0.01815,-0.00536134,-1.01619e-05
23126,18.0,-26.0,0.00312218,  -625.262E-03,   64.3859E-03,       4.54137,-0.0209489,-0.00620253,-1.22262e-05
23127,17.0,-26.0,0.00324449,  -609.222E-03,   64.3860E-03,       4.71962,-0.0236652,-0.00701925,-1.37708e-05
23132,16.0,-26.0,0.00336265,  -594.250E-03,   64.3861E-03,       4.89187,-0.0262886,-0.0078083,-1.46611e-05
23133,15.0,-26.0,0.00347618,  -580.423E-03,   64.3862E-03,       5.05746,-0.0288091,-0.00856661,-1.48213e-05
23138,14.0,-26.0,0.00358463,  -567.800E-03,   64.3863E-03,       5.21571,-0.0312172,-0.00929124,-1.42429e-05
23141,13.0,-26.0,0.00368759,  -556.421E-03,   64.3864E-03,       5.36602,-0.033504,-0.00997935,-1.29847e-05
23142,12.0,-26.0,0.00378464,  -546.306E-03,   64.3865E-03,       5.50777,-0.0356607,-0.0106283,-1.11657e-05
23147,11.0,-26.0,0.0038754,  -537.456E-03,   64.3866E-03,       5.64040,-0.0376793,-0.0112354,-8.95118e-06
23148,10.0,-26.0,0.00395952,  -529.851E-03,   64.3867E-03,       5.76338,-0.0395518,-0.0117984,-6.53431e-06
23153,9.0,-26.0,0.00403666,  -523.452E-03,   64.3868E-03,       5.87621,-0.041271,-0.012315,-4.11605e-06
23156,8.0,-26.0,0.00410652,  -518.202E-03,   64.3869E-03,       5.97844,-0.0428297,-0.0127831,-1.88523e-06
23157,7.0,-26.0,0.00416883,  -514.024E-03,   64.3871E-03,       6.06965,-0.0442216,-0.0132008,-1.2096e-09
23162,6.0,-26.0,0.00422333,  -510.826E-03,   64.3872E-03,       6.14948,-0.0454408,-0.0135664,1.41915e-06
23163,5.0,-26.0,0.00426982,  -508.497E-03,   64.3873E-03,       6.21758,-0.0464819,-0.0138784,2.3095e-06
23168,4.0,-26.0,0.0043081,  -506.916E-03,   64.3874E-03,       6.27369,-0.0473403,-0.0141354,2.65678e-06
23171,3.0,-26.0,0.00433804,  -505.947E-03,   64.3875E-03,       6.31758,-0.0480121,-0.0143364,2.49915e-06
23172,2.0,-26.0,0.00435951,  -505.448E-03,   64.3875E-03,       6.34905,-0.0484943,-0.0144806,1.91995e-06
23177,1.0,-26.0,0.00437242,  -505.265E-03,   64.3876E-03,       6.36799,-0.0487844,-0.0145674,1.03869e-06
23178,-1.53075e-29,-26.0,0.00437673,  -505.241E-03,   64.3876E-03,       6.37431,-0.0488813,-0.0145963,-2.84217e-14
23183,-1.0,-26.0,0.00437242,  -505.217E-03,   64.3876E-03,       6.36799,-0.0487844,-0.0145674,-1.03869e-06
23186,-2.0,-26.0,0.00435951,  -505.034E-03,   64.3875E-03,       6.34905,-0.0484943,-0.0144806,-1.91995e-06
23187,-3.0,-26.0,0.00433804,  -504.534E-03,   64.3875E-03,       6.31758,-0.0480121,-0.0143364,-2.49915e-06
23192,-4.0,-26.0,0.0043081,  -503.566E-03,   64.3874E-03,       6.27369,-0.0473403,-0.0141354,-2.65678e-06
23193,-5.0,-26.0,0.00426982,  -501.985E-03,   64.3873E-03,       6.21758,-0.0464819,-0.0138784,-2.3095e-06
23198,-6.0,-26.0,0.00422333,  -499.656E-03,   64.3872E-03,       6.14948,-0.0454408,-0.0135664,-1.41915e-06
23201,-7.0,-26.0,0.00416883,  -496.457E-03,   64.3871E-03,       6.06965,-0.0442216,-0.0132008,1.20961e-09
23202,-8.0,-26.0,0.00410652,  -492.279E-03,   64.3869E-03,       5.97844,-0.0428297,-0.0127831,1.88523e-06
23207,-9.0,-26.0,0.00403666,  -487.029E-03,   64.3868E-03,       5.87621,-0.041271,-0.012315,4.11605e-06
23208,-10.0,-26.0,0.00395952,  -480.631E-03,   64.3867E-03,       5.76338,-0.0395518,-0.0117984,6.53431e-06
23213,-11.0,-26.0,0.0038754,  -473.026E-03,   64.3866E-03,       5.64040,-0.0376793,-0.0112354,8.95118e-06
23216,-12.0,-26.0,0.00378464,  -464.176E-03,   64.3865E-03,       5.50777,-0.0356607,-0.0106283,1.11657e-05
23217,-13.0,-26.0,0.00368759,  -454.061E-03,   64.3864E-03,       5.36602,-0.033504,-0.00997935,1.29847e-05
23222,-14.0,-26.0,0.00358463,  -442.681E-03,   64.3863E-03,       5.21571,-0.0312172,-0.00929124,1.42429e-05
23223,-15.0,-26.0,0.00347618,  -430.058E-03,   64.3862E-03,       5.05746,-0.0288091,-0.00856661,1.48213e-05
23228,-16.0,-26.0,0.00336265,  -416.232E-03,   64.3861E-03,       4.89187,-0.0262886,-0.0078083,1.46611e-05
23231,-17.0,-26.0,0.00324449,  -401.260E-03,   64.3860E-03,       4.71962,-0.0236652,-0.00701925,1.37708e-05
23232,-18.0,-26.0,0.00312218,  -385.220E-03,   64.3859E-03,       4.54137,-0.0209489,-0.00620253,1.22262e-05
23237,-19.0,-26.0,0.00299618,  -368.205E-03,   64.3858E-03,       4.35784,-0.01815,-0.00536134,1.01619e-05
23238,-20.0,-26.0,0.002867,  -350.325E-03,   64.3856E-03,       4.16973,-0.0152793,-0.00449896,7.75704e-06
23243,-21.0,-26.0,0.00273515,  -331.701E-03,   64.3855E-03,       3.97778,-0.012348,-0.0036188,5.21437e-06
23246,-22.0,-26.0,0.00260113,  -312.469E-03,   64.3854E-03,       3.78276,-0.00936764,-0.00272433,2.7381e-06
23247,-23.0,-26.0,0.00246549,  -292.771E-03,   64.3853E-03,       3.58541,-0.00635028,-0.0018191,5.11434e-07
23252,-24.0,-26.0,0.00232875,  -272.759E-03,   64.3852E-03,       3.38650,-0.00330806,-0.000906705,-1.32247e-06
23253,-25.0,-26.0,0.00219146,  -252.588E-03,   64.3851E-03,       3.18683,-0.000253352,9.21787e-06,-2.67415e-06
23258,-26.0,-26.0,0.00205414,  -232.418E-03,   64.3851E-03,       2.98715,0.00280138,0.000925018,-3.51448e-06
23261,-27.0,-26.0,0.00191734,  -212.406E-03,   64.3850E-03,       2.78825,0.0058437,0.00183704,-3.87374e-06
23262,-28.0,-26.0,0.00178161,  -192.710E-03,   64.3850E-03,       2.59090,0.00886124,0.00274166,-3.83387e-06
23267,-29.0,-26.0,0.00164746,  -173.479E-03,   64.3850E-03,       2.39589,0.0118419,0.00363528,-3.51484e-06
23268,-30.0,-26.0,0.00151544,  -154.857E-03,   64.3851E-03,       2.20395,0.0147737,0.00451435,-3.05777e-06
23273,-31.0,-26.0,0.00138605,  -136.979E-03,   64.3851E-03,       2.01586,0.0176452,0.00537542,-2.60577e-06
23276,-32.0,-26.0,0.00125982,  -119.967E-03,   64.3852E-03,       1.83233,0.0204451,0.00621509,-2.28652e-06
23277,-33.0,-26.0,0.00113723,  -103.930E-03,   64.3853E-03,       1.65410,0.0231628,0.0070301,-2.19509e-06
23282,-34.0,-26.0,0.00101877,  -88.9611E-03,   64.3854E-03,       1.48187,0.0257879,0.00781726,-2.38331e-06
23283,-35.0,-26.0,0.000904915,  -75.1373E-03,   64.3856E-03,       1.31630,0.0283105,0.00857354,-2.8491e-06
23288,-36.0,-26.0,0.000796105,  -62.5176E-03,   64.3858E-03,       1.15807,0.0307211,0.00929598,-3.5373e-06
23291,-37.0,-26.0,0.000692775,  -51.1417E-03,   64.3860E-03,       1.00779,0.0330105,0.00998178,-4.33845e-06
23292,-38.0,-26.0,0.000595336,  -41.0303E-03,   64.3863E-03,   866.061E-03,0.0351698,0.0106283,-5.10476e-06
23297,-39.0,-26.0,0.000504175,  -32.1837E-03,   64.3867E-03,   733.458E-03,0.0371907,0.0112329,-5.66137e-06
23298,-40.0,-26.0,0.000419657,  -24.5828E-03,   64.3870E-03,   610.511E-03,0.0390647,0.0117932,-5.83857e-06
23303,-41.0,-26.0,0.00034212099999999997,  -18.1885E-03,   64.3874E-03,   497.714E-03,0.040784,0.012307,-5.49515e-06
23306,-42.0,-26.0,0.000271878,  -12.9427E-03,   64.3877E-03,   395.525E-03,0.0423412,0.0127723,-4.55683e-06
23307,-43.0,-26.0,0.000209213,  -8.76901E-03,   64.3880E-03,   304.359E-03,0.043729,0.013187,-3.0419e-06
23312,-44.0,-26.0,0.00015438,  -5.57412E-03,   64.3883E-03,   224.587E-03,0.044941,0.0135495,-1.08036e-06
23313,-45.0,-26.0,0.000107601,  -3.24902E-03,   64.3885E-03,   156.535E-03,0.0459714,0.0138582,1.07191e-06
23318,-46.0,-26.0,6.90682e-05,  -1.67082E-03,   64.3887E-03,   100.479E-03,0.0468152,0.0141115,3.05653e-06
23321,-47.0,-26.0,3.8937800000000005e-05,  -704.752E-06,   64.3887E-03,   56.6470E-03,0.0474683,0.0143081,4.40911e-06
23322,-48.0,-26.0,1.7332e-05,  -206.304E-06,   64.3888E-03,   25.2158E-03,0.0479277,0.0144468,4.61349e-06
23327,-49.0,-26.0,4.3366300000000005e-06,  -23.6291E-06,   64.3888E-03,   6.30956E-03,0.0481913,0.0145268,3.09891e-06
23328,-50.0,-26.0,0.0,  -13.1456E-42,   64.3888E-03,           -0.,0.0482741,0.014552,1.83453e-06
23333,50.0,-27.0,0.0,      -1.01048,   64.3878E-03,           -0.,0.0482678,0.0145511,-2.15983e-06
23336,49.0,-27.0,4.3580000000000005e-06,      -1.01046,   64.3878E-03,   6.30896E-03,0.0481868,0.0145265,-3.65516e-06
23337,48.0,-27.0,1.7416e-05,      -1.01028,   64.3878E-03,   25.2137E-03,0.0479262,0.0144473,-5.52702e-06
23342,47.0,-27.0,3.91225e-05,      -1.00978,   64.3878E-03,   56.6436E-03,0.0474688,0.0143089,-5.4587e-06
23343,46.0,-27.0,6.93887e-05,      -1.00881,   64.3877E-03,   100.474E-03,0.0468169,0.0141123,-4.06885e-06
23348,45.0,-27.0,0.000108089,      -1.00723,   64.3875E-03,   156.530E-03,0.0459735,0.0138588,-1.95189e-06
23351,44.0,-27.0,0.000155064,      -1.00491,   64.3873E-03,   224.583E-03,0.0449429,0.0135498,3.91694e-07
23352,43.0,-27.0,0.000210118,      -1.00171,   64.3870E-03,   304.356E-03,0.0437303,0.0131868,2.54597e-06
23357,42.0,-27.0,0.000273028,  -997.539E-03,   64.3867E-03,   395.524E-03,0.0423416,0.0127716,4.23562e-06
23358,41.0,-27.0,0.000343534,  -992.293E-03,   64.3864E-03,   497.715E-03,0.0407836,0.0123058,5.31619e-06
23363,40.0,-27.0,0.000421353,  -985.898E-03,   64.3860E-03,   610.513E-03,0.0390634,0.0117916,5.77111e-06
23366,39.0,-27.0,0.000506169,  -978.297E-03,   64.3856E-03,   733.462E-03,0.0371888,0.011231,5.68647e-06
23367,38.0,-27.0,0.000597642,  -969.450E-03,   64.3853E-03,   866.066E-03,0.0351677,0.0106263,5.20919e-06
23372,37.0,-27.0,0.0006954060000000001,  -959.339E-03,   64.3850E-03,       1.00779,0.0330084,0.00997991,4.52058e-06
23373,36.0,-27.0,0.000799072,  -947.963E-03,   64.3847E-03,       1.15807,0.0307193,0.00929439,3.79358e-06
23378,35.0,-27.0,0.0009082280000000001,  -935.343E-03,   64.3845E-03,       1.31630,0.0283092,0.00857239,3.1794e-06
23381,34.0,-27.0,0.00102244,  -921.520E-03,   64.3843E-03,       1.48187,0.0257872,0.00781666,2.78172e-06
23382,33.0,-27.0,0.00114126,  -906.551E-03,   64.3842E-03,       1.65410,0.0231628,0.00703007,2.6562e-06
23387,32.0,-27.0,0.00126422,  -890.514E-03,   64.3840E-03,       1.83233,0.0204457,0.0062156,2.801e-06
23388,31.0,-27.0,0.00139083,  -873.502E-03,   64.3839E-03,       2.01585,0.0176461,0.00537638,3.16419e-06
23393,30.0,-27.0,0.00152059,  -855.625E-03,   64.3839E-03,       2.20395,0.0147748,0.00451564,3.64675e-06
23396,29.0,-27.0,0.001653,  -837.003E-03,   64.3838E-03,       2.39588,0.0118429,0.00363675,4.11676e-06
23397,28.0,-27.0,0.00178753,  -817.772E-03,   64.3838E-03,       2.59090,0.00886197,0.00274317,4.42312e-06
23402,27.0,-27.0,0.00192366,  -798.075E-03,   64.3838E-03,       2.78824,0.00584389,0.00183846,4.41572e-06
23403,26.0,-27.0,0.00206084,  -778.063E-03,   64.3838E-03,       2.98714,0.0028009,0.000926256,3.96528e-06
23408,25.0,-27.0,0.00219855,  -757.893E-03,   64.3839E-03,       3.18682,-0.000254564,1.02283e-05,2.98351e-06
23411,24.0,-27.0,0.00233623,  -737.722E-03,   64.3839E-03,       3.38650,-0.00330996,-0.000905935,1.43901e-06
23412,23.0,-27.0,0.00247335,  -717.710E-03,   64.3840E-03,       3.58541,-0.00635275,-0.00181855,-6.32861e-07
23417,22.0,-27.0,0.00260937,  -698.012E-03,   64.3841E-03,       3.78276,-0.00937048,-0.00272396,-3.12845e-06
23418,21.0,-27.0,0.00274376,  -678.779E-03,   64.3843E-03,       3.97778,-0.0123509,-0.00361855,-5.88341e-06
23423,20.0,-27.0,0.00287598,  -660.155E-03,   64.3844E-03,       4.16973,-0.0152821,-0.00449879,-8.68869e-06
23426,19.0,-27.0,0.00300552,  -642.275E-03,   64.3845E-03,       4.35783,-0.0181524,-0.0053612,-1.13134e-05
23427,18.0,-27.0,0.00313187,  -625.261E-03,   64.3847E-03,       4.54137,-0.0209507,-0.0062024,-1.35308e-05
23432,17.0,-27.0,0.00325452,  -609.221E-03,   64.3848E-03,       4.71961,-0.0236663,-0.00701912,-1.51453e-05
23433,16.0,-27.0,0.003373,  -594.250E-03,   64.3849E-03,       4.89187,-0.0262888,-0.00780819,-1.60147e-05
23438,15.0,-27.0,0.00348685,  -580.423E-03,   64.3851E-03,       5.05745,-0.0288085,-0.00856655,-1.60666e-05
23441,14.0,-27.0,0.0035956,  -567.800E-03,   64.3852E-03,       5.21570,-0.031216,-0.00929125,-1.53057e-05
23442,13.0,-27.0,0.00369885,  -556.421E-03,   64.3853E-03,       5.36600,-0.0335023,-0.00997948,-1.38123e-05
23447,12.0,-27.0,0.00379617,  -546.306E-03,   64.3854E-03,       5.50775,-0.0356588,-0.0106285,-1.17313e-05
23448,11.0,-27.0,0.00388718,  -537.456E-03,   64.3856E-03,       5.64038,-0.0376773,-0.0112359,-9.25448e-06
23453,10.0,-27.0,0.00397153,  -529.851E-03,   64.3857E-03,       5.76336,-0.0395499,-0.011799,-6.59904e-06
23456,9.0,-27.0,0.00404889,  -523.453E-03,   64.3858E-03,       5.87619,-0.0412694,-0.0123158,-3.9841e-06
23457,8.0,-27.0,0.00411894,  -518.203E-03,   64.3860E-03,       5.97843,-0.0428285,-0.012784,-1.60933e-06
23462,7.0,-27.0,0.00418142,  -514.025E-03,   64.3861E-03,       6.06964,-0.044221,-0.0132018,3.62532e-07
23463,6.0,-27.0,0.00423607,  -510.826E-03,   64.3862E-03,       6.14946,-0.0454407,-0.0135674,1.81783e-06
23468,5.0,-27.0,0.00428269,  -508.497E-03,   64.3863E-03,       6.21757,-0.0464823,-0.0138793,2.69806e-06
23471,4.0,-27.0,0.00432108,  -506.916E-03,   64.3864E-03,       6.27368,-0.0473411,-0.0141363,3.00038e-06
23472,3.0,-27.0,0.0043511,  -505.948E-03,   64.3865E-03,       6.31757,-0.0480133,-0.0143373,2.77342e-06
23477,2.0,-27.0,0.00437263,  -505.448E-03,   64.3865E-03,       6.34904,-0.0484957,-0.0144815,2.10959e-06
23478,1.0,-27.0,0.00438558,  -505.265E-03,   64.3865E-03,       6.36798,-0.0487861,-0.0145682,1.1353e-06
23483,-3.41494e-30,-27.0,0.0043899,  -505.241E-03,   64.3866E-03,       6.37430,-0.048883,-0.0145971,-2.84217e-14
23486,-1.0,-27.0,0.00438558,  -505.217E-03,   64.3865E-03,       6.36798,-0.0487861,-0.0145682,-1.1353e-06
23487,-2.0,-27.0,0.00437263,  -505.034E-03,   64.3865E-03,       6.34904,-0.0484957,-0.0144815,-2.10959e-06
23492,-3.0,-27.0,0.0043511,  -504.534E-03,   64.3865E-03,       6.31757,-0.0480133,-0.0143373,-2.77342e-06
23493,-4.0,-27.0,0.00432108,  -503.566E-03,   64.3864E-03,       6.27368,-0.0473411,-0.0141363,-3.00038e-06
23498,-5.0,-27.0,0.00428269,  -501.985E-03,   64.3863E-03,       6.21757,-0.0464823,-0.0138793,-2.69806e-06
23501,-6.0,-27.0,0.00423607,  -499.656E-03,   64.3862E-03,       6.14946,-0.0454407,-0.0135674,-1.81783e-06
23502,-7.0,-27.0,0.00418142,  -496.457E-03,   64.3861E-03,       6.06964,-0.044221,-0.0132018,-3.62532e-07
23507,-8.0,-27.0,0.00411894,  -492.279E-03,   64.3860E-03,       5.97843,-0.0428285,-0.012784,1.60933e-06
23508,-9.0,-27.0,0.00404889,  -487.029E-03,   64.3858E-03,       5.87619,-0.0412694,-0.0123158,3.9841e-06
23513,-10.0,-27.0,0.00397153,  -480.631E-03,   64.3857E-03,       5.76336,-0.0395499,-0.011799,6.59904e-06
23516,-11.0,-27.0,0.00388718,  -473.026E-03,   64.3856E-03,       5.64038,-0.0376773,-0.0112359,9.25448e-06
23517,-12.0,-27.0,0.00379617,  -464.175E-03,   64.3854E-03,       5.50775,-0.0356588,-0.0106285,1.17313e-05
23522,-13.0,-27.0,0.00369885,  -454.061E-03,   64.3853E-03,       5.36600,-0.0335023,-0.00997948,1.38123e-05
23523,-14.0,-27.0,0.0035956,  -442.682E-03,   64.3852E-03,       5.21570,-0.031216,-0.00929125,1.53057e-05
23528,-15.0,-27.0,0.00348685,  -430.059E-03,   64.3851E-03,       5.05745,-0.0288085,-0.00856655,1.60666e-05
23531,-16.0,-27.0,0.003373,  -416.232E-03,   64.3849E-03,       4.89187,-0.0262888,-0.00780819,1.60147e-05
23532,-17.0,-27.0,0.00325452,  -401.261E-03,   64.3848E-03,       4.71961,-0.0236663,-0.00701912,1.51453e-05
23537,-18.0,-27.0,0.00313187,  -385.221E-03,   64.3847E-03,       4.54137,-0.0209507,-0.0062024,1.35308e-05
23538,-19.0,-27.0,0.00300552,  -368.207E-03,   64.3845E-03,       4.35783,-0.0181524,-0.0053612,1.13134e-05
23543,-20.0,-27.0,0.00287598,  -350.326E-03,   64.3844E-03,       4.16973,-0.0152821,-0.00449879,8.68869e-06
23546,-21.0,-27.0,0.00274376,  -331.703E-03,   64.3843E-03,       3.97778,-0.0123509,-0.00361855,5.88341e-06
23547,-22.0,-27.0,0.00260937,  -312.470E-03,   64.3841E-03,       3.78276,-0.00937048,-0.00272396,3.12845e-06
23552,-23.0,-27.0,0.00247335,  -292.772E-03,   64.3840E-03,       3.58541,-0.00635275,-0.00181855,6.3286e-07
23553,-24.0,-27.0,0.00233623,  -272.760E-03,   64.3839E-03,       3.38650,-0.00330996,-0.000905935,-1.43901e-06
23558,-25.0,-27.0,0.00219855,  -252.589E-03,   64.3839E-03,       3.18682,-0.000254564,1.02283e-05,-2.98351e-06
23561,-26.0,-27.0,0.00206084,  -232.418E-03,   64.3838E-03,       2.98714,0.0028009,0.000926256,-3.96528e-06
23562,-27.0,-27.0,0.00192366,  -212.407E-03,   64.3838E-03,       2.78824,0.00584389,0.00183846,-4.41572e-06
23567,-28.0,-27.0,0.00178753,  -192.710E-03,   64.3838E-03,       2.59090,0.00886197,0.00274317,-4.42312e-06
23568,-29.0,-27.0,0.001653,  -173.479E-03,   64.3838E-03,       2.39588,0.0118429,0.00363675,-4.11676e-06
23573,-30.0,-27.0,0.00152059,  -154.857E-03,   64.3839E-03,       2.20395,0.0147748,0.00451564,-3.64675e-06
23576,-31.0,-27.0,0.00139083,  -136.979E-03,   64.3839E-03,       2.01585,0.0176461,0.00537638,-3.16419e-06
23577,-32.0,-27.0,0.00126422,  -119.968E-03,   64.3840E-03,       1.83233,0.0204457,0.0062156,-2.801e-06
23582,-33.0,-27.0,0.00114126,  -103.931E-03,   64.3842E-03,       1.65410,0.0231628,0.00703007,-2.6562e-06
23583,-34.0,-27.0,0.00102244,  -88.9620E-03,   64.3843E-03,       1.48187,0.0257872,0.00781666,-2.78172e-06
23588,-35.0,-27.0,0.0009082280000000001,  -75.1384E-03,   64.3845E-03,       1.31630,0.0283092,0.00857239,-3.1794e-06
23591,-36.0,-27.0,0.000799072,  -62.5188E-03,   64.3847E-03,       1.15807,0.0307193,0.00929439,-3.79358e-06
23592,-37.0,-27.0,0.0006954060000000001,  -51.1430E-03,   64.3850E-03,       1.00779,0.0330084,0.00997991,-4.52058e-06
23597,-38.0,-27.0,0.000597642,  -41.0314E-03,   64.3853E-03,   866.066E-03,0.0351677,0.0106263,-5.20919e-06
23598,-39.0,-27.0,0.000506169,  -32.1847E-03,   64.3856E-03,   733.462E-03,0.0371888,0.011231,-5.68647e-06
23603,-40.0,-27.0,0.000421353,  -24.5836E-03,   64.3860E-03,   610.513E-03,0.0390634,0.0117916,-5.77111e-06
23606,-41.0,-27.0,0.000343534,  -18.1891E-03,   64.3864E-03,   497.715E-03,0.0407836,0.0123058,-5.31619e-06
23607,-42.0,-27.0,0.000273028,  -12.9430E-03,   64.3867E-03,   395.524E-03,0.0423416,0.0127716,-4.23562e-06
23612,-43.0,-27.0,0.000210118,  -8.76917E-03,   64.3870E-03,   304.356E-03,0.0437303,0.0131868,-2.54597e-06
23613,-44.0,-27.0,0.000155064,  -5.57417E-03,   64.3873E-03,   224.583E-03,0.0449429,0.0135498,-3.91694e-07
23618,-45.0,-27.0,0.000108089,  -3.24901E-03,   64.3875E-03,   156.530E-03,0.0459735,0.0138588,1.95189e-06
23621,-46.0,-27.0,6.93887e-05,  -1.67080E-03,   64.3877E-03,   100.474E-03,0.0468169,0.0141123,4.06885e-06
23622,-47.0,-27.0,3.91225e-05,  -704.746E-06,   64.3878E-03,   56.6436E-03,0.0474688,0.0143089,5.4587e-06
23627,-48.0,-27.0,1.7416e-05,  -206.322E-06,   64.3878E-03,   25.2137E-03,0.0479262,0.0144473,5.52702e-06
23628,-49.0,-27.0,4.3580000000000005e-06,  -23.6486E-06,   64.3878E-03,   6.30896E-03,0.0481868,0.0145265,3.65516e-06
23633,-50.0,-27.0,0.0,  -13.2325E-42,   64.3878E-03,           -0.,0.0482678,0.0145511,2.15983e-06
23636,50.0,-28.0,0.0,      -1.01048,   64.3868E-03,           -0.,0.048261,0.0145507,-2.4959e-06
23637,49.0,-28.0,4.38083e-06,      -1.01046,   64.3868E-03,   6.30826E-03,0.0481818,0.0145264,-4.27885e-06
23642,48.0,-28.0,1.75055e-05,      -1.01028,   64.3868E-03,   25.2115E-03,0.0479244,0.0144479,-6.57193e-06
23643,47.0,-28.0,3.93191e-05,      -1.00978,   64.3868E-03,   56.6397E-03,0.0474693,0.0143099,-6.68244e-06
23648,46.0,-28.0,6.97289e-05,      -1.00881,   64.3867E-03,   100.469E-03,0.0468186,0.0141133,-5.30232e-06
23651,45.0,-28.0,0.00010860600000000001,      -1.00723,   64.3866E-03,   156.525E-03,0.0459757,0.0138595,-3.0628e-06
23652,44.0,-28.0,0.00015578600000000002,      -1.00491,   64.3864E-03,   224.579E-03,0.0449449,0.01355,-5.48679e-07
23657,43.0,-28.0,0.000211073,      -1.00171,   64.3861E-03,   304.353E-03,0.0437316,0.0131864,1.79307e-06
23658,42.0,-28.0,0.000274237,  -997.538E-03,   64.3857E-03,   395.523E-03,0.042342,0.0127705,3.65298e-06
23663,41.0,-28.0,0.00034502,  -992.292E-03,   64.3854E-03,   497.716E-03,0.0407829,0.0123041,4.88477e-06
23666,40.0,-28.0,0.00042313199999999995,  -985.897E-03,   64.3850E-03,   610.516E-03,0.0390619,0.0117893,5.48356e-06
23667,39.0,-28.0,0.000508258,  -978.296E-03,   64.3846E-03,   733.467E-03,0.0371867,0.0112283,5.54289e-06
23672,38.0,-28.0,0.000600056,  -969.449E-03,   64.3842E-03,   866.071E-03,0.0351653,0.0106235,5.22484e-06
23673,37.0,-28.0,0.000698158,  -959.337E-03,   64.3839E-03,       1.00780,0.033006,0.00997726,4.70307e-06
23678,36.0,-28.0,0.0008021739999999999,  -947.962E-03,   64.3836E-03,       1.15808,0.0307173,0.00929216,4.14912e-06
23681,35.0,-28.0,0.00091169,  -935.342E-03,   64.3834E-03,       1.31631,0.0283079,0.00857079,3.69514e-06
23682,34.0,-28.0,0.00102627,  -921.519E-03,   64.3832E-03,       1.48187,0.0257867,0.00781583,3.43692e-06
23687,33.0,-28.0,0.00114547,  -906.551E-03,   64.3830E-03,       1.65410,0.023163,0.00703005,3.41613e-06
23688,32.0,-28.0,0.00126881,  -890.514E-03,   64.3829E-03,       1.83233,0.0204465,0.00621636,3.62888e-06
23693,31.0,-28.0,0.00139582,  -873.502E-03,   64.3827E-03,       2.01585,0.0176473,0.00537778,4.01967e-06
23696,30.0,-28.0,0.00152598,  -855.625E-03,   64.3826E-03,       2.20395,0.0147762,0.00451749,4.49209e-06
23697,29.0,-28.0,0.00165879,  -837.003E-03,   64.3826E-03,       2.39588,0.0118442,0.00363883,4.91397e-06
23702,28.0,-28.0,0.00179373,  -817.772E-03,   64.3825E-03,       2.59090,0.00886278,0.00274527,5.13446e-06
23703,27.0,-28.0,0.00193026,  -798.075E-03,   64.3825E-03,       2.78824,0.00584404,0.0018404,5.00096e-06
23708,26.0,-28.0,0.00206785,  -778.063E-03,   64.3826E-03,       2.98714,0.00280025,0.000927902,4.38214e-06
23711,25.0,-28.0,0.00220597,  -757.892E-03,   64.3826E-03,       3.18682,-0.00025606,1.1507e-05,3.18921e-06
23712,24.0,-28.0,0.00234406,  -737.721E-03,   64.3827E-03,       3.38650,-0.00331224,-0.00090504,1.39477e-06
23717,23.0,-28.0,0.00248159,  -717.708E-03,   64.3828E-03,       3.58540,-0.00635564,-0.001818,-9.55775e-07
23718,22.0,-28.0,0.00261801,  -698.010E-03,   64.3829E-03,       3.78275,-0.00937374,-0.00272369,-3.74208e-06
23723,21.0,-28.0,0.00275279,  -678.777E-03,   64.3830E-03,       3.97778,-0.0123542,-0.00361848,-6.7775e-06
23726,20.0,-28.0,0.0028854,  -660.154E-03,   64.3831E-03,       4.16972,-0.0152852,-0.00449881,-9.82786e-06
23727,19.0,-28.0,0.00301532,  -642.274E-03,   64.3833E-03,       4.35783,-0.018155,-0.00536124,-1.26378e-05
23732,18.0,-28.0,0.00314204,  -625.260E-03,   64.3834E-03,       4.54137,-0.0209525,-0.00620241,-1.49611e-05
23733,17.0,-28.0,0.00326505,  -609.220E-03,   64.3836E-03,       4.71961,-0.0236672,-0.00701908,-1.65904e-05
23738,16.0,-28.0,0.00338388,  -594.249E-03,   64.3838E-03,       4.89186,-0.0262889,-0.00780811,-1.73823e-05
23741,15.0,-28.0,0.00349806,  -580.423E-03,   64.3839E-03,       5.05744,-0.0288077,-0.00856645,-1.72743e-05
23742,14.0,-28.0,0.00360714,  -567.800E-03,   64.3841E-03,       5.21569,-0.0312145,-0.00929119,-1.62902e-05
23747,13.0,-28.0,0.00371068,  -556.421E-03,   64.3843E-03,       5.36599,-0.0335003,-0.0099795,-1.45358e-05
23748,12.0,-28.0,0.00380829,  -546.307E-03,   64.3844E-03,       5.50773,-0.0356566,-0.0106287,-1.21843e-05
23753,11.0,-28.0,0.00389957,  -537.457E-03,   64.3846E-03,       5.64036,-0.0376751,-0.0112361,-9.45443e-06
23756,10.0,-28.0,0.00398417,  -529.852E-03,   64.3847E-03,       5.76334,-0.039548,-0.0117995,-6.58472e-06
23757,9.0,-28.0,0.00406175,  -523.453E-03,   64.3849E-03,       5.87618,-0.0412678,-0.0123164,-3.80824e-06
23762,8.0,-28.0,0.00413201,  -518.203E-03,   64.3850E-03,       5.97841,-0.0428275,-0.0127847,-1.32996e-06
23763,7.0,-28.0,0.00419468,  -514.025E-03,   64.3851E-03,       6.06962,-0.0442205,-0.0132026,6.90197e-07
23768,6.0,-28.0,0.00424949,  -510.826E-03,   64.3853E-03,       6.14945,-0.0454408,-0.0135682,2.14753e-06
23771,5.0,-28.0,0.00429624,  -508.497E-03,   64.3853E-03,       6.21756,-0.0464829,-0.0138802,2.99608e-06
23772,4.0,-28.0,0.00433475,  -506.916E-03,   64.3854E-03,       6.27367,-0.0473422,-0.0141372,3.24612e-06
23777,3.0,-28.0,0.00436486,  -505.948E-03,   64.3855E-03,       6.31755,-0.0480147,-0.0143381,2.95753e-06
23778,2.0,-28.0,0.00438645,  -505.448E-03,   64.3855E-03,       6.34903,-0.0484974,-0.0144822,2.2304e-06
23783,1.0,-28.0,0.00439944,  -505.265E-03,   64.3855E-03,       6.36797,-0.0487879,-0.0145689,1.19473e-06
23786,3.0087799999999997e-30,-28.0,0.00440377,  -505.241E-03,   64.3855E-03,       6.37429,-0.0488849,-0.0145978,0.0
23787,-1.0,-28.0,0.00439944,  -505.217E-03,   64.3855E-03,       6.36797,-0.0487879,-0.0145689,-1.19473e-06
23792,-2.0,-28.0,0.00438645,  -505.034E-03,   64.3855E-03,       6.34903,-0.0484974,-0.0144822,-2.2304e-06
23793,-3.0,-28.0,0.00436486,  -504.534E-03,   64.3855E-03,       6.31755,-0.0480147,-0.0143381,-2.95753e-06
23798,-4.0,-28.0,0.00433475,  -503.566E-03,   64.3854E-03,       6.27367,-0.0473422,-0.0141372,-3.24612e-06
23801,-5.0,-28.0,0.00429624,  -501.985E-03,   64.3853E-03,       6.21756,-0.0464829,-0.0138802,-2.99608e-06
23802,-6.0,-28.0,0.00424949,  -499.656E-03,   64.3853E-03,       6.14945,-0.0454408,-0.0135682,-2.14753e-06
23807,-7.0,-28.0,0.00419468,  -496.457E-03,   64.3851E-03,       6.06962,-0.0442205,-0.0132026,-6.90197e-07
23808,-8.0,-28.0,0.00413201,  -492.279E-03,   64.3850E-03,       5.97841,-0.0428275,-0.0127847,1.32996e-06
23813,-9.0,-28.0,0.00406175,  -487.029E-03,   64.3849E-03,       5.87618,-0.0412678,-0.0123164,3.80824e-06
23816,-10.0,-28.0,0.00398417,  -480.630E-03,   64.3847E-03,       5.76334,-0.039548,-0.0117995,6.58472e-06
23817,-11.0,-28.0,0.00389957,  -473.025E-03,   64.3846E-03,       5.64036,-0.0376751,-0.0112361,9.45443e-06
23822,-12.0,-28.0,0.00380829,  -464.175E-03,   64.3844E-03,       5.50773,-0.0356566,-0.0106287,1.21843e-05
23823,-13.0,-28.0,0.00371068,  -454.060E-03,   64.3843E-03,       5.36599,-0.0335003,-0.0099795,1.45358e-05
23828,-14.0,-28.0,0.00360714,  -442.682E-03,   64.3841E-03,       5.21569,-0.0312145,-0.00929119,1.62902e-05
23831,-15.0,-28.0,0.00349806,  -430.059E-03,   64.3839E-03,       5.05744,-0.0288077,-0.00856645,1.72743e-05
23832,-16.0,-28.0,0.00338388,  -416.233E-03,   64.3838E-03,       4.89186,-0.0262889,-0.00780811,1.73823e-05
23837,-17.0,-28.0,0.00326505,  -401.262E-03,   64.3836E-03,       4.71961,-0.0236672,-0.00701908,1.65904e-05
23838,-18.0,-28.0,0.00314204,  -385.222E-03,   64.3834E-03,       4.54137,-0.0209525,-0.00620241,1.49611e-05
23843,-19.0,-28.0,0.00301532,  -368.208E-03,   64.3833E-03,       4.35783,-0.018155,-0.00536124,1.26378e-05
23846,-20.0,-28.0,0.0028854,  -350.328E-03,   64.3831E-03,       4.16972,-0.0152852,-0.00449881,9.82786e-06
23847,-21.0,-28.0,0.00275279,  -331.705E-03,   64.3830E-03,       3.97778,-0.0123542,-0.00361848,6.7775e-06
23852,-22.0,-28.0,0.00261801,  -312.472E-03,   64.3829E-03,       3.78275,-0.00937374,-0.00272369,3.74208e-06
23853,-23.0,-28.0,0.00248159,  -292.773E-03,   64.3828E-03,       3.58540,-0.00635564,-0.001818,9.55775e-07
23858,-24.0,-28.0,0.00234406,  -272.761E-03,   64.3827E-03,       3.38650,-0.00331224,-0.00090504,-1.39477e-06
23861,-25.0,-28.0,0.00220597,  -252.590E-03,   64.3826E-03,       3.18682,-0.00025606,1.1507e-05,-3.18921e-06
23862,-26.0,-28.0,0.00206785,  -232.419E-03,   64.3826E-03,       2.98714,0.00280025,0.000927902,-4.38214e-06
23867,-27.0,-28.0,0.00193026,  -212.407E-03,   64.3825E-03,       2.78824,0.00584404,0.0018404,-5.00096e-06
23868,-28.0,-28.0,0.00179373,  -192.710E-03,   64.3825E-03,       2.59090,0.00886278,0.00274527,-5.13446e-06
23873,-29.0,-28.0,0.00165879,  -173.479E-03,   64.3826E-03,       2.39588,0.0118442,0.00363883,-4.91397e-06
23876,-30.0,-28.0,0.00152598,  -154.857E-03,   64.3826E-03,       2.20395,0.0147762,0.00451749,-4.49209e-06
23877,-31.0,-28.0,0.00139582,  -136.980E-03,   64.3827E-03,       2.01585,0.0176473,0.00537778,-4.01967e-06
23882,-32.0,-28.0,0.00126881,  -119.968E-03,   64.3829E-03,       1.83233,0.0204465,0.00621636,-3.62888e-06
23883,-33.0,-28.0,0.00114547,  -103.931E-03,   64.3830E-03,       1.65410,0.023163,0.00703005,-3.41613e-06
23888,-34.0,-28.0,0.00102627,  -88.9629E-03,   64.3832E-03,       1.48187,0.0257867,0.00781583,-3.43692e-06
23891,-35.0,-28.0,0.00091169,  -75.1396E-03,   64.3834E-03,       1.31631,0.0283079,0.00857079,-3.69514e-06
23892,-36.0,-28.0,0.0008021739999999999,  -62.5201E-03,   64.3836E-03,       1.15808,0.0307173,0.00929216,-4.14912e-06
23897,-37.0,-28.0,0.000698158,  -51.1443E-03,   64.3839E-03,       1.00780,0.033006,0.00997726,-4.70307e-06
23898,-38.0,-28.0,0.000600056,  -41.0327E-03,   64.3842E-03,   866.071E-03,0.0351653,0.0106235,-5.22484e-06
23903,-39.0,-28.0,0.000508258,  -32.1859E-03,   64.3846E-03,   733.467E-03,0.0371867,0.0112283,-5.54289e-06
23904,-40.0,-28.0,0.00042313199999999995,  -24.5845E-03,   64.3850E-03,   610.516E-03,0.0390619,0.0117893,-5.48356e-06
23909,-41.0,-28.0,0.00034502,  -18.1897E-03,   64.3854E-03,   497.716E-03,0.0407829,0.0123041,-4.88477e-06
23910,-42.0,-28.0,0.000274237,  -12.9434E-03,   64.3857E-03,   395.523E-03,0.042342,0.0127705,-3.65298e-06
23915,-43.0,-28.0,0.000211073,  -8.76938E-03,   64.3861E-03,   304.353E-03,0.0437316,0.0131864,-1.79307e-06
23918,-44.0,-28.0,0.00015578600000000002,  -5.57423E-03,   64.3864E-03,   224.579E-03,0.0449449,0.01355,5.48678e-07
23919,-45.0,-28.0,0.00010860600000000001,  -3.24900E-03,   64.3866E-03,   156.525E-03,0.0459757,0.0138595,3.0628e-06
23924,-46.0,-28.0,6.97289e-05,  -1.67078E-03,   64.3867E-03,   100.469E-03,0.0468186,0.0141133,5.30232e-06
23925,-47.0,-28.0,3.93191e-05,  -704.748E-06,   64.3868E-03,   56.6397E-03,0.0474693,0.0143099,6.68244e-06
23930,-48.0,-28.0,1.75055e-05,  -206.344E-06,   64.3868E-03,   25.2115E-03,0.0479244,0.0144479,6.57193e-06
23933,-49.0,-28.0,4.38083e-06,  -23.6728E-06,   64.3868E-03,   6.30826E-03,0.0481818,0.0145264,4.27885e-06
23934,-50.0,-28.0,0.0,  -13.3277E-42,   64.3868E-03,           -0.,0.048261,0.0145507,2.4959e-06
23939,50.0,-29.0,0.0,      -1.01048,   64.3857E-03,           -0.,0.0482532,0.0145499,-2.89364e-06
23940,49.0,-29.0,4.4052e-06,      -1.01046,   64.3857E-03,   6.30751E-03,0.0481762,0.0145264,-4.98296e-06
23945,48.0,-29.0,1.76009e-05,      -1.01028,   64.3857E-03,   25.2090E-03,0.0479224,0.0144488,-7.77632e-06
23948,47.0,-29.0,3.9527800000000005e-05,      -1.00978,   64.3857E-03,   56.6354E-03,0.0474697,0.014311,-8.14531e-06
23949,46.0,-29.0,7.008909999999999e-05,      -1.00881,   64.3857E-03,   100.464E-03,0.0468205,0.0141143,-6.80001e-06
23954,45.0,-29.0,0.000109152,      -1.00723,   64.3856E-03,   156.519E-03,0.0459781,0.0138601,-4.4778e-06
23955,44.0,-29.0,0.000156548,      -1.00491,   64.3854E-03,   224.574E-03,0.044947,0.01355,-1.80782e-06
23960,43.0,-29.0,0.00021207599999999998,      -1.00171,   64.3851E-03,   304.350E-03,0.0437329,0.0131856,6.94705e-07
23963,42.0,-29.0,0.00027550599999999996,  -997.538E-03,   64.3848E-03,   395.521E-03,0.0423422,0.0127688,2.71087e-06
23964,41.0,-29.0,0.00034657599999999997,  -992.291E-03,   64.3844E-03,   497.717E-03,0.0407821,0.0123016,4.10386e-06
23969,40.0,-29.0,0.00042499300000000003,  -985.896E-03,   64.3840E-03,   610.519E-03,0.0390602,0.0117861,4.88426e-06
23970,39.0,-29.0,0.0005104409999999999,  -978.295E-03,   64.3836E-03,   733.472E-03,0.0371843,0.0112246,5.17368e-06
23975,38.0,-29.0,0.000602576,  -969.448E-03,   64.3832E-03,   866.077E-03,0.0351627,0.0106196,5.12732e-06
23978,37.0,-29.0,0.000701028,  -959.336E-03,   64.3829E-03,       1.00780,0.0330036,0.00997366,4.91753e-06
23979,36.0,-29.0,0.000805407,  -947.960E-03,   64.3826E-03,       1.15808,0.0307154,0.00928916,4.67928e-06
23984,35.0,-29.0,0.0009152969999999999,  -935.341E-03,   64.3823E-03,       1.31631,0.0283067,0.00856869,4.52202e-06
23985,34.0,-29.0,0.00103027,  -921.518E-03,   64.3820E-03,       1.48187,0.0257863,0.00781481,4.50426e-06
23990,33.0,-29.0,0.00114986,  -906.550E-03,   64.3818E-03,       1.65410,0.0231634,0.00703018,4.65212e-06
23993,32.0,-29.0,0.0012736,  -890.513E-03,   64.3817E-03,       1.83233,0.0204476,0.00621755,4.94613e-06
23994,31.0,-29.0,0.00140101,  -873.502E-03,   64.3815E-03,       2.01585,0.0176489,0.00537984,5.33333e-06
23999,30.0,-29.0,0.00153159,  -855.625E-03,   64.3814E-03,       2.20394,0.0147778,0.00452015,5.72121e-06
24000,29.0,-29.0,0.00166482,  -837.003E-03,   64.3813E-03,       2.39587,0.0118455,0.00364179,5.98961e-06
24005,28.0,-29.0,0.00180019,  -817.772E-03,   64.3813E-03,       2.59089,0.00886357,0.00274822,5.99787e-06
24008,27.0,-29.0,0.00193715,  -798.075E-03,   64.3812E-03,       2.78823,0.00584403,0.00184308,5.60502e-06
24009,26.0,-29.0,0.00207517,  -778.063E-03,   64.3812E-03,       2.98714,0.00279929,0.00093012,4.68977e-06
24014,25.0,-29.0,0.00221372,  -757.891E-03,   64.3813E-03,       3.18682,-0.000257989,1.31472e-05,3.17472e-06
24015,24.0,-29.0,0.00235224,  -737.720E-03,   64.3813E-03,       3.38650,-0.00331503,-0.000904002,1.04569e-06
24020,23.0,-29.0,0.0024902,  -717.707E-03,   64.3814E-03,       3.58540,-0.00635907,-0.00181752,-1.63521e-06
24023,22.0,-29.0,0.00262704,  -698.009E-03,   64.3816E-03,       3.78275,-0.00937749,-0.00272365,-4.72768e-06
24024,21.0,-29.0,0.00276224,  -678.776E-03,   64.3817E-03,       3.97778,-0.012358,-0.00361874,-8.02315e-06
24029,20.0,-29.0,0.00289527,  -660.152E-03,   64.3818E-03,       4.16972,-0.0152885,-0.00449922,-1.12661e-05
24030,19.0,-29.0,0.00302559,  -642.272E-03,   64.3820E-03,       4.35783,-0.0181576,-0.00536168,-1.41836e-05
24035,18.0,-29.0,0.0031527,  -625.258E-03,   64.3822E-03,       4.54136,-0.0209542,-0.00620277,-1.6519e-05
24038,17.0,-29.0,0.0032761,  -609.219E-03,   64.3824E-03,       4.71960,-0.0236679,-0.00701931,-1.80643e-05
24039,16.0,-29.0,0.0033953,  -594.248E-03,   64.3826E-03,       4.89185,-0.0262885,-0.00780818,-1.86856e-05
24044,15.0,-29.0,0.00350984,  -580.422E-03,   64.3828E-03,       5.05742,-0.0288065,-0.0085664,-1.83398e-05
24045,14.0,-29.0,0.00361926,  -567.800E-03,   64.3830E-03,       5.21567,-0.0312126,-0.00929106,-1.70775e-05
24050,13.0,-29.0,0.00372312,  -556.422E-03,   64.3832E-03,       5.36597,-0.0334979,-0.00997935,-1.50349e-05
24053,12.0,-29.0,0.00382104,  -546.307E-03,   64.3834E-03,       5.50772,-0.0356541,-0.0106286,-1.24143e-05
24054,11.0,-29.0,0.0039126,  -537.457E-03,   64.3836E-03,       5.64035,-0.0376727,-0.0112361,-9.45877e-06
24059,10.0,-29.0,0.00399747,  -529.852E-03,   64.3838E-03,       5.76333,-0.039546,-0.0117996,-6.42304e-06
24060,9.0,-29.0,0.00407529,  -523.454E-03,   64.3840E-03,       5.87616,-0.0412663,-0.0123166,-3.5464e-06
24065,8.0,-29.0,0.00414578,  -518.203E-03,   64.3841E-03,       5.97839,-0.0428266,-0.0127851,-1.03029e-06
24068,7.0,-29.0,0.00420863,  -514.025E-03,   64.3842E-03,       6.06961,-0.0442203,-0.013203,9.76875e-07
24069,6.0,-29.0,0.00426362,  -510.826E-03,   64.3843E-03,       6.14943,-0.0454411,-0.0135687,2.38707e-06
24074,5.0,-29.0,0.00431052,  -508.497E-03,   64.3844E-03,       6.21754,-0.0464837,-0.0138807,3.17247e-06
24075,4.0,-29.0,0.00434915,  -506.916E-03,   64.3844E-03,       6.27365,-0.0473434,-0.0141376,3.35957e-06
24080,3.0,-29.0,0.00437935,  -505.948E-03,   64.3845E-03,       6.31754,-0.0480163,-0.0143385,3.01973e-06
24083,2.0,-29.0,0.00440101,  -505.448E-03,   64.3845E-03,       6.34902,-0.0484991,-0.0144826,2.25829e-06
24084,1.0,-29.0,0.00441404,  -505.265E-03,   64.3845E-03,       6.36796,-0.0487897,-0.0145692,1.20402e-06
24089,-7.80141e-30,-29.0,0.00441839,  -505.241E-03,   64.3845E-03,       6.37428,-0.0488868,-0.0145982,1.42109e-14
24090,-1.0,-29.0,0.00441404,  -505.217E-03,   64.3845E-03,       6.36796,-0.0487897,-0.0145692,-1.20402e-06
24095,-2.0,-29.0,0.00440101,  -505.034E-03,   64.3845E-03,       6.34902,-0.0484991,-0.0144826,-2.25829e-06
24098,-3.0,-29.0,0.00437935,  -504.534E-03,   64.3845E-03,       6.31754,-0.0480163,-0.0143385,-3.01973e-06
24099,-4.0,-29.0,0.00434915,  -503.566E-03,   64.3844E-03,       6.27365,-0.0473434,-0.0141376,-3.35957e-06
24104,-5.0,-29.0,0.00431052,  -501.984E-03,   64.3844E-03,       6.21754,-0.0464837,-0.0138807,-3.17247e-06
24105,-6.0,-29.0,0.00426362,  -499.655E-03,   64.3843E-03,       6.14943,-0.0454411,-0.0135687,-2.38707e-06
24110,-7.0,-29.0,0.00420863,  -496.456E-03,   64.3842E-03,       6.06961,-0.0442203,-0.013203,-9.76875e-07
24113,-8.0,-29.0,0.00414578,  -492.278E-03,   64.3841E-03,       5.97839,-0.0428266,-0.0127851,1.03029e-06
24114,-9.0,-29.0,0.00407529,  -487.028E-03,   64.3840E-03,       5.87616,-0.0412663,-0.0123166,3.5464e-06
24119,-10.0,-29.0,0.00399747,  -480.630E-03,   64.3838E-03,       5.76333,-0.039546,-0.0117996,6.42304e-06
24120,-11.0,-29.0,0.0039126,  -473.025E-03,   64.3836E-03,       5.64035,-0.0376727,-0.0112361,9.45877e-06
24125,-12.0,-29.0,0.00382104,  -464.175E-03,   64.3834E-03,       5.50772,-0.0356541,-0.0106286,1.24143e-05
24128,-13.0,-29.0,0.00372312,  -454.060E-03,   64.3832E-03,       5.36597,-0.0334979,-0.00997935,1.50349e-05
24129,-14.0,-29.0,0.00361926,  -442.682E-03,   64.3830E-03,       5.21567,-0.0312126,-0.00929106,1.70775e-05
24134,-15.0,-29.0,0.00350984,  -430.059E-03,   64.3828E-03,       5.05742,-0.0288065,-0.0085664,1.83398e-05
24135,-16.0,-29.0,0.0033953,  -416.233E-03,   64.3826E-03,       4.89185,-0.0262885,-0.00780818,1.86856e-05
24140,-17.0,-29.0,0.0032761,  -401.263E-03,   64.3824E-03,       4.71960,-0.0236679,-0.00701931,1.80643e-05
24143,-18.0,-29.0,0.0031527,  -385.223E-03,   64.3822E-03,       4.54136,-0.0209542,-0.00620277,1.6519e-05
24144,-19.0,-29.0,0.00302559,  -368.209E-03,   64.3820E-03,       4.35783,-0.0181576,-0.00536168,1.41836e-05
24149,-20.0,-29.0,0.00289527,  -350.330E-03,   64.3818E-03,       4.16972,-0.0152885,-0.00449922,1.12661e-05
24150,-21.0,-29.0,0.00276224,  -331.706E-03,   64.3817E-03,       3.97778,-0.012358,-0.00361874,8.02315e-06
24155,-22.0,-29.0,0.00262704,  -312.473E-03,   64.3816E-03,       3.78275,-0.00937749,-0.00272365,4.72768e-06
24158,-23.0,-29.0,0.0024902,  -292.775E-03,   64.3814E-03,       3.58540,-0.00635907,-0.00181752,1.63521e-06
24159,-24.0,-29.0,0.00235224,  -272.762E-03,   64.3813E-03,       3.38650,-0.00331503,-0.000904002,-1.04569e-06
24164,-25.0,-29.0,0.00221372,  -252.590E-03,   64.3813E-03,       3.18682,-0.000257989,1.31472e-05,-3.17472e-06
24165,-26.0,-29.0,0.00207517,  -232.419E-03,   64.3812E-03,       2.98714,0.00279929,0.00093012,-4.68977e-06
24170,-27.0,-29.0,0.00193715,  -212.407E-03,   64.3812E-03,       2.78823,0.00584403,0.00184308,-5.60502e-06
24173,-28.0,-29.0,0.00180019,  -192.710E-03,   64.3813E-03,       2.59089,0.00886357,0.00274822,-5.99787e-06
24174,-29.0,-29.0,0.00166482,  -173.479E-03,   64.3813E-03,       2.39587,0.0118455,0.00364179,-5.98961e-06
24179,-30.0,-29.0,0.00153159,  -154.857E-03,   64.3814E-03,       2.20394,0.0147778,0.00452015,-5.72121e-06
24180,-31.0,-29.0,0.00140101,  -136.980E-03,   64.3815E-03,       2.01585,0.0176489,0.00537984,-5.33333e-06
24185,-32.0,-29.0,0.0012736,  -119.968E-03,   64.3817E-03,       1.83233,0.0204476,0.00621755,-4.94613e-06
24188,-33.0,-29.0,0.00114986,  -103.932E-03,   64.3818E-03,       1.65410,0.0231634,0.00703018,-4.65212e-06
24189,-34.0,-29.0,0.00103027,  -88.9639E-03,   64.3820E-03,       1.48187,0.0257863,0.00781481,-4.50426e-06
24194,-35.0,-29.0,0.0009152969999999999,  -75.1409E-03,   64.3823E-03,       1.31631,0.0283067,0.00856869,-4.52202e-06
24195,-36.0,-29.0,0.000805407,  -62.5215E-03,   64.3826E-03,       1.15808,0.0307154,0.00928916,-4.67928e-06
24200,-37.0,-29.0,0.000701028,  -51.1458E-03,   64.3829E-03,       1.00780,0.0330036,0.00997366,-4.91753e-06
24203,-38.0,-29.0,0.000602576,  -41.0342E-03,   64.3832E-03,   866.077E-03,0.0351627,0.0106196,-5.12732e-06
24204,-39.0,-29.0,0.0005104409999999999,  -32.1871E-03,   64.3836E-03,   733.472E-03,0.0371843,0.0112246,-5.17368e-06
24209,-40.0,-29.0,0.00042499300000000003,  -24.5855E-03,   64.3840E-03,   610.519E-03,0.0390602,0.0117861,-4.88426e-06
24210,-41.0,-29.0,0.00034657599999999997,  -18.1904E-03,   64.3844E-03,   497.717E-03,0.0407821,0.0123016,-4.10386e-06
24215,-42.0,-29.0,0.00027550599999999996,  -12.9439E-03,   64.3848E-03,   395.521E-03,0.0423422,0.0127688,-2.71087e-06
24218,-43.0,-29.0,0.00021207599999999998,  -8.76961E-03,   64.3851E-03,   304.350E-03,0.0437329,0.0131856,-6.94705e-07
24219,-44.0,-29.0,0.000156548,  -5.57432E-03,   64.3854E-03,   224.574E-03,0.044947,0.01355,1.80782e-06
24224,-45.0,-29.0,0.000109152,  -3.24900E-03,   64.3856E-03,   156.519E-03,0.0459781,0.0138601,4.4778e-06
24225,-46.0,-29.0,7.008909999999999e-05,  -1.67077E-03,   64.3857E-03,   100.464E-03,0.0468205,0.0141143,6.80001e-06
24230,-47.0,-29.0,3.9527800000000005e-05,  -704.750E-06,   64.3857E-03,   56.6354E-03,0.0474697,0.014311,8.14531e-06
24233,-48.0,-29.0,1.76009e-05,  -206.372E-06,   64.3857E-03,   25.2090E-03,0.0479224,0.0144488,7.77632e-06
24234,-49.0,-29.0,4.4052e-06,  -23.6999E-06,   64.3857E-03,   6.30751E-03,0.0481762,0.0145264,4.98296e-06
24239,-50.0,-29.0,0.0,  -13.4371E-42,   64.3857E-03,           -0.,0.0482532,0.0145499,2.89364e-06
24240,50.0,-30.0,0.0,      -1.01048,   64.3846E-03,           -0.,0.0482448,0.0145501,-3.33399e-06
24245,49.0,-30.0,4.4311199999999995e-06,      -1.01046,   64.3847E-03,   6.30665E-03,0.0481699,0.0145267,-5.81281e-06
24248,48.0,-30.0,1.77021e-05,      -1.01028,   64.3847E-03,   25.2062E-03,0.04792,0.0144497,-9.22641e-06
24249,47.0,-30.0,3.97488e-05,      -1.00978,   64.3847E-03,   56.6306E-03,0.0474701,0.0143122,-9.90906e-06
24254,46.0,-30.0,7.046939999999999e-05,      -1.00881,   64.3847E-03,   100.458E-03,0.0468225,0.0141153,-8.66091e-06
24255,45.0,-30.0,0.000109726,      -1.00723,   64.3846E-03,   156.513E-03,0.0459807,0.0138606,-6.2694e-06
24260,44.0,-30.0,0.000157347,      -1.00491,   64.3844E-03,   224.568E-03,0.0449493,0.0135497,-3.48715e-06
24263,43.0,-30.0,0.00021312799999999998,      -1.00171,   64.3841E-03,   304.346E-03,0.0437344,0.0131843,-8.59399e-07
24264,42.0,-30.0,0.000276833,  -997.537E-03,   64.3838E-03,   395.520E-03,0.0423425,0.0127664,1.28874e-06
24269,41.0,-30.0,0.000348199,  -992.291E-03,   64.3834E-03,   497.718E-03,0.0407812,0.0122981,2.84746e-06
24270,40.0,-30.0,0.000426932,  -985.895E-03,   64.3830E-03,   610.523E-03,0.0390584,0.0117817,3.88025e-06
24275,39.0,-30.0,0.000512713,  -978.293E-03,   64.3826E-03,   733.477E-03,0.037182,0.0112197,4.51662e-06
24278,38.0,-30.0,0.000605195,  -969.446E-03,   64.3823E-03,   866.084E-03,0.0351603,0.0106146,4.92581e-06
24279,37.0,-30.0,0.00070401,  -959.334E-03,   64.3819E-03,       1.00781,0.0330015,0.00996901,5.23e-06
24284,36.0,-30.0,0.0008087639999999999,  -947.959E-03,   64.3815E-03,       1.15809,0.0307139,0.00928537,5.52695e-06
24285,35.0,-30.0,0.000919043,  -935.340E-03,   64.3812E-03,       1.31632,0.028306,0.00856615,5.85315e-06
24290,34.0,-30.0,0.00103441,  -921.517E-03,   64.3809E-03,       1.48188,0.0257865,0.00781375,6.22458e-06
24293,33.0,-30.0,0.00115441,  -906.549E-03,   64.3807E-03,       1.65410,0.0231644,0.00703066,6.62033e-06
24294,32.0,-30.0,0.00127858,  -890.513E-03,   64.3805E-03,       1.83233,0.0204491,0.00621946,7.00826e-06
24299,31.0,-30.0,0.00140642,  -873.502E-03,   64.3803E-03,       2.01584,0.0176507,0.00538292,7.32975e-06
24300,30.0,-30.0,0.00153743,  -855.625E-03,   64.3801E-03,       2.20394,0.0147796,0.00452403,7.51009e-06
24305,29.0,-30.0,0.0016711,  -837.003E-03,   64.3800E-03,       2.39587,0.0118469,0.00364603,7.45106e-06
24308,28.0,-30.0,0.00180691,  -817.772E-03,   64.3800E-03,       2.59088,0.00886417,0.0027524,7.0435e-06
24309,27.0,-30.0,0.00194433,  -798.075E-03,   64.3799E-03,       2.78823,0.00584363,0.00184682,6.17724e-06
24314,26.0,-30.0,0.0020828,  -778.062E-03,   64.3799E-03,       2.98713,0.00279779,0.00093314,4.76336e-06
24315,25.0,-30.0,0.0022218,  -757.891E-03,   64.3799E-03,       3.18681,-0.000260577,1.52837e-05,2.75466e-06
24320,24.0,-30.0,0.00236078,  -737.719E-03,   64.3800E-03,       3.38649,-0.00331853,-0.000902793,1.66307e-07
24323,23.0,-30.0,0.00249919,  -717.706E-03,   64.3801E-03,       3.58540,-0.00636319,-0.00181717,-2.9125e-06
24324,22.0,-30.0,0.00263649,  -698.007E-03,   64.3802E-03,       3.78275,-0.00938184,-0.002724,-6.31715e-06
24329,21.0,-30.0,0.00277213,  -678.774E-03,   64.3804E-03,       3.97778,-0.0123621,-0.00361959,-9.81937e-06
24330,20.0,-30.0,0.00290559,  -660.151E-03,   64.3805E-03,       4.16972,-0.0152921,-0.00450035,-1.31507e-05
24335,19.0,-30.0,0.00303635,  -642.271E-03,   64.3807E-03,       4.35782,-0.0181603,-0.00536285,-1.60343e-05
24338,18.0,-30.0,0.00316388,  -625.257E-03,   64.3809E-03,       4.54135,-0.0209558,-0.00620383,-1.82199e-05
24339,17.0,-30.0,0.00328768,  -609.218E-03,   64.3812E-03,       4.71959,-0.0236682,-0.00702012,-1.95167e-05
24344,16.0,-30.0,0.00340728,  -594.248E-03,   64.3814E-03,       4.89184,-0.0262877,-0.00780869,-1.98183e-05
24345,15.0,-30.0,0.0035222,  -580.422E-03,   64.3817E-03,       5.05741,-0.0288046,-0.00856661,-1.91154e-05
24350,14.0,-30.0,0.00363198,  -567.800E-03,   64.3819E-03,       5.21566,-0.03121,-0.009291,-1.74956e-05
24353,13.0,-30.0,0.00373619,  -556.422E-03,   64.3822E-03,       5.36596,-0.033495,-0.0099791,-1.51301e-05
24354,12.0,-30.0,0.00383443,  -546.307E-03,   64.3824E-03,       5.50770,-0.0356511,-0.0106282,-1.22501e-05
24359,11.0,-30.0,0.0039263,  -537.457E-03,   64.3827E-03,       5.64033,-0.03767,-0.0112357,-9.11704e-06
24360,10.0,-30.0,0.00401145,  -529.853E-03,   64.3829E-03,       5.76331,-0.0395438,-0.0117992,-5.99227e-06
24365,9.0,-30.0,0.00408954,  -523.454E-03,   64.3831E-03,       5.87614,-0.0412648,-0.0123162,-3.10925e-06
24368,8.0,-30.0,0.00416025,  -518.204E-03,   64.3832E-03,       5.97837,-0.0428258,-0.0127847,-6.53113e-07
24369,7.0,-30.0,0.00422332,  -514.026E-03,   64.3833E-03,       6.06959,-0.04422,-0.0132027,1.25132e-06
24374,6.0,-30.0,0.00427849,  -510.827E-03,   64.3834E-03,       6.14941,-0.0454415,-0.0135684,2.54251e-06
24375,5.0,-30.0,0.00432555,  -508.498E-03,   64.3834E-03,       6.21752,-0.0464846,-0.0138803,3.21763e-06
24380,4.0,-30.0,0.00436431,  -506.916E-03,   64.3835E-03,       6.27364,-0.0473447,-0.0141372,3.32266e-06
24383,3.0,-30.0,0.00439461,  -505.948E-03,   64.3835E-03,       6.31752,-0.0480178,-0.0143381,2.94009e-06
24384,2.0,-30.0,0.00441634,  -505.448E-03,   64.3835E-03,       6.34900,-0.0485008,-0.0144821,2.1768e-06
24389,1.0,-30.0,0.00442942,  -505.265E-03,   64.3835E-03,       6.36794,-0.0487915,-0.0145687,1.15398e-06
24390,-7.613510000000001e-30,-30.0,0.00443378,  -505.241E-03,   64.3834E-03,       6.37426,-0.0488885,-0.0145976,-1.42109e-14
24395,-1.0,-30.0,0.00442942,  -505.217E-03,   64.3835E-03,       6.36794,-0.0487915,-0.0145687,-1.15398e-06
24398,-2.0,-30.0,0.00441634,  -505.034E-03,   64.3835E-03,       6.34900,-0.0485008,-0.0144821,-2.1768e-06
24399,-3.0,-30.0,0.00439461,  -504.534E-03,   64.3835E-03,       6.31752,-0.0480178,-0.0143381,-2.94009e-06
24404,-4.0,-30.0,0.00436431,  -503.566E-03,   64.3835E-03,       6.27364,-0.0473447,-0.0141372,-3.32266e-06
24405,-5.0,-30.0,0.00432555,  -501.984E-03,   64.3834E-03,       6.21752,-0.0464846,-0.0138803,-3.21763e-06
24410,-6.0,-30.0,0.00427849,  -499.655E-03,   64.3834E-03,       6.14941,-0.0454415,-0.0135684,-2.54251e-06
24413,-7.0,-30.0,0.00422332,  -496.456E-03,   64.3833E-03,       6.06959,-0.04422,-0.0132027,-1.25132e-06
24414,-8.0,-30.0,0.00416025,  -492.278E-03,   64.3832E-03,       5.97837,-0.0428258,-0.0127847,6.53113e-07
24419,-9.0,-30.0,0.00408954,  -487.028E-03,   64.3831E-03,       5.87614,-0.0412648,-0.0123162,3.10925e-06
24420,-10.0,-30.0,0.00401145,  -480.629E-03,   64.3829E-03,       5.76331,-0.0395438,-0.0117992,5.99227e-06
24425,-11.0,-30.0,0.0039263,  -473.024E-03,   64.3827E-03,       5.64033,-0.03767,-0.0112357,9.11704e-06
24428,-12.0,-30.0,0.00383443,  -464.174E-03,   64.3824E-03,       5.50770,-0.0356511,-0.0106282,1.22501e-05
24429,-13.0,-30.0,0.00373619,  -454.060E-03,   64.3822E-03,       5.36596,-0.033495,-0.0099791,1.51301e-05
24434,-14.0,-30.0,0.00363198,  -442.681E-03,   64.3819E-03,       5.21566,-0.03121,-0.009291,1.74956e-05
24435,-15.0,-30.0,0.0035222,  -430.060E-03,   64.3817E-03,       5.05741,-0.0288046,-0.00856661,1.91154e-05
24440,-16.0,-30.0,0.00340728,  -416.234E-03,   64.3814E-03,       4.89184,-0.0262877,-0.00780869,1.98183e-05
24443,-17.0,-30.0,0.00328768,  -401.263E-03,   64.3812E-03,       4.71959,-0.0236682,-0.00702012,1.95167e-05
24444,-18.0,-30.0,0.00316388,  -385.224E-03,   64.3809E-03,       4.54135,-0.0209558,-0.00620383,1.82199e-05
24449,-19.0,-30.0,0.00303635,  -368.211E-03,   64.3807E-03,       4.35782,-0.0181603,-0.00536285,1.60343e-05
24450,-20.0,-30.0,0.00290559,  -350.331E-03,   64.3805E-03,       4.16972,-0.0152921,-0.00450035,1.31507e-05
24455,-21.0,-30.0,0.00277213,  -331.708E-03,   64.3804E-03,       3.97778,-0.0123621,-0.00361959,9.81937e-06
24458,-22.0,-30.0,0.00263649,  -312.475E-03,   64.3802E-03,       3.78275,-0.00938184,-0.002724,6.31715e-06
24459,-23.0,-30.0,0.00249919,  -292.776E-03,   64.3801E-03,       3.58540,-0.00636319,-0.00181717,2.9125e-06
24464,-24.0,-30.0,0.00236078,  -272.763E-03,   64.3800E-03,       3.38649,-0.00331853,-0.000902793,-1.66307e-07
24465,-25.0,-30.0,0.0022218,  -252.591E-03,   64.3799E-03,       3.18681,-0.000260577,1.52837e-05,-2.75466e-06
24470,-26.0,-30.0,0.0020828,  -232.420E-03,   64.3799E-03,       2.98713,0.00279779,0.00093314,-4.76336e-06
24473,-27.0,-30.0,0.00194433,  -212.407E-03,   64.3799E-03,       2.78823,0.00584363,0.00184682,-6.17724e-06
24474,-28.0,-30.0,0.00180691,  -192.710E-03,   64.3800E-03,       2.59088,0.00886417,0.0027524,-7.0435e-06
24479,-29.0,-30.0,0.0016711,  -173.479E-03,   64.3800E-03,       2.39587,0.0118469,0.00364603,-7.45106e-06
24480,-30.0,-30.0,0.00153743,  -154.857E-03,   64.3801E-03,       2.20394,0.0147796,0.00452403,-7.51009e-06
24485,-31.0,-30.0,0.00140642,  -136.980E-03,   64.3803E-03,       2.01584,0.0176507,0.00538292,-7.32975e-06
24488,-32.0,-30.0,0.00127858,  -119.969E-03,   64.3805E-03,       1.83233,0.0204491,0.00621946,-7.00826e-06
24489,-33.0,-30.0,0.00115441,  -103.933E-03,   64.3807E-03,       1.65410,0.0231644,0.00703066,-6.62033e-06
24494,-34.0,-30.0,0.00103441,  -88.9650E-03,   64.3809E-03,       1.48188,0.0257865,0.00781375,-6.22458e-06
24495,-35.0,-30.0,0.000919043,  -75.1422E-03,   64.3812E-03,       1.31632,0.028306,0.00856615,-5.85315e-06
24500,-36.0,-30.0,0.0008087639999999999,  -62.5231E-03,   64.3815E-03,       1.15809,0.0307139,0.00928537,-5.52695e-06
24503,-37.0,-30.0,0.00070401,  -51.1474E-03,   64.3819E-03,       1.00781,0.0330015,0.00996901,-5.23e-06
24504,-38.0,-30.0,0.000605195,  -41.0357E-03,   64.3823E-03,   866.084E-03,0.0351603,0.0106146,-4.92581e-06
24509,-39.0,-30.0,0.000512713,  -32.1885E-03,   64.3826E-03,   733.477E-03,0.037182,0.0112197,-4.51662e-06
24510,-40.0,-30.0,0.000426932,  -24.5866E-03,   64.3830E-03,   610.523E-03,0.0390584,0.0117817,-3.88025e-06
24515,-41.0,-30.0,0.000348199,  -18.1913E-03,   64.3834E-03,   497.718E-03,0.0407812,0.0122981,-2.84746e-06
24518,-42.0,-30.0,0.000276833,  -12.9444E-03,   64.3838E-03,   395.520E-03,0.0423425,0.0127664,-1.28874e-06
24519,-43.0,-30.0,0.00021312799999999998,  -8.76987E-03,   64.3841E-03,   304.346E-03,0.0437344,0.0131843,8.59399e-07
24524,-44.0,-30.0,0.000157347,  -5.57439E-03,   64.3844E-03,   224.568E-03,0.0449493,0.0135497,3.48715e-06
24525,-45.0,-30.0,0.000109726,  -3.24900E-03,   64.3846E-03,   156.513E-03,0.0459807,0.0138606,6.2694e-06
24530,-46.0,-30.0,7.046939999999999e-05,  -1.67074E-03,   64.3847E-03,   100.458E-03,0.0468225,0.0141153,8.66091e-06
24533,-47.0,-30.0,3.97488e-05,  -704.757E-06,   64.3847E-03,   56.6306E-03,0.0474701,0.0143122,9.90906e-06
24534,-48.0,-30.0,1.77021e-05,  -206.402E-06,   64.3847E-03,   25.2062E-03,0.04792,0.0144497,9.22641e-06
24539,-49.0,-30.0,4.4311199999999995e-06,  -23.7320E-06,   64.3847E-03,   6.30665E-03,0.0481699,0.0145267,5.81281e-06
24540,-50.0,-30.0,0.0,  -13.5492E-42,   64.3846E-03,           -0.,0.0482448,0.0145501,3.33399e-06
24545,50.0,-31.0,0.0,      -1.01048,   64.3835E-03,            0.,0.0482351,0.0145494,-3.89883e-06
24548,49.0,-31.0,4.45865e-06,      -1.01046,   64.3835E-03,   6.30573E-03,0.0481629,0.0145269,-6.85049e-06
24549,48.0,-31.0,1.78093e-05,      -1.01028,   64.3836E-03,   25.2031E-03,0.0479173,0.0144508,-1.10183e-05
24554,47.0,-31.0,3.9982e-05,      -1.00978,   64.3836E-03,   56.6252E-03,0.0474705,0.0143133,-1.2123e-05
24555,46.0,-31.0,7.086939999999999e-05,      -1.00881,   64.3836E-03,   100.451E-03,0.0468248,0.0141162,-1.09759e-05
24560,45.0,-31.0,0.000110329,      -1.00723,   64.3836E-03,   156.505E-03,0.0459836,0.0138608,-8.55986e-06
24563,44.0,-31.0,0.000158183,      -1.00491,   64.3834E-03,   224.561E-03,0.044952,0.013549,-5.70183e-06
24564,43.0,-31.0,0.000214225,      -1.00171,   64.3832E-03,   304.341E-03,0.0437361,0.0131824,-3.00525e-06
24569,42.0,-31.0,0.000278215,  -997.537E-03,   64.3829E-03,   395.517E-03,0.042343,0.0127632,-7.65649e-07
24570,41.0,-31.0,0.000349886,  -992.290E-03,   64.3825E-03,   497.718E-03,0.0407806,0.0122935,9.90773e-07
24575,40.0,-31.0,0.000428944,  -985.894E-03,   64.3821E-03,   610.526E-03,0.039057,0.0117761,2.36878e-06
24578,39.0,-31.0,0.000515067,  -978.292E-03,   64.3817E-03,   733.482E-03,0.0371802,0.0112135,3.55399e-06
24579,38.0,-31.0,0.000607908,  -969.445E-03,   64.3813E-03,   866.090E-03,0.0351585,0.0106084,4.66764e-06
24584,37.0,-31.0,0.000707096,  -959.333E-03,   64.3809E-03,       1.00782,0.0330001,0.00996336,5.7936e-06
24585,36.0,-31.0,0.0008122380000000001,  -947.957E-03,   64.3805E-03,       1.15809,0.0307132,0.00928093,6.91556e-06
24590,35.0,-31.0,0.000922917,  -935.338E-03,   64.3802E-03,       1.31632,0.0283062,0.0085634,7.99166e-06
24593,34.0,-31.0,0.0010387,  -921.516E-03,   64.3799E-03,       1.48188,0.0257875,0.00781298,8.93722e-06
24594,33.0,-31.0,0.00115913,  -906.548E-03,   64.3796E-03,       1.65411,0.023166,0.00703192,9.68295e-06
24599,32.0,-31.0,0.00128373,  -890.513E-03,   64.3793E-03,       1.83233,0.0204512,0.00622259,1.01573e-05
24600,31.0,-31.0,0.00141201,  -873.502E-03,   64.3791E-03,       2.01584,0.0176528,0.00538755,1.03082e-05
24605,30.0,-31.0,0.00154348,  -855.625E-03,   64.3789E-03,       2.20393,0.0147814,0.00452965,1.00813e-05
24608,29.0,-31.0,0.00167762,  -837.003E-03,   64.3787E-03,       2.39586,0.0118479,0.00365207,9.42652e-06
24609,28.0,-31.0,0.0018139,  -817.772E-03,   64.3786E-03,       2.59088,0.00886425,0.00275827,8.28945e-06
24614,27.0,-31.0,0.00195179,  -798.075E-03,   64.3785E-03,       2.78822,0.0058425,0.00185202,6.62471e-06
24615,26.0,-31.0,0.00209074,  -778.062E-03,   64.3785E-03,       2.98712,0.00279538,0.000937276,4.40659e-06
24620,25.0,-31.0,0.00223022,  -757.890E-03,   64.3785E-03,       3.18681,-0.000264156,1.81095e-05,1.64908e-06
24623,24.0,-31.0,0.00236968,  -737.718E-03,   64.3786E-03,       3.38649,-0.00332303,-0.000901354,-1.57955e-06
24624,23.0,-31.0,0.00250857,  -717.705E-03,   64.3787E-03,       3.58540,-0.00636822,-0.00181704,-5.14681e-06
24629,22.0,-31.0,0.00264634,  -698.006E-03,   64.3788E-03,       3.78275,-0.00938694,-0.00272498,-8.85797e-06
24630,21.0,-31.0,0.00278246,  -678.773E-03,   64.3790E-03,       3.97777,-0.0123668,-0.00362138,-1.24699e-05
24635,20.0,-31.0,0.00291639,  -660.149E-03,   64.3792E-03,       4.16971,-0.0152959,-0.00450262,-1.57157e-05
24638,19.0,-31.0,0.0030476,  -642.270E-03,   64.3794E-03,       4.35782,-0.0181629,-0.00536529,-1.83365e-05
24639,18.0,-31.0,0.00317558,  -625.256E-03,   64.3797E-03,       4.54134,-0.020957,-0.00620613,-2.01156e-05
24644,17.0,-31.0,0.00329982,  -609.218E-03,   64.3800E-03,       4.71958,-0.023668,-0.00702208,-2.0908e-05
24645,16.0,-31.0,0.00341984,  -594.247E-03,   64.3803E-03,       4.89182,-0.0262862,-0.00781016,-2.06604e-05
24650,15.0,-31.0,0.00353516,  -580.422E-03,   64.3806E-03,       5.05740,-0.0288021,-0.00856752,-1.94187e-05
24653,14.0,-31.0,0.00364532,  -567.800E-03,   64.3809E-03,       5.21564,-0.0312068,-0.00929137,-1.73211e-05
24654,13.0,-31.0,0.00374991,  -556.422E-03,   64.3812E-03,       5.36594,-0.0334915,-0.00997897,-1.45794e-05
24659,12.0,-31.0,0.00384849,  -546.308E-03,   64.3815E-03,       5.50768,-0.0356476,-0.0106277,-1.14509e-05
24660,11.0,-31.0,0.00394069,  -537.458E-03,   64.3818E-03,       5.64031,-0.0376668,-0.0112348,-8.20621e-06
24665,10.0,-31.0,0.00402614,  -529.853E-03,   64.3820E-03,       5.76329,-0.0395412,-0.011798,-5.09853e-06
24668,9.0,-31.0,0.00410451,  -523.454E-03,   64.3822E-03,       5.87612,-0.0412629,-0.0123149,-2.33838e-06
24669,8.0,-31.0,0.00417548,  -518.204E-03,   64.3823E-03,       5.97836,-0.0428246,-0.0127832,-7.69594e-08
24674,7.0,-31.0,0.00423877,  -514.026E-03,   64.3824E-03,       6.06957,-0.0442196,-0.0132011,1.60031e-06
24675,6.0,-31.0,0.00429414,  -510.827E-03,   64.3825E-03,       6.14940,-0.0454416,-0.0135667,2.67098e-06
24680,5.0,-31.0,0.00434137,  -508.498E-03,   64.3825E-03,       6.21751,-0.0464851,-0.0138785,3.16543e-06
24683,4.0,-31.0,0.00438026,  -506.916E-03,   64.3825E-03,       6.27362,-0.0473455,-0.0141353,3.15271e-06
24684,3.0,-31.0,0.00441068,  -505.948E-03,   64.3824E-03,       6.31751,-0.0480188,-0.014336,2.72557e-06
24689,2.0,-31.0,0.00443249,  -505.448E-03,   64.3824E-03,       6.34899,-0.0485019,-0.0144799,1.98762e-06
24690,1.0,-31.0,0.00444561,  -505.265E-03,   64.3824E-03,       6.36792,-0.0487926,-0.0145665,1.04455e-06
24695,-6.75463e-30,-31.0,0.00444999,  -505.241E-03,   64.3824E-03,       6.37425,-0.0488897,-0.0145954,-2.84217e-14
24698,-1.0,-31.0,0.00444561,  -505.217E-03,   64.3824E-03,       6.36792,-0.0487926,-0.0145665,-1.04455e-06
24699,-2.0,-31.0,0.00443249,  -505.034E-03,   64.3824E-03,       6.34899,-0.0485019,-0.0144799,-1.98762e-06
24704,-3.0,-31.0,0.00441068,  -504.534E-03,   64.3824E-03,       6.31751,-0.0480188,-0.014336,-2.72557e-06
24705,-4.0,-31.0,0.00438026,  -503.565E-03,   64.3825E-03,       6.27362,-0.0473455,-0.0141353,-3.15271e-06
24710,-5.0,-31.0,0.00434137,  -501.984E-03,   64.3825E-03,       6.21751,-0.0464851,-0.0138785,-3.16543e-06
24713,-6.0,-31.0,0.00429414,  -499.655E-03,   64.3825E-03,       6.14940,-0.0454416,-0.0135667,-2.67098e-06
24714,-7.0,-31.0,0.00423877,  -496.456E-03,   64.3824E-03,       6.06957,-0.0442196,-0.0132011,-1.60031e-06
24719,-8.0,-31.0,0.00417548,  -492.278E-03,   64.3823E-03,       5.97836,-0.0428246,-0.0127832,7.69594e-08
24720,-9.0,-31.0,0.00410451,  -487.027E-03,   64.3822E-03,       5.87612,-0.0412629,-0.0123149,2.33838e-06
24725,-10.0,-31.0,0.00402614,  -480.629E-03,   64.3820E-03,       5.76329,-0.0395412,-0.011798,5.09853e-06
24728,-11.0,-31.0,0.00394069,  -473.024E-03,   64.3818E-03,       5.64031,-0.0376668,-0.0112348,8.20621e-06
24729,-12.0,-31.0,0.00384849,  -464.174E-03,   64.3815E-03,       5.50768,-0.0356476,-0.0106277,1.14509e-05
24734,-13.0,-31.0,0.00374991,  -454.060E-03,   64.3812E-03,       5.36594,-0.0334915,-0.00997897,1.45794e-05
24735,-14.0,-31.0,0.00364532,  -442.681E-03,   64.3809E-03,       5.21564,-0.0312068,-0.00929137,1.73211e-05
24740,-15.0,-31.0,0.00353516,  -430.060E-03,   64.3806E-03,       5.05740,-0.0288021,-0.00856752,1.94187e-05
24743,-16.0,-31.0,0.00341984,  -416.234E-03,   64.3803E-03,       4.89182,-0.0262862,-0.00781016,2.06604e-05
24744,-17.0,-31.0,0.00329982,  -401.264E-03,   64.3800E-03,       4.71958,-0.023668,-0.00702208,2.0908e-05
24749,-18.0,-31.0,0.00317558,  -385.225E-03,   64.3797E-03,       4.54134,-0.020957,-0.00620613,2.01156e-05
24750,-19.0,-31.0,0.0030476,  -368.212E-03,   64.3794E-03,       4.35782,-0.0181629,-0.00536529,1.83365e-05
24755,-20.0,-31.0,0.00291639,  -350.332E-03,   64.3792E-03,       4.16971,-0.0152959,-0.00450262,1.57157e-05
24758,-21.0,-31.0,0.00278246,  -331.709E-03,   64.3790E-03,       3.97777,-0.0123668,-0.00362138,1.24699e-05
24759,-22.0,-31.0,0.00264634,  -312.476E-03,   64.3788E-03,       3.78275,-0.00938694,-0.00272498,8.85797e-06
24764,-23.0,-31.0,0.00250857,  -292.777E-03,   64.3787E-03,       3.58540,-0.00636822,-0.00181704,5.14681e-06
24765,-24.0,-31.0,0.00236968,  -272.764E-03,   64.3786E-03,       3.38649,-0.00332303,-0.000901354,1.57955e-06
24770,-25.0,-31.0,0.00223022,  -252.592E-03,   64.3785E-03,       3.18681,-0.000264156,1.81095e-05,-1.64908e-06
24773,-26.0,-31.0,0.00209074,  -232.420E-03,   64.3785E-03,       2.98712,0.00279538,0.000937276,-4.40659e-06
24774,-27.0,-31.0,0.00195179,  -212.407E-03,   64.3785E-03,       2.78822,0.0058425,0.00185202,-6.62471e-06
24779,-28.0,-31.0,0.0018139,  -192.710E-03,   64.3786E-03,       2.59088,0.00886425,0.00275827,-8.28945e-06
24780,-29.0,-31.0,0.00167762,  -173.478E-03,   64.3787E-03,       2.39586,0.0118479,0.00365207,-9.42652e-06
24785,-30.0,-31.0,0.00154348,  -154.857E-03,   64.3789E-03,       2.20393,0.0147814,0.00452965,-1.00813e-05
24788,-31.0,-31.0,0.00141201,  -136.980E-03,   64.3791E-03,       2.01584,0.0176528,0.00538755,-1.03082e-05
24789,-32.0,-31.0,0.00128373,  -119.969E-03,   64.3793E-03,       1.83233,0.0204512,0.00622259,-1.01573e-05
24794,-33.0,-31.0,0.00115913,  -103.934E-03,   64.3796E-03,       1.65411,0.023166,0.00703192,-9.68295e-06
24795,-34.0,-31.0,0.0010387,  -88.9661E-03,   64.3799E-03,       1.48188,0.0257875,0.00781298,-8.93722e-06
24800,-35.0,-31.0,0.000922917,  -75.1436E-03,   64.3802E-03,       1.31632,0.0283062,0.0085634,-7.99166e-06
24803,-36.0,-31.0,0.0008122380000000001,  -62.5246E-03,   64.3805E-03,       1.15809,0.0307132,0.00928093,-6.91556e-06
24804,-37.0,-31.0,0.000707096,  -51.1490E-03,   64.3809E-03,       1.00782,0.0330001,0.00996336,-5.7936e-06
24809,-38.0,-31.0,0.000607908,  -41.0373E-03,   64.3813E-03,   866.090E-03,0.0351585,0.0106084,-4.66764e-06
24810,-39.0,-31.0,0.000515067,  -32.1899E-03,   64.3817E-03,   733.482E-03,0.0371802,0.0112135,-3.55399e-06
24815,-40.0,-31.0,0.000428944,  -24.5878E-03,   64.3821E-03,   610.526E-03,0.039057,0.0117761,-2.36878e-06
24818,-41.0,-31.0,0.000349886,  -18.1921E-03,   64.3825E-03,   497.718E-03,0.0407806,0.0122935,-9.90773e-07
24819,-42.0,-31.0,0.000278215,  -12.9449E-03,   64.3829E-03,   395.517E-03,0.042343,0.0127632,7.65649e-07
24824,-43.0,-31.0,0.000214225,  -8.77011E-03,   64.3832E-03,   304.341E-03,0.0437361,0.0131824,3.00525e-06
24825,-44.0,-31.0,0.000158183,  -5.57447E-03,   64.3834E-03,   224.561E-03,0.044952,0.013549,5.70183e-06
24830,-45.0,-31.0,0.000110329,  -3.24897E-03,   64.3836E-03,   156.505E-03,0.0459836,0.0138608,8.55986e-06
24833,-46.0,-31.0,7.086939999999999e-05,  -1.67072E-03,   64.3836E-03,   100.451E-03,0.0468248,0.0141162,1.09759e-05
24834,-47.0,-31.0,3.9982e-05,  -704.753E-06,   64.3836E-03,   56.6252E-03,0.0474705,0.0143133,1.2123e-05
24839,-48.0,-31.0,1.78093e-05,  -206.436E-06,   64.3836E-03,   25.2031E-03,0.0479173,0.0144508,1.10183e-05
24840,-49.0,-31.0,4.45865e-06,  -23.7646E-06,   64.3835E-03,   6.30573E-03,0.0481629,0.0145269,6.85049e-06
24845,-50.0,-31.0,0.0,  -13.6711E-42,   64.3835E-03,            0.,0.0482351,0.0145494,3.89883e-06
24848,50.0,-32.0,0.0,      -1.01048,   64.3824E-03,           -0.,0.0482247,0.0145498,-4.64905e-06
24849,49.0,-32.0,4.48778e-06,      -1.01046,   64.3824E-03,   6.30461E-03,0.0481549,0.0145274,-8.21114e-06
24854,48.0,-32.0,1.79224e-05,      -1.01028,   64.3825E-03,   25.1994E-03,0.0479141,0.0144517,-1.33725e-05
24855,47.0,-32.0,4.02272e-05,      -1.00978,   64.3825E-03,   56.6188E-03,0.0474711,0.0143144,-1.49235e-05
24860,46.0,-32.0,7.12884e-05,      -1.00881,   64.3826E-03,   100.442E-03,0.0468276,0.0141169,-1.39133e-05
24861,45.0,-32.0,0.00011095799999999999,      -1.00723,   64.3826E-03,   156.496E-03,0.0459873,0.0138609,-1.14682e-05
24866,44.0,-32.0,0.00015905299999999998,      -1.00491,   64.3824E-03,   224.553E-03,0.0449554,0.0135479,-8.59679e-06
24867,43.0,-32.0,0.000215363,      -1.00171,   64.3822E-03,   304.334E-03,0.0437385,0.01318,-5.90701e-06
24872,42.0,-32.0,0.000279645,  -997.536E-03,   64.3820E-03,   395.514E-03,0.0423443,0.0127592,-3.59684e-06
24875,41.0,-32.0,0.00035163,  -992.289E-03,   64.3816E-03,   497.718E-03,0.0407809,0.0122881,-1.6034e-06
24876,40.0,-32.0,0.00043102099999999996,  -985.893E-03,   64.3813E-03,   610.528E-03,0.0390565,0.0117694,3.10338e-07
24881,39.0,-32.0,0.000517494,  -978.290E-03,   64.3809E-03,   733.487E-03,0.0371796,0.0112062,2.31287e-06
24882,38.0,-32.0,0.000610703,  -969.443E-03,   64.3805E-03,   866.096E-03,0.0351581,0.0106012,4.51692e-06
24887,37.0,-32.0,0.000710275,  -959.331E-03,   64.3800E-03,       1.00782,0.0330002,0.00995708,6.8583e-06
24890,36.0,-32.0,0.000815816,  -947.956E-03,   64.3796E-03,       1.15810,0.0307141,0.0092763,9.20988e-06
24891,35.0,-32.0,0.000926909,  -935.337E-03,   64.3792E-03,       1.31633,0.0283077,0.00856099,1.13575e-05
24896,34.0,-32.0,0.00104312,  -921.515E-03,   64.3788E-03,       1.48188,0.0257896,0.0078131,1.31136e-05
24897,33.0,-32.0,0.00116399,  -906.547E-03,   64.3784E-03,       1.65411,0.0231686,0.00703461,1.43056e-05
24902,32.0,-32.0,0.00128904,  -890.512E-03,   64.3781E-03,       1.83233,0.0204537,0.0062276,1.48313e-05
24905,31.0,-32.0,0.00141779,  -873.501E-03,   64.3778E-03,       2.01584,0.017655,0.0053944,1.4631e-05
24906,30.0,-32.0,0.00154974,  -855.624E-03,   64.3775E-03,       2.20393,0.0147828,0.0045377,1.36973e-05
24911,29.0,-32.0,0.00168436,  -837.003E-03,   64.3773E-03,       2.39586,0.0118483,0.00366055,1.20478e-05
24912,28.0,-32.0,0.00182113,  -817.772E-03,   64.3772E-03,       2.59087,0.00886328,0.00276645,9.72599e-06
24917,27.0,-32.0,0.00195952,  -798.074E-03,   64.3771E-03,       2.78822,0.00584008,0.00185921,6.79176e-06
24920,26.0,-32.0,0.00209899,  -778.061E-03,   64.3771E-03,       2.98712,0.00279155,0.000942933,3.3308e-06
24921,25.0,-32.0,0.00223897,  -757.890E-03,   64.3771E-03,       3.18680,-0.000269183,2.18957e-05,-5.40129e-07
24926,24.0,-32.0,0.00237894,  -737.717E-03,   64.3771E-03,       3.38648,-0.00332889,-0.000899573,-4.66412e-06
24927,23.0,-32.0,0.00251834,  -717.704E-03,   64.3772E-03,       3.58539,-0.00637443,-0.00181719,-8.84304e-06
24932,22.0,-32.0,0.00265662,  -698.005E-03,   64.3774E-03,       3.78274,-0.00939297,-0.00272683,-1.28441e-05
24935,21.0,-32.0,0.00279324,  -678.772E-03,   64.3776E-03,       3.97777,-0.0123721,-0.00362454,-1.64168e-05
24936,20.0,-32.0,0.00292766,  -660.149E-03,   64.3778E-03,       4.16970,-0.0153,-0.00450664,-1.93173e-05
24941,19.0,-32.0,0.00305936,  -642.269E-03,   64.3781E-03,       4.35781,-0.0181655,-0.00536971,-2.13376e-05
24942,18.0,-32.0,0.00318781,  -625.256E-03,   64.3784E-03,       4.54133,-0.020958,-0.00621052,-2.23337e-05
24947,17.0,-32.0,0.00331252,  -609.217E-03,   64.3787E-03,       4.71957,-0.0236673,-0.00702606,-2.22465e-05
24950,16.0,-32.0,0.00343299,  -594.247E-03,   64.3791E-03,       4.89181,-0.026284,-0.00781348,-2.11128e-05
24951,15.0,-32.0,0.00354874,  -580.422E-03,   64.3795E-03,       5.05738,-0.0287988,-0.00857,-1.90625e-05
24956,14.0,-32.0,0.00365932,  -567.800E-03,   64.3799E-03,       5.21563,-0.0312027,-0.00929293,-1.6303e-05
24957,13.0,-32.0,0.0037643,  -556.422E-03,   64.3803E-03,       5.36592,-0.0334871,-0.00997962,-1.30936e-05
24962,12.0,-32.0,0.00386326,  -546.308E-03,   64.3806E-03,       5.50767,-0.0356433,-0.0106274,-9.71362e-06
24965,11.0,-32.0,0.00395581,  -537.458E-03,   64.3809E-03,       5.64029,-0.037663,-0.0112338,-6.42945e-06
24966,10.0,-32.0,0.00404159,  -529.853E-03,   64.3812E-03,       5.76327,-0.0395379,-0.0117964,-3.46674e-06
24971,9.0,-32.0,0.00412025,  -523.455E-03,   64.3814E-03,       5.87611,-0.0412603,-0.0123126,-9.90285e-07
24972,8.0,-32.0,0.00419149,  -518.204E-03,   64.3815E-03,       5.97834,-0.0428228,-0.0127805,9.05175e-07
24977,7.0,-32.0,0.00425502,  -514.026E-03,   64.3816E-03,       6.06956,-0.0442183,-0.0131979,2.19358e-06
24980,6.0,-32.0,0.0043106,  -510.827E-03,   64.3816E-03,       6.14938,-0.0454408,-0.0135631,2.90692e-06
24981,5.0,-32.0,0.00435801,  -508.498E-03,   64.3815E-03,       6.21749,-0.0464847,-0.0138745,3.11876e-06
24986,4.0,-32.0,0.00439706,  -506.916E-03,   64.3815E-03,       6.27361,-0.0473452,-0.0141311,2.92544e-06
24987,3.0,-32.0,0.00442759,  -505.948E-03,   64.3814E-03,       6.31749,-0.0480186,-0.0143316,2.42887e-06
24992,2.0,-32.0,0.00444948,  -505.448E-03,   64.3813E-03,       6.34897,-0.0485017,-0.0144753,1.72386e-06
24995,1.0,-32.0,0.00446265,  -505.265E-03,   64.3813E-03,       6.36791,-0.0487924,-0.0145618,8.91671e-07
24996,1.17376e-29,-32.0,0.00446705,  -505.241E-03,   64.3813E-03,       6.37423,-0.0488894,-0.0145906,0.0
25001,-1.0,-32.0,0.00446265,  -505.217E-03,   64.3813E-03,       6.36791,-0.0487924,-0.0145618,-8.91671e-07
25002,-2.0,-32.0,0.00444948,  -505.034E-03,   64.3813E-03,       6.34897,-0.0485017,-0.0144753,-1.72386e-06
25007,-3.0,-32.0,0.00442759,  -504.534E-03,   64.3814E-03,       6.31749,-0.0480186,-0.0143316,-2.42887e-06
25010,-4.0,-32.0,0.00439706,  -503.565E-03,   64.3815E-03,       6.27361,-0.0473452,-0.0141311,-2.92544e-06
25011,-5.0,-32.0,0.00435801,  -501.984E-03,   64.3815E-03,       6.21749,-0.0464847,-0.0138745,-3.11876e-06
25016,-6.0,-32.0,0.0043106,  -499.655E-03,   64.3816E-03,       6.14938,-0.0454408,-0.0135631,-2.90692e-06
25017,-7.0,-32.0,0.00425502,  -496.456E-03,   64.3816E-03,       6.06956,-0.0442183,-0.0131979,-2.19358e-06
25022,-8.0,-32.0,0.00419149,  -492.277E-03,   64.3815E-03,       5.97834,-0.0428228,-0.0127805,-9.05175e-07
25025,-9.0,-32.0,0.00412025,  -487.027E-03,   64.3814E-03,       5.87611,-0.0412603,-0.0123126,9.90285e-07
25026,-10.0,-32.0,0.00404159,  -480.629E-03,   64.3812E-03,       5.76327,-0.0395379,-0.0117964,3.46674e-06
25031,-11.0,-32.0,0.00395581,  -473.024E-03,   64.3809E-03,       5.64029,-0.037663,-0.0112338,6.42945e-06
25032,-12.0,-32.0,0.00386326,  -464.174E-03,   64.3806E-03,       5.50767,-0.0356433,-0.0106274,9.71362e-06
25037,-13.0,-32.0,0.0037643,  -454.060E-03,   64.3803E-03,       5.36592,-0.0334871,-0.00997962,1.30936e-05
25040,-14.0,-32.0,0.00365932,  -442.681E-03,   64.3799E-03,       5.21563,-0.0312027,-0.00929293,1.6303e-05
25041,-15.0,-32.0,0.00354874,  -430.060E-03,   64.3795E-03,       5.05738,-0.0287988,-0.00857,1.90625e-05
25046,-16.0,-32.0,0.00343299,  -416.235E-03,   64.3791E-03,       4.89181,-0.026284,-0.00781348,2.11128e-05
25047,-17.0,-32.0,0.00331252,  -401.264E-03,   64.3787E-03,       4.71957,-0.0236673,-0.00702606,2.22465e-05
25052,-18.0,-32.0,0.00318781,  -385.226E-03,   64.3784E-03,       4.54133,-0.020958,-0.00621052,2.23337e-05
25055,-19.0,-32.0,0.00305936,  -368.213E-03,   64.3781E-03,       4.35781,-0.0181655,-0.00536971,2.13376e-05
25056,-20.0,-32.0,0.00292766,  -350.333E-03,   64.3778E-03,       4.16970,-0.0153,-0.00450664,1.93173e-05
25061,-21.0,-32.0,0.00279324,  -331.710E-03,   64.3776E-03,       3.97777,-0.0123721,-0.00362454,1.64168e-05
25062,-22.0,-32.0,0.00265662,  -312.477E-03,   64.3774E-03,       3.78274,-0.00939297,-0.00272683,1.28441e-05
25067,-23.0,-32.0,0.00251834,  -292.778E-03,   64.3772E-03,       3.58539,-0.00637443,-0.00181719,8.84304e-06
25070,-24.0,-32.0,0.00237894,  -272.764E-03,   64.3771E-03,       3.38648,-0.00332889,-0.000899573,4.66412e-06
25071,-25.0,-32.0,0.00223897,  -252.592E-03,   64.3771E-03,       3.18680,-0.000269183,2.18957e-05,5.40129e-07
25076,-26.0,-32.0,0.00209899,  -232.420E-03,   64.3771E-03,       2.98712,0.00279155,0.000942933,-3.3308e-06
25077,-27.0,-32.0,0.00195952,  -212.407E-03,   64.3771E-03,       2.78822,0.00584008,0.00185921,-6.79176e-06
25082,-28.0,-32.0,0.00182113,  -192.710E-03,   64.3772E-03,       2.59087,0.00886328,0.00276645,-9.72599e-06
25085,-29.0,-32.0,0.00168436,  -173.479E-03,   64.3773E-03,       2.39586,0.0118483,0.00366055,-1.20478e-05
25086,-30.0,-32.0,0.00154974,  -154.857E-03,   64.3775E-03,       2.20393,0.0147828,0.0045377,-1.36973e-05
25091,-31.0,-32.0,0.00141779,  -136.980E-03,   64.3778E-03,       2.01584,0.017655,0.0053944,-1.4631e-05
25092,-32.0,-32.0,0.00128904,  -119.970E-03,   64.3781E-03,       1.83233,0.0204537,0.0062276,-1.48313e-05
25097,-33.0,-32.0,0.00116399,  -103.934E-03,   64.3784E-03,       1.65411,0.0231686,0.00703461,-1.43056e-05
25100,-34.0,-32.0,0.00104312,  -88.9673E-03,   64.3788E-03,       1.48188,0.0257896,0.0078131,-1.31136e-05
25101,-35.0,-32.0,0.000926909,  -75.1450E-03,   64.3792E-03,       1.31633,0.0283077,0.00856099,-1.13575e-05
25106,-36.0,-32.0,0.000815816,  -62.5262E-03,   64.3796E-03,       1.15810,0.0307141,0.0092763,-9.20988e-06
25107,-37.0,-32.0,0.000710275,  -51.1507E-03,   64.3800E-03,       1.00782,0.0330002,0.00995708,-6.8583e-06
25112,-38.0,-32.0,0.000610703,  -41.0388E-03,   64.3805E-03,   866.096E-03,0.0351581,0.0106012,-4.51692e-06
25115,-39.0,-32.0,0.000517494,  -32.1913E-03,   64.3809E-03,   733.487E-03,0.0371796,0.0112062,-2.31287e-06
25116,-40.0,-32.0,0.00043102099999999996,  -24.5889E-03,   64.3813E-03,   610.528E-03,0.0390565,0.0117694,-3.10339e-07
25121,-41.0,-32.0,0.00035163,  -18.1929E-03,   64.3816E-03,   497.718E-03,0.0407809,0.0122881,1.6034e-06
25122,-42.0,-32.0,0.000279645,  -12.9454E-03,   64.3820E-03,   395.514E-03,0.0423443,0.0127592,3.59684e-06
25127,-43.0,-32.0,0.000215363,  -8.77032E-03,   64.3822E-03,   304.334E-03,0.0437385,0.01318,5.90701e-06
25130,-44.0,-32.0,0.00015905299999999998,  -5.57448E-03,   64.3824E-03,   224.553E-03,0.0449554,0.0135479,8.59679e-06
25131,-45.0,-32.0,0.00011095799999999999,  -3.24891E-03,   64.3826E-03,   156.496E-03,0.0459873,0.0138609,1.14682e-05
25136,-46.0,-32.0,7.12884e-05,  -1.67064E-03,   64.3826E-03,   100.442E-03,0.0468276,0.0141169,1.39133e-05
25137,-47.0,-32.0,4.02272e-05,  -704.740E-06,   64.3825E-03,   56.6188E-03,0.0474711,0.0143144,1.49235e-05
25142,-48.0,-32.0,1.79224e-05,  -206.461E-06,   64.3825E-03,   25.1994E-03,0.0479141,0.0144517,1.33725e-05
25145,-49.0,-32.0,4.48778e-06,  -23.8008E-06,   64.3824E-03,   6.30461E-03,0.0481549,0.0145274,8.21114e-06
25146,-50.0,-32.0,0.0,  -13.7832E-42,   64.3824E-03,           -0.,0.0482247,0.0145498,4.64905e-06
25151,50.0,-33.0,0.0,      -1.01048,   64.3812E-03,            0.,0.0482119,0.0145488,-5.69302e-06
25152,49.0,-33.0,4.51851e-06,      -1.01046,   64.3812E-03,   6.30331E-03,0.0481456,0.0145274,-1.01197e-05
25157,48.0,-33.0,1.80412e-05,      -1.01028,   64.3813E-03,   25.1950E-03,0.0479108,0.0144527,-1.64824e-05
25160,47.0,-33.0,4.04837e-05,      -1.00978,   64.3814E-03,   56.6109E-03,0.0474723,0.0143155,-1.8562e-05
25161,46.0,-33.0,7.17251e-05,      -1.00881,   64.3815E-03,   100.432E-03,0.0468317,0.0141178,-1.76015e-05
25166,45.0,-33.0,0.000111611,      -1.00723,   64.3815E-03,   156.484E-03,0.0459924,0.0138612,-1.51465e-05
25167,44.0,-33.0,0.000159954,      -1.00491,   64.3814E-03,   224.542E-03,0.0449603,0.0135472,-1.23277e-05
25172,43.0,-33.0,0.00021653700000000002,      -1.00171,   64.3813E-03,   304.326E-03,0.0437425,0.0131778,-9.7105e-06
25175,42.0,-33.0,0.000281118,  -997.536E-03,   64.3811E-03,   395.508E-03,0.0423472,0.0127552,-7.3629e-06
25176,41.0,-33.0,0.000353422,  -992.288E-03,   64.3808E-03,   497.715E-03,0.0407829,0.0122823,-4.98313e-06
25181,40.0,-33.0,0.000433151,  -985.892E-03,   64.3805E-03,   610.529E-03,0.0390582,0.0117624,-2.28229e-06
25182,39.0,-33.0,0.000519982,  -978.289E-03,   64.3801E-03,   733.490E-03,0.0371812,0.0111985,9.79089e-07
25187,38.0,-33.0,0.000613566,  -969.442E-03,   64.3797E-03,   866.101E-03,0.0351601,0.0105939,4.75405e-06
25190,37.0,-33.0,0.0007135310000000001,  -959.330E-03,   64.3792E-03,       1.00783,0.0330028,0.00995109,8.8562e-06
25191,36.0,-33.0,0.000819482,  -947.954E-03,   64.3788E-03,       1.15811,0.0307172,0.00927247,1.29068e-05
25196,35.0,-33.0,0.0009310010000000001,  -935.335E-03,   64.3783E-03,       1.31633,0.0283112,0.00855991,1.65256e-05
25197,34.0,-33.0,0.00104765,  -921.513E-03,   64.3778E-03,       1.48189,0.0257933,0.00781512,1.93299e-05
25202,33.0,-33.0,0.00116898,  -906.546E-03,   64.3773E-03,       1.65411,0.023172,0.0070397,2.10536e-05
25205,32.0,-33.0,0.00129451,  -890.511E-03,   64.3769E-03,       1.83233,0.0204565,0.00623543,2.15235e-05
25206,31.0,-33.0,0.00142375,  -873.501E-03,   64.3765E-03,       2.01584,0.0176568,0.00540436,2.06964e-05
25211,30.0,-33.0,0.00155619,  -855.624E-03,   64.3762E-03,       2.20393,0.0147833,0.00454897,1.86176e-05
25212,29.0,-33.0,0.00169132,  -837.003E-03,   64.3759E-03,       2.39585,0.0118472,0.00367223,1.54183e-05
25217,28.0,-33.0,0.00182862,  -817.771E-03,   64.3757E-03,       2.59087,0.00886045,0.0027776,1.12815e-05
25220,27.0,-33.0,0.00196753,  -798.074E-03,   64.3756E-03,       2.78821,0.00583558,0.00186897,6.43441e-06
25221,26.0,-33.0,0.00210753,  -778.061E-03,   64.3755E-03,       2.98711,0.00278558,0.00095061,1.13206e-06
25226,25.0,-33.0,0.00224806,  -757.889E-03,   64.3755E-03,       3.18679,-0.000276267,2.701e-05,-4.34769e-06
25227,24.0,-33.0,0.00238856,  -737.717E-03,   64.3756E-03,       3.38648,-0.00333659,-0.000897246,-9.71379e-06
25232,23.0,-33.0,0.0025285,  -717.703E-03,   64.3757E-03,       3.58538,-0.00638217,-0.00181762,-1.4672e-05
25235,22.0,-33.0,0.00266732,  -698.004E-03,   64.3759E-03,       3.78273,-0.00940014,-0.00272975,-1.8941e-05
25236,21.0,-33.0,0.00280448,  -678.771E-03,   64.3761E-03,       3.97775,-0.0123782,-0.00362951,-2.2273e-05
25241,20.0,-33.0,0.00293943,  -660.148E-03,   64.3764E-03,       4.16969,-0.0153045,-0.00451311,-2.44763e-05
25242,19.0,-33.0,0.00307164,  -642.269E-03,   64.3767E-03,       4.35779,-0.0181681,-0.00537704,-2.54373e-05
25247,18.0,-33.0,0.00320061,  -625.256E-03,   64.3771E-03,       4.54132,-0.0209586,-0.0062181,-2.51362e-05
25250,17.0,-33.0,0.00332581,  -609.217E-03,   64.3775E-03,       4.71955,-0.0236661,-0.00703336,-2.36535e-05
25251,16.0,-33.0,0.00344676,  -594.247E-03,   64.3780E-03,       4.89180,-0.0262812,-0.00782003,-2.11644e-05
25256,15.0,-33.0,0.00356297,  -580.422E-03,   64.3784E-03,       5.05737,-0.0287948,-0.00857547,-1.79209e-05
25257,14.0,-33.0,0.003674,  -567.800E-03,   64.3789E-03,       5.21561,-0.031198,-0.00929708,-1.42241e-05
25262,13.0,-33.0,0.0037794,  -556.422E-03,   64.3794E-03,       5.36591,-0.033482,-0.00998234,-1.03902e-05
25265,12.0,-33.0,0.00387876,  -546.308E-03,   64.3798E-03,       5.50765,-0.0356383,-0.0106287,-6.71568e-06
25266,11.0,-33.0,0.00397168,  -537.458E-03,   64.3801E-03,       5.64028,-0.0376583,-0.0112337,-3.44703e-06
25271,10.0,-33.0,0.00405781,  -529.853E-03,   64.3804E-03,       5.76326,-0.0395338,-0.0117949,-7.58612e-07
25272,9.0,-33.0,0.00413679,  -523.454E-03,   64.3806E-03,       5.87609,-0.0412568,-0.0123099,1.25757e-06
25277,8.0,-33.0,0.00420832,  -518.204E-03,   64.3807E-03,       5.97833,-0.0428197,-0.0127766,2.59021e-06
25280,7.0,-33.0,0.00427211,  -514.026E-03,   64.3807E-03,       6.06954,-0.0442157,-0.0131931,3.29608e-06
25281,6.0,-33.0,0.00432792,  -510.827E-03,   64.3807E-03,       6.14937,-0.0454384,-0.0135574,3.47981e-06
25286,5.0,-33.0,0.00437552,  -508.498E-03,   64.3806E-03,       6.21748,-0.0464823,-0.0138682,3.2698e-06
25287,4.0,-33.0,0.00441473,  -506.916E-03,   64.3805E-03,       6.27359,-0.0473428,-0.0141241,2.79493e-06
25292,3.0,-33.0,0.00444538,  -505.948E-03,   64.3804E-03,       6.31747,-0.048016,-0.0143242,2.16568e-06
25295,2.0,-33.0,0.00446736,  -505.448E-03,   64.3803E-03,       6.34895,-0.048499,-0.0144676,1.46271e-06
25296,1.0,-33.0,0.00448059,  -505.265E-03,   64.3802E-03,       6.36789,-0.0487896,-0.0145539,7.33948e-07
25301,1.46631e-29,-33.0,0.004485,  -505.241E-03,   64.3802E-03,       6.37421,-0.0488866,-0.0145827,4.26326e-14
25302,-1.0,-33.0,0.00448059,  -505.217E-03,   64.3802E-03,       6.36789,-0.0487896,-0.0145539,-7.33948e-07
25307,-2.0,-33.0,0.00446736,  -505.034E-03,   64.3803E-03,       6.34895,-0.048499,-0.0144676,-1.46271e-06
25310,-3.0,-33.0,0.00444538,  -504.534E-03,   64.3804E-03,       6.31747,-0.048016,-0.0143242,-2.16568e-06
25311,-4.0,-33.0,0.00441473,  -503.565E-03,   64.3805E-03,       6.27359,-0.0473428,-0.0141241,-2.79493e-06
25316,-5.0,-33.0,0.00437552,  -501.984E-03,   64.3806E-03,       6.21748,-0.0464823,-0.0138682,-3.2698e-06
25317,-6.0,-33.0,0.00432792,  -499.655E-03,   64.3807E-03,       6.14937,-0.0454384,-0.0135574,-3.47981e-06
25322,-7.0,-33.0,0.00427211,  -496.456E-03,   64.3807E-03,       6.06954,-0.0442157,-0.0131931,-3.29608e-06
25325,-8.0,-33.0,0.00420832,  -492.278E-03,   64.3807E-03,       5.97833,-0.0428197,-0.0127766,-2.59021e-06
25326,-9.0,-33.0,0.00413679,  -487.027E-03,   64.3806E-03,       5.87609,-0.0412568,-0.0123099,-1.25757e-06
25331,-10.0,-33.0,0.00405781,  -480.629E-03,   64.3804E-03,       5.76326,-0.0395338,-0.0117949,7.58612e-07
25332,-11.0,-33.0,0.00397168,  -473.024E-03,   64.3801E-03,       5.64028,-0.0376583,-0.0112337,3.44703e-06
25337,-12.0,-33.0,0.00387876,  -464.174E-03,   64.3798E-03,       5.50765,-0.0356383,-0.0106287,6.71568e-06
25340,-13.0,-33.0,0.0037794,  -454.060E-03,   64.3794E-03,       5.36591,-0.033482,-0.00998234,1.03902e-05
25341,-14.0,-33.0,0.003674,  -442.681E-03,   64.3789E-03,       5.21561,-0.031198,-0.00929708,1.42241e-05
25346,-15.0,-33.0,0.00356297,  -430.060E-03,   64.3784E-03,       5.05737,-0.0287948,-0.00857547,1.79209e-05
25347,-16.0,-33.0,0.00344676,  -416.235E-03,   64.3780E-03,       4.89180,-0.0262812,-0.00782003,2.11644e-05
25352,-17.0,-33.0,0.00332581,  -401.264E-03,   64.3775E-03,       4.71955,-0.0236661,-0.00703336,2.36535e-05
25355,-18.0,-33.0,0.00320061,  -385.226E-03,   64.3771E-03,       4.54132,-0.0209586,-0.0062181,2.51362e-05
25356,-19.0,-33.0,0.00307164,  -368.213E-03,   64.3767E-03,       4.35779,-0.0181681,-0.00537704,2.54373e-05
25361,-20.0,-33.0,0.00293943,  -350.334E-03,   64.3764E-03,       4.16969,-0.0153045,-0.00451311,2.44763e-05
25362,-21.0,-33.0,0.00280448,  -331.710E-03,   64.3761E-03,       3.97775,-0.0123782,-0.00362951,2.2273e-05
25367,-22.0,-33.0,0.00266732,  -312.477E-03,   64.3759E-03,       3.78273,-0.00940014,-0.00272975,1.8941e-05
25370,-23.0,-33.0,0.0025285,  -292.778E-03,   64.3757E-03,       3.58538,-0.00638217,-0.00181762,1.4672e-05
25371,-24.0,-33.0,0.00238856,  -272.765E-03,   64.3756E-03,       3.38648,-0.00333659,-0.000897246,9.71379e-06
25376,-25.0,-33.0,0.00224806,  -252.593E-03,   64.3755E-03,       3.18679,-0.000276267,2.701e-05,4.34769e-06
25377,-26.0,-33.0,0.00210753,  -232.421E-03,   64.3755E-03,       2.98711,0.00278558,0.00095061,-1.13206e-06
25382,-27.0,-33.0,0.00196753,  -212.408E-03,   64.3756E-03,       2.78821,0.00583558,0.00186897,-6.43441e-06
25385,-28.0,-33.0,0.00182862,  -192.710E-03,   64.3757E-03,       2.59087,0.00886045,0.0027776,-1.12815e-05
25386,-29.0,-33.0,0.00169132,  -173.479E-03,   64.3759E-03,       2.39585,0.0118472,0.00367223,-1.54183e-05
25391,-30.0,-33.0,0.00155619,  -154.858E-03,   64.3762E-03,       2.20393,0.0147833,0.00454897,-1.86176e-05
25392,-31.0,-33.0,0.00142375,  -136.981E-03,   64.3765E-03,       2.01584,0.0176568,0.00540436,-2.06964e-05
25397,-32.0,-33.0,0.00129451,  -119.971E-03,   64.3769E-03,       1.83233,0.0204565,0.00623543,-2.15235e-05
25400,-33.0,-33.0,0.00116898,  -103.936E-03,   64.3773E-03,       1.65411,0.023172,0.0070397,-2.10536e-05
25401,-34.0,-33.0,0.00104765,  -88.9686E-03,   64.3778E-03,       1.48189,0.0257933,0.00781512,-1.93299e-05
25406,-35.0,-33.0,0.0009310010000000001,  -75.1465E-03,   64.3783E-03,       1.31633,0.0283112,0.00855991,-1.65256e-05
25407,-36.0,-33.0,0.000819482,  -62.5277E-03,   64.3788E-03,       1.15811,0.0307172,0.00927247,-1.29068e-05
25412,-37.0,-33.0,0.0007135310000000001,  -51.1522E-03,   64.3792E-03,       1.00783,0.0330028,0.00995109,-8.8562e-06
25415,-38.0,-33.0,0.000613566,  -41.0403E-03,   64.3797E-03,   866.101E-03,0.0351601,0.0105939,-4.75405e-06
25416,-39.0,-33.0,0.000519982,  -32.1925E-03,   64.3801E-03,   733.490E-03,0.0371812,0.0111985,-9.79089e-07
25421,-40.0,-33.0,0.000433151,  -24.5899E-03,   64.3805E-03,   610.529E-03,0.0390582,0.0117624,2.28229e-06
25422,-41.0,-33.0,0.000353422,  -18.1935E-03,   64.3808E-03,   497.715E-03,0.0407829,0.0122823,4.98313e-06
25427,-42.0,-33.0,0.000281118,  -12.9457E-03,   64.3811E-03,   395.508E-03,0.0423472,0.0127552,7.3629e-06
25430,-43.0,-33.0,0.00021653700000000002,  -8.77041E-03,   64.3813E-03,   304.326E-03,0.0437425,0.0131778,9.7105e-06
25431,-44.0,-33.0,0.000159954,  -5.57441E-03,   64.3814E-03,   224.542E-03,0.0449603,0.0135472,1.23277e-05
25436,-45.0,-33.0,0.000111611,  -3.24876E-03,   64.3815E-03,   156.484E-03,0.0459924,0.0138612,1.51465e-05
25437,-46.0,-33.0,7.17251e-05,  -1.67053E-03,   64.3815E-03,   100.432E-03,0.0468317,0.0141178,1.76015e-05
25442,-47.0,-33.0,4.04837e-05,  -704.683E-06,   64.3814E-03,   56.6109E-03,0.0474723,0.0143155,1.8562e-05
25445,-48.0,-33.0,1.80412e-05,  -206.482E-06,   64.3813E-03,   25.1950E-03,0.0479108,0.0144527,1.64824e-05
25446,-49.0,-33.0,4.51851e-06,  -23.8326E-06,   64.3812E-03,   6.30331E-03,0.0481456,0.0145274,1.01197e-05
25451,-50.0,-33.0,0.0,  -13.9009E-42,   64.3812E-03,            0.,0.0482119,0.0145488,5.69302e-06
25452,50.0,-34.0,0.0,      -1.01048,   64.3799E-03,           -0.,0.0481969,0.014549,-7.26389e-06
25457,49.0,-34.0,4.55075e-06,      -1.01046,   64.3799E-03,   6.30161E-03,0.0481344,0.0145276,-1.27485e-05
25460,48.0,-34.0,1.81654e-05,      -1.01028,   64.3801E-03,   25.1893E-03,0.0479073,0.0144537,-2.07087e-05
25461,47.0,-34.0,4.07506e-05,      -1.00978,   64.3802E-03,   56.6009E-03,0.0474749,0.0143173,-2.3182e-05
25466,46.0,-34.0,7.217729999999999e-05,      -1.00881,   64.3804E-03,   100.419E-03,0.0468379,0.0141199,-2.22022e-05
25467,45.0,-34.0,0.000112284,      -1.00723,   64.3804E-03,   156.470E-03,0.046,0.013863,-1.9707e-05
25472,44.0,-34.0,0.000160878,      -1.00491,   64.3804E-03,   224.528E-03,0.0449677,0.0135481,-1.70105e-05
25475,43.0,-34.0,0.00021774,      -1.00171,   64.3804E-03,   304.314E-03,0.0437491,0.0131771,-1.45677e-05
25476,42.0,-34.0,0.000282621,  -997.536E-03,   64.3802E-03,   395.499E-03,0.0423529,0.0127525,-1.20971e-05
25481,41.0,-34.0,0.000355247,  -992.288E-03,   64.3800E-03,   497.710E-03,0.0407881,0.0122778,-9.13623e-06
25482,40.0,-34.0,0.00043531900000000004,  -985.891E-03,   64.3798E-03,   610.527E-03,0.0390633,0.0117565,-5.17885e-06
25487,39.0,-34.0,0.0005225130000000001,  -978.288E-03,   64.3794E-03,   733.491E-03,0.0371866,0.0111922,-1.19738e-07
25490,38.0,-34.0,0.0006164780000000001,  -969.440E-03,   64.3790E-03,   866.104E-03,0.0351659,0.0105882,5.90093e-06
25491,37.0,-34.0,0.0007168439999999999,  -959.328E-03,   64.3786E-03,       1.00783,0.033009,0.00994712,1.23698e-05
25496,36.0,-34.0,0.000823215,  -947.952E-03,   64.3780E-03,       1.15811,0.0307234,0.0092711,1.86856e-05
25497,35.0,-34.0,0.0009351730000000001,  -935.334E-03,   64.3774E-03,       1.31634,0.0283171,0.00856177,2.41634e-05
25502,34.0,-34.0,0.00105228,  -921.511E-03,   64.3769E-03,       1.48189,0.0257984,0.00782046,2.82484e-05
25505,33.0,-34.0,0.00117408,  -906.544E-03,   64.3763E-03,       1.65412,0.0231759,0.00704845,3.05082e-05
25506,32.0,-34.0,0.0013001,  -890.509E-03,   64.3757E-03,       1.83234,0.0204588,0.00624715,3.07253e-05
25511,31.0,-34.0,0.00142985,  -873.499E-03,   64.3752E-03,       2.01585,0.0176572,0.00541834,2.88555e-05
25512,30.0,-34.0,0.00156282,  -855.622E-03,   64.3748E-03,       2.20393,0.0147816,0.00456429,2.50404e-05
25517,29.0,-34.0,0.00169849,  -837.001E-03,   64.3744E-03,       2.39586,0.0118434,0.00368783,1.9555e-05
25520,28.0,-34.0,0.00183633,  -817.770E-03,   64.3742E-03,       2.59087,0.00885458,0.00279238,1.27888e-05
25521,27.0,-34.0,0.0019758,  -798.073E-03,   64.3740E-03,       2.78821,0.00582792,0.00188192,5.20047e-06
25526,26.0,-34.0,0.00211636,  -778.060E-03,   64.3739E-03,       2.98711,0.00277653,0.000960862,-2.70938e-06
25527,25.0,-34.0,0.00225746,  -757.889E-03,   64.3739E-03,       3.18679,-0.000286158,3.39314e-05,-1.04342e-05
25532,24.0,-34.0,0.00239855,  -737.717E-03,   64.3739E-03,       3.38647,-0.0033467,-0.000894013,-1.74912e-05
25535,23.0,-34.0,0.00253906,  -717.703E-03,   64.3741E-03,       3.58537,-0.00639184,-0.00181814,-2.34529e-05
25536,22.0,-34.0,0.00267845,  -698.005E-03,   64.3743E-03,       3.78272,-0.00940875,-0.0027338,-2.79762e-05
25541,21.0,-34.0,0.00281618,  -678.772E-03,   64.3746E-03,       3.97774,-0.0123852,-0.00363665,-3.08275e-05
25542,20.0,-34.0,0.00295169,  -660.149E-03,   64.3749E-03,       4.16967,-0.0153095,-0.00452268,-3.1902e-05
25547,19.0,-34.0,0.00308447,  -642.270E-03,   64.3753E-03,       4.35777,-0.018171,-0.00538829,-3.12329e-05
25550,18.0,-34.0,0.00321397,  -625.256E-03,   64.3758E-03,       4.54130,-0.0209593,-0.00623026,-2.89874e-05
25551,17.0,-34.0,0.00333971,  -609.218E-03,   64.3763E-03,       4.71953,-0.0236649,-0.00704564,-2.54503e-05
25556,16.0,-34.0,0.00346117,  -594.248E-03,   64.3769E-03,       4.89178,-0.0262783,-0.00783174,-2.09941e-05
25557,15.0,-34.0,0.00357788,  -580.422E-03,   64.3775E-03,       5.05735,-0.0287907,-0.00858603,-1.604e-05
25562,14.0,-34.0,0.00368938,  -567.801E-03,   64.3780E-03,       5.21560,-0.031193,-0.00930605,-1.10132e-05
25565,13.0,-34.0,0.00379524,  -556.422E-03,   64.3785E-03,       5.36589,-0.0334767,-0.00998939,-6.3003e-06
25566,12.0,-34.0,0.00389503,  -546.308E-03,   64.3790E-03,       5.50764,-0.0356329,-0.0106337,-2.21221e-06
25571,11.0,-34.0,0.00398835,  -537.457E-03,   64.3794E-03,       5.64027,-0.0376531,-0.0112365,1.04088e-06
25572,10.0,-34.0,0.00407485,  -529.853E-03,   64.3797E-03,       5.76325,-0.0395288,-0.0117955,3.36075e-06
25577,9.0,-34.0,0.00415417,  -523.454E-03,   64.3798E-03,       5.87608,-0.0412519,-0.0123084,4.75736e-06
25580,8.0,-34.0,0.00422601,  -518.204E-03,   64.3799E-03,       5.97832,-0.042815,-0.0127732,5.33177e-06
25581,7.0,-34.0,0.00429009,  -514.026E-03,   64.3799E-03,       6.06953,-0.0442109,-0.0131879,5.24914e-06
25586,6.0,-34.0,0.00434614,  -510.826E-03,   64.3798E-03,       6.14936,-0.0454334,-0.0135507,4.70651e-06
25587,5.0,-34.0,0.00439395,  -508.497E-03,   64.3796E-03,       6.21746,-0.046477,-0.0138601,3.90034e-06
25592,4.0,-34.0,0.00443332,  -506.916E-03,   64.3795E-03,       6.27358,-0.0473371,-0.014115,2.99865e-06
25595,3.0,-34.0,0.00446411,  -505.948E-03,   64.3793E-03,       6.31746,-0.0480098,-0.0143142,2.1214e-06
25596,2.0,-34.0,0.00448619,  -505.448E-03,   64.3791E-03,       6.34894,-0.0484924,-0.014457,1.33135e-06
25601,1.0,-34.0,0.00449947,  -505.265E-03,   64.3791E-03,       6.36787,-0.0487828,-0.0145429,6.36077e-07
25602,1.8172899999999998e-29,-34.0,0.00450391,  -505.241E-03,   64.3790E-03,       6.37420,-0.0488797,-0.0145715,5.68434e-14
25607,-1.0,-34.0,0.00449947,  -505.217E-03,   64.3791E-03,       6.36787,-0.0487828,-0.0145429,-6.36077e-07
25610,-2.0,-34.0,0.00448619,  -505.034E-03,   64.3791E-03,       6.34894,-0.0484924,-0.014457,-1.33135e-06
25611,-3.0,-34.0,0.00446411,  -504.534E-03,   64.3793E-03,       6.31746,-0.0480098,-0.0143142,-2.1214e-06
25616,-4.0,-34.0,0.00443332,  -503.566E-03,   64.3795E-03,       6.27358,-0.0473371,-0.014115,-2.99865e-06
25617,-5.0,-34.0,0.00439395,  -501.984E-03,   64.3796E-03,       6.21746,-0.046477,-0.0138601,-3.90034e-06
25622,-6.0,-34.0,0.00434614,  -499.655E-03,   64.3798E-03,       6.14936,-0.0454334,-0.0135507,-4.70651e-06
25625,-7.0,-34.0,0.00429009,  -496.456E-03,   64.3799E-03,       6.06953,-0.0442109,-0.0131879,-5.24914e-06
25626,-8.0,-34.0,0.00422601,  -492.278E-03,   64.3799E-03,       5.97832,-0.042815,-0.0127732,-5.33177e-06
25631,-9.0,-34.0,0.00415417,  -487.028E-03,   64.3798E-03,       5.87608,-0.0412519,-0.0123084,-4.75736e-06
25632,-10.0,-34.0,0.00407485,  -480.629E-03,   64.3797E-03,       5.76325,-0.0395288,-0.0117955,-3.36075e-06
25637,-11.0,-34.0,0.00398835,  -473.024E-03,   64.3794E-03,       5.64027,-0.0376531,-0.0112365,-1.04088e-06
25640,-12.0,-34.0,0.00389503,  -464.174E-03,   64.3790E-03,       5.50764,-0.0356329,-0.0106337,2.21221e-06
25641,-13.0,-34.0,0.00379524,  -454.060E-03,   64.3785E-03,       5.36589,-0.0334767,-0.00998939,6.3003e-06
25646,-14.0,-34.0,0.00368938,  -442.681E-03,   64.3780E-03,       5.21560,-0.031193,-0.00930605,1.10132e-05
25647,-15.0,-34.0,0.00357788,  -430.059E-03,   64.3775E-03,       5.05735,-0.0287907,-0.00858603,1.604e-05
25652,-16.0,-34.0,0.00346117,  -416.234E-03,   64.3769E-03,       4.89178,-0.0262783,-0.00783174,2.09941e-05
25655,-17.0,-34.0,0.00333971,  -401.264E-03,   64.3763E-03,       4.71953,-0.0236649,-0.00704564,2.54503e-05
25656,-18.0,-34.0,0.00321397,  -385.225E-03,   64.3758E-03,       4.54130,-0.0209593,-0.00623026,2.89874e-05
25661,-19.0,-34.0,0.00308447,  -368.212E-03,   64.3753E-03,       4.35777,-0.018171,-0.00538829,3.12329e-05
25662,-20.0,-34.0,0.00295169,  -350.333E-03,   64.3749E-03,       4.16967,-0.0153095,-0.00452268,3.1902e-05
25667,-21.0,-34.0,0.00281618,  -331.710E-03,   64.3746E-03,       3.97774,-0.0123852,-0.00363665,3.08275e-05
25670,-22.0,-34.0,0.00267845,  -312.477E-03,   64.3743E-03,       3.78272,-0.00940875,-0.0027338,2.79762e-05
25671,-23.0,-34.0,0.00253906,  -292.778E-03,   64.3741E-03,       3.58537,-0.00639184,-0.00181814,2.34529e-05
25676,-24.0,-34.0,0.00239855,  -272.765E-03,   64.3739E-03,       3.38647,-0.0033467,-0.000894013,1.74912e-05
25677,-25.0,-34.0,0.00225746,  -252.593E-03,   64.3739E-03,       3.18679,-0.000286158,3.39314e-05,1.04342e-05
25682,-26.0,-34.0,0.00211636,  -232.422E-03,   64.3739E-03,       2.98711,0.00277653,0.000960862,2.70938e-06
25685,-27.0,-34.0,0.0019758,  -212.409E-03,   64.3740E-03,       2.78821,0.00582792,0.00188192,-5.20047e-06
25686,-28.0,-34.0,0.00183633,  -192.712E-03,   64.3742E-03,       2.59087,0.00885458,0.00279238,-1.27888e-05
25691,-29.0,-34.0,0.00169849,  -173.481E-03,   64.3744E-03,       2.39586,0.0118434,0.00368783,-1.9555e-05
25692,-30.0,-34.0,0.00156282,  -154.860E-03,   64.3748E-03,       2.20393,0.0147816,0.00456429,-2.50404e-05
25697,-31.0,-34.0,0.00142985,  -136.983E-03,   64.3752E-03,       2.01585,0.0176572,0.00541834,-2.88555e-05
25700,-32.0,-34.0,0.0013001,  -119.973E-03,   64.3757E-03,       1.83234,0.0204588,0.00624715,-3.07253e-05
25701,-33.0,-34.0,0.00117408,  -103.937E-03,   64.3763E-03,       1.65412,0.0231759,0.00704845,-3.05082e-05
25706,-34.0,-34.0,0.00105228,  -88.9704E-03,   64.3769E-03,       1.48189,0.0257984,0.00782046,-2.82484e-05
25707,-35.0,-34.0,0.0009351730000000001,  -75.1482E-03,   64.3774E-03,       1.31634,0.0283171,0.00856177,-2.41634e-05
25712,-36.0,-34.0,0.000823215,  -62.5293E-03,   64.3780E-03,       1.15811,0.0307234,0.0092711,-1.86856e-05
25715,-37.0,-34.0,0.0007168439999999999,  -51.1537E-03,   64.3786E-03,       1.00783,0.033009,0.00994712,-1.23698e-05
25716,-38.0,-34.0,0.0006164780000000001,  -41.0416E-03,   64.3790E-03,   866.104E-03,0.0351659,0.0105882,-5.90093e-06
25721,-39.0,-34.0,0.0005225130000000001,  -32.1936E-03,   64.3794E-03,   733.491E-03,0.0371866,0.0111922,1.19738e-07
25722,-40.0,-34.0,0.00043531900000000004,  -24.5907E-03,   64.3798E-03,   610.527E-03,0.0390633,0.0117565,5.17885e-06
25727,-41.0,-34.0,0.000355247,  -18.1940E-03,   64.3800E-03,   497.710E-03,0.0407881,0.0122778,9.13623e-06
25730,-42.0,-34.0,0.000282621,  -12.9459E-03,   64.3802E-03,   395.499E-03,0.0423529,0.0127525,1.20971e-05
25731,-43.0,-34.0,0.00021774,  -8.77038E-03,   64.3804E-03,   304.314E-03,0.0437491,0.0131771,1.45677e-05
25736,-44.0,-34.0,0.000160878,  -5.57419E-03,   64.3804E-03,   224.528E-03,0.0449677,0.0135481,1.70105e-05
25737,-45.0,-34.0,0.000112284,  -3.24851E-03,   64.3804E-03,   156.470E-03,0.046,0.013863,1.9707e-05
25742,-46.0,-34.0,7.217729999999999e-05,  -1.67031E-03,   64.3804E-03,   100.419E-03,0.0468379,0.0141199,2.22022e-05
25745,-47.0,-34.0,4.07506e-05,  -704.593E-06,   64.3802E-03,   56.6009E-03,0.0474749,0.0143173,2.3182e-05
25746,-48.0,-34.0,1.81654e-05,  -206.474E-06,   64.3801E-03,   25.1893E-03,0.0479073,0.0144537,2.07087e-05
25751,-49.0,-34.0,4.55075e-06,  -23.8677E-06,   64.3799E-03,   6.30161E-03,0.0481344,0.0145276,1.27485e-05
25752,-50.0,-34.0,0.0,  -14.0088E-42,   64.3799E-03,           -0.,0.0481969,0.014549,7.26389e-06
25757,50.0,-35.0,0.0,      -1.01048,   64.3786E-03,            0.,0.0481769,0.0145468,-9.37085e-06
25760,49.0,-35.0,4.584380000000001e-06,      -1.01046,   64.3786E-03,   6.29938E-03,0.0481206,0.0145275,-1.64395e-05
25761,48.0,-35.0,1.82944e-05,      -1.01028,   64.3788E-03,   25.1819E-03,0.0479044,0.0144561,-2.61557e-05
25766,47.0,-35.0,4.1026e-05,      -1.00978,   64.3790E-03,   56.5879E-03,0.04748,0.0143213,-2.89356e-05
25767,46.0,-35.0,7.264149999999999e-05,      -1.00881,   64.3792E-03,   100.402E-03,0.0468476,0.0141252,-2.77025e-05
25772,45.0,-35.0,0.000112972,      -1.00723,   64.3793E-03,   156.451E-03,0.0460114,0.0138687,-2.51673e-05
25775,44.0,-35.0,0.000161819,      -1.00491,   64.3794E-03,   224.510E-03,0.0449791,0.0135531,-2.27297e-05
25776,43.0,-35.0,0.00021895900000000002,      -1.00171,   64.3794E-03,   304.298E-03,0.0437597,0.0131804,-2.04563e-05
25781,42.0,-35.0,0.00028414099999999996,  -997.536E-03,   64.3794E-03,   395.488E-03,0.042363,0.0127537,-1.77696e-05
25782,41.0,-35.0,0.00035709,  -992.287E-03,   64.3793E-03,   497.702E-03,0.040798,0.012277,-1.37625e-05
25787,40.0,-35.0,0.000437506,  -985.891E-03,   64.3792E-03,   610.522E-03,0.0390734,0.0117545,-7.98587e-06
25790,39.0,-35.0,0.000525064,  -978.287E-03,   64.3789E-03,   733.490E-03,0.0371971,0.01119,-3.40163e-07
25791,38.0,-35.0,0.000619416,  -969.439E-03,   64.3785E-03,   866.106E-03,0.0351766,0.0105869,8.64322e-06
25796,37.0,-35.0,0.000720189,  -959.327E-03,   64.3780E-03,       1.00784,0.0330194,0.00994785,1.81913e-05
25797,36.0,-35.0,0.000826989,  -947.951E-03,   64.3774E-03,       1.15812,0.030733,0.0092747,2.72809e-05
25802,35.0,-35.0,0.0009393989999999999,  -935.331E-03,   64.3767E-03,       1.31635,0.0283253,0.00856873,3.49786e-05
25805,34.0,-35.0,0.00105698,  -921.509E-03,   64.3760E-03,       1.48191,0.0258044,0.00783095,4.04514e-05
25806,33.0,-35.0,0.00117928,  -906.542E-03,   64.3753E-03,       1.65413,0.0231793,0.00706228,4.31459e-05
25811,32.0,-35.0,0.00130581,  -890.506E-03,   64.3746E-03,       1.83235,0.0204593,0.00626385,4.27573e-05
25812,31.0,-35.0,0.00143609,  -873.496E-03,   64.3739E-03,       2.01586,0.0176547,0.00543715,3.9284e-05
25817,30.0,-35.0,0.00156961,  -855.619E-03,   64.3733E-03,       2.20395,0.0147761,0.00458424,3.29724e-05
25818,29.0,-35.0,0.00170584,  -836.998E-03,   64.3729E-03,       2.39587,0.0118351,0.00370782,2.4303e-05
25823,28.0,-35.0,0.00184426,  -817.768E-03,   64.3725E-03,       2.59088,0.00884406,0.00281125,1.39258e-05
25824,27.0,-35.0,0.00198432,  -798.071E-03,   64.3722E-03,       2.78821,0.0058157,0.00189854,2.61172e-06
25829,26.0,-35.0,0.00212549,  -778.059E-03,   64.3721E-03,       2.98711,0.00276328,0.000974231,-8.81617e-06
25832,25.0,-35.0,0.00226719,  -757.888E-03,   64.3721E-03,       3.18678,-0.000299698,4.32453e-05,-1.9545e-05
25833,24.0,-35.0,0.00240889,  -737.717E-03,   64.3721E-03,       3.38645,-0.0033598,-0.000889294,-2.88383e-05
25838,23.0,-35.0,0.00255001,  -717.704E-03,   64.3723E-03,       3.58535,-0.00640382,-0.00181826,-3.60931e-05
25839,22.0,-35.0,0.00269002,  -698.006E-03,   64.3726E-03,       3.78269,-0.00941905,-0.00273868,-4.08879e-05
25844,21.0,-35.0,0.00282835,  -678.774E-03,   64.3729E-03,       3.97771,-0.0123934,-0.00364592,-4.30151e-05
25847,20.0,-35.0,0.00296447,  -660.151E-03,   64.3734E-03,       4.16965,-0.0153155,-0.00453573,-4.2493e-05
25848,19.0,-35.0,0.00309784,  -642.272E-03,   64.3739E-03,       4.35774,-0.0181746,-0.00540433,-3.95571e-05
25853,18.0,-35.0,0.00322793,  -625.259E-03,   64.3745E-03,       4.54127,-0.0209608,-0.00624834,-3.46295e-05
25854,17.0,-35.0,0.00335423,  -609.220E-03,   64.3752E-03,       4.71951,-0.0236644,-0.00706479,-2.82698e-05
25859,16.0,-35.0,0.00347625,  -594.249E-03,   64.3759E-03,       4.89175,-0.0262764,-0.00785102,-2.11131e-05
25862,15.0,-35.0,0.00359349,  -580.423E-03,   64.3766E-03,       5.05733,-0.0287876,-0.00860454,-1.38021e-05
25863,14.0,-35.0,0.00370551,  -567.801E-03,   64.3772E-03,       5.21558,-0.0311892,-0.00932303,-6.9229e-06
25868,13.0,-35.0,0.00381185,  -556.422E-03,   64.3778E-03,       5.36588,-0.0334724,-0.0100042,-9.50692e-07
25869,12.0,-35.0,0.00391209,  -546.307E-03,   64.3783E-03,       5.50763,-0.0356283,-0.0106459,3.78767e-06
25874,11.0,-35.0,0.00400585,  -537.457E-03,   64.3787E-03,       5.64026,-0.0376482,-0.0112457,7.13048e-06
25877,10.0,-35.0,0.00409275,  -529.851E-03,   64.3790E-03,       5.76324,-0.0395236,-0.0118017,9.07732e-06
25878,9.0,-35.0,0.00417244,  -523.453E-03,   64.3792E-03,       5.87608,-0.0412463,-0.0123115,9.7664e-06
25883,8.0,-35.0,0.00424462,  -518.202E-03,   64.3792E-03,       5.97831,-0.0428087,-0.0127734,9.438e-06
25884,7.0,-35.0,0.00430899,  -514.024E-03,   64.3791E-03,       6.06953,-0.0442039,-0.0131853,8.38967e-06
25889,6.0,-35.0,0.00436531,  -510.826E-03,   64.3789E-03,       6.14935,-0.0454254,-0.0135456,6.93011e-06
25892,5.0,-35.0,0.00441334,  -508.497E-03,   64.3787E-03,       6.21746,-0.046468,-0.0138528,5.33741e-06
25893,4.0,-35.0,0.0044529,  -506.916E-03,   64.3785E-03,       6.27357,-0.0473271,-0.0141059,3.82684e-06
25898,3.0,-35.0,0.00448383,  -505.947E-03,   64.3782E-03,       6.31745,-0.0479989,-0.0143036,2.53119e-06
25899,2.0,-35.0,0.00450601,  -505.448E-03,   64.3780E-03,       6.34893,-0.0484808,-0.0144454,1.49519e-06
25904,1.0,-35.0,0.00451936,  -505.265E-03,   64.3779E-03,       6.36786,-0.0487707,-0.0145307,6.83419e-07
25907,1.5591099999999998e-29,-35.0,0.00452381,  -505.241E-03,   64.3779E-03,       6.37418,-0.0488674,-0.0145592,4.9738e-14
25908,-1.0,-35.0,0.00451936,  -505.217E-03,   64.3779E-03,       6.36786,-0.0487707,-0.0145307,-6.83419e-07
25913,-2.0,-35.0,0.00450601,  -505.034E-03,   64.3780E-03,       6.34893,-0.0484808,-0.0144454,-1.49519e-06
25914,-3.0,-35.0,0.00448383,  -504.534E-03,   64.3782E-03,       6.31745,-0.0479989,-0.0143036,-2.53119e-06
25919,-4.0,-35.0,0.0044529,  -503.566E-03,   64.3785E-03,       6.27357,-0.0473271,-0.0141059,-3.82684e-06
25922,-5.0,-35.0,0.00441334,  -501.985E-03,   64.3787E-03,       6.21746,-0.046468,-0.0138528,-5.33741e-06
25923,-6.0,-35.0,0.00436531,  -499.656E-03,   64.3789E-03,       6.14935,-0.0454254,-0.0135456,-6.93011e-06
25928,-7.0,-35.0,0.00430899,  -496.457E-03,   64.3791E-03,       6.06953,-0.0442039,-0.0131853,-8.38967e-06
25929,-8.0,-35.0,0.00424462,  -492.279E-03,   64.3792E-03,       5.97831,-0.0428087,-0.0127734,-9.438e-06
25934,-9.0,-35.0,0.00417244,  -487.029E-03,   64.3792E-03,       5.87608,-0.0412463,-0.0123115,-9.7664e-06
25937,-10.0,-35.0,0.00409275,  -480.630E-03,   64.3790E-03,       5.76324,-0.0395236,-0.0118017,-9.07732e-06
25938,-11.0,-35.0,0.00400585,  -473.025E-03,   64.3787E-03,       5.64026,-0.0376482,-0.0112457,-7.13048e-06
25943,-12.0,-35.0,0.00391209,  -464.175E-03,   64.3783E-03,       5.50763,-0.0356283,-0.0106459,-3.78767e-06
25944,-13.0,-35.0,0.00381185,  -454.060E-03,   64.3778E-03,       5.36588,-0.0334724,-0.0100042,9.50692e-07
25949,-14.0,-35.0,0.00370551,  -442.681E-03,   64.3772E-03,       5.21558,-0.0311892,-0.00932303,6.9229e-06
25952,-15.0,-35.0,0.00359349,  -430.059E-03,   64.3766E-03,       5.05733,-0.0287876,-0.00860454,1.38021e-05
25953,-16.0,-35.0,0.00347625,  -416.233E-03,   64.3759E-03,       4.89175,-0.0262764,-0.00785102,2.11131e-05
25958,-17.0,-35.0,0.00335423,  -401.262E-03,   64.3752E-03,       4.71951,-0.0236644,-0.00706479,2.82698e-05
25959,-18.0,-35.0,0.00322793,  -385.223E-03,   64.3745E-03,       4.54127,-0.0209608,-0.00624834,3.46295e-05
25964,-19.0,-35.0,0.00309784,  -368.210E-03,   64.3739E-03,       4.35774,-0.0181746,-0.00540433,3.95571e-05
25967,-20.0,-35.0,0.00296447,  -350.331E-03,   64.3734E-03,       4.16965,-0.0153155,-0.00453573,4.2493e-05
25968,-21.0,-35.0,0.00282835,  -331.708E-03,   64.3729E-03,       3.97771,-0.0123934,-0.00364592,4.30151e-05
25973,-22.0,-35.0,0.00269002,  -312.475E-03,   64.3726E-03,       3.78269,-0.00941905,-0.00273868,4.08879e-05
25974,-23.0,-35.0,0.00255001,  -292.777E-03,   64.3723E-03,       3.58535,-0.00640382,-0.00181826,3.60931e-05
25979,-24.0,-35.0,0.00240889,  -272.765E-03,   64.3721E-03,       3.38645,-0.0033598,-0.000889294,2.88383e-05
25982,-25.0,-35.0,0.00226719,  -252.594E-03,   64.3721E-03,       3.18678,-0.000299698,4.32453e-05,1.9545e-05
25983,-26.0,-35.0,0.00212549,  -232.423E-03,   64.3721E-03,       2.98711,0.00276328,0.000974231,8.81617e-06
25988,-27.0,-35.0,0.00198432,  -212.411E-03,   64.3722E-03,       2.78821,0.0058157,0.00189854,-2.61172e-06
25989,-28.0,-35.0,0.00184426,  -192.714E-03,   64.3725E-03,       2.59088,0.00884406,0.00281125,-1.39258e-05
25994,-29.0,-35.0,0.00170584,  -173.483E-03,   64.3729E-03,       2.39587,0.0118351,0.00370782,-2.4303e-05
25997,-30.0,-35.0,0.00156961,  -154.863E-03,   64.3733E-03,       2.20395,0.0147761,0.00458424,-3.29724e-05
25998,-31.0,-35.0,0.00143609,  -136.986E-03,   64.3739E-03,       2.01586,0.0176547,0.00543715,-3.9284e-05
26003,-32.0,-35.0,0.00130581,  -119.976E-03,   64.3746E-03,       1.83235,0.0204593,0.00626385,-4.27573e-05
26004,-33.0,-35.0,0.00117928,  -103.940E-03,   64.3753E-03,       1.65413,0.0231793,0.00706228,-4.31459e-05
26009,-34.0,-35.0,0.00105698,  -88.9729E-03,   64.3760E-03,       1.48191,0.0258044,0.00783095,-4.04514e-05
26012,-35.0,-35.0,0.0009393989999999999,  -75.1504E-03,   64.3767E-03,       1.31635,0.0283253,0.00856873,-3.49786e-05
26013,-36.0,-35.0,0.000826989,  -62.5312E-03,   64.3774E-03,       1.15812,0.030733,0.0092747,-2.72809e-05
26018,-37.0,-35.0,0.000720189,  -51.1552E-03,   64.3780E-03,       1.00784,0.0330194,0.00994785,-1.81913e-05
26019,-38.0,-35.0,0.000619416,  -41.0428E-03,   64.3785E-03,   866.106E-03,0.0351766,0.0105869,-8.64322e-06
26024,-39.0,-35.0,0.000525064,  -32.1945E-03,   64.3789E-03,   733.490E-03,0.0371971,0.01119,3.40163e-07
26027,-40.0,-35.0,0.000437506,  -24.5913E-03,   64.3792E-03,   610.522E-03,0.0390734,0.0117545,7.98587e-06
26028,-41.0,-35.0,0.00035709,  -18.1943E-03,   64.3793E-03,   497.702E-03,0.040798,0.012277,1.37625e-05
26033,-42.0,-35.0,0.00028414099999999996,  -12.9460E-03,   64.3794E-03,   395.488E-03,0.042363,0.0127537,1.77696e-05
26034,-43.0,-35.0,0.00021895900000000002,  -8.77014E-03,   64.3794E-03,   304.298E-03,0.0437597,0.0131804,2.04563e-05
26039,-44.0,-35.0,0.000161819,  -5.57385E-03,   64.3794E-03,   224.510E-03,0.0449791,0.0135531,2.27297e-05
26042,-45.0,-35.0,0.000112972,  -3.24810E-03,   64.3793E-03,   156.451E-03,0.0460114,0.0138687,2.51673e-05
26043,-46.0,-35.0,7.264149999999999e-05,  -1.67002E-03,   64.3792E-03,   100.402E-03,0.0468476,0.0141252,2.77025e-05
26048,-47.0,-35.0,4.1026e-05,  -704.422E-06,   64.3790E-03,   56.5879E-03,0.04748,0.0143213,2.89356e-05
26049,-48.0,-35.0,1.82944e-05,  -206.461E-06,   64.3788E-03,   25.1819E-03,0.0479044,0.0144561,2.61557e-05
26054,-49.0,-35.0,4.584380000000001e-06,  -23.8962E-06,   64.3786E-03,   6.29938E-03,0.0481206,0.0145275,1.64395e-05
26057,-50.0,-35.0,0.0,  -14.1601E-42,   64.3786E-03,            0.,0.0481769,0.0145468,9.37085e-06
26058,50.0,-36.0,0.0,      -1.01048,   64.3771E-03,           -0.,0.0481511,0.0145462,-1.24317e-05
26063,49.0,-36.0,4.6192e-06,      -1.01046,   64.3772E-03,   6.29644E-03,0.0481033,0.0145284,-2.11186e-05
26064,48.0,-36.0,1.8427e-05,      -1.01028,   64.3774E-03,   25.1721E-03,0.0479027,0.0144611,-3.29446e-05
26069,47.0,-36.0,4.1307600000000004e-05,      -1.00978,   64.3777E-03,   56.5715E-03,0.0474893,0.0143304,-3.55369e-05
26072,46.0,-36.0,7.31126e-05,      -1.00881,   64.3779E-03,   100.381E-03,0.0468625,0.0141372,-3.38819e-05
26073,45.0,-36.0,0.000113666,      -1.00723,   64.3782E-03,   156.429E-03,0.0460283,0.0138821,-3.13958e-05
26078,44.0,-36.0,0.000162763,      -1.00491,   64.3784E-03,   224.489E-03,0.0449958,0.0135662,-2.9309e-05
26079,43.0,-36.0,0.000220178,      -1.00171,   64.3786E-03,   304.280E-03,0.0437758,0.0131919,-2.72814e-05
26084,42.0,-36.0,0.000285658,  -997.536E-03,   64.3787E-03,   395.473E-03,0.0423788,0.012763,-2.3972e-05
26087,41.0,-36.0,0.000358927,  -992.287E-03,   64.3788E-03,   497.692E-03,0.040814,0.0122843,-1.83812e-05
26088,40.0,-36.0,0.00043968400000000003,  -985.890E-03,   64.3787E-03,   610.516E-03,0.0390898,0.0117605,-9.89586e-06
26093,39.0,-36.0,0.0005276069999999999,  -978.286E-03,   64.3785E-03,   733.488E-03,0.0372137,0.011196,1.13916e-06
26094,38.0,-36.0,0.000622348,  -969.438E-03,   64.3782E-03,   866.109E-03,0.0351928,0.010594,1.39161e-05
26099,37.0,-36.0,0.000723534,  -959.325E-03,   64.3776E-03,       1.00785,0.0330342,0.00995698,2.71153e-05
26102,36.0,-36.0,0.000830773,  -947.948E-03,   64.3770E-03,       1.15813,0.0307455,0.00928641,3.94023e-05
26103,35.0,-36.0,0.000943646,  -935.328E-03,   64.3761E-03,       1.31637,0.0283344,0.00858335,4.94569e-05
26108,34.0,-36.0,0.00106172,  -921.505E-03,   64.3752E-03,       1.48193,0.0258096,0.00784845,5.62592e-05
26109,33.0,-36.0,0.00118452,  -906.537E-03,   64.3743E-03,       1.65416,0.0231801,0.00708243,5.90741e-05
26114,32.0,-36.0,0.00131159,  -890.501E-03,   64.3734E-03,       1.83238,0.0204556,0.00628616,5.757e-05
26117,31.0,-36.0,0.00144243,  -873.490E-03,   64.3726E-03,       2.01589,0.0176466,0.00546097,5.17742e-05
26118,30.0,-36.0,0.00157652,  -855.614E-03,   64.3718E-03,       2.20397,0.0147642,0.00460874,4.20913e-05
26123,29.0,-36.0,0.00171336,  -836.993E-03,   64.3712E-03,       2.39589,0.0118201,0.00373203,2.92372e-05
26124,28.0,-36.0,0.00185239,  -817.763E-03,   64.3707E-03,       2.59090,0.00882688,0.0028341,1.41899e-05
26129,27.0,-36.0,0.00199308,  -798.068E-03,   64.3703E-03,       2.78822,0.00579729,0.00191894,-1.90348e-06
26132,26.0,-36.0,0.00213488,  -778.057E-03,   64.3701E-03,       2.98711,0.00274462,0.000991095,-1.78205e-05
26133,25.0,-36.0,0.00227723,  -757.888E-03,   64.3700E-03,       3.18677,-0.000317715,5.56149e-05,-3.23723e-05
26138,24.0,-36.0,0.00241958,  -737.718E-03,   64.3701E-03,       3.38644,-0.0033764,-0.000882197,-4.45084e-05
26139,23.0,-36.0,0.00256136,  -717.707E-03,   64.3703E-03,       3.58532,-0.00641843,-0.00181696,-5.34092e-05
26144,22.0,-36.0,0.00270202,  -698.010E-03,   64.3707E-03,       3.78266,-0.0094313,-0.00274341,-5.85574e-05
26147,21.0,-36.0,0.00284101,  -678.778E-03,   64.3712E-03,       3.97767,-0.0124032,-0.00365658,-5.97778e-05
26148,20.0,-36.0,0.00297778,  -660.156E-03,   64.3718E-03,       4.16960,-0.0153228,-0.00455191,-5.72427e-05
26153,19.0,-36.0,0.00311178,  -642.277E-03,   64.3725E-03,       4.35770,-0.0181798,-0.00542532,-5.14393e-05
26154,18.0,-36.0,0.0032425,  -625.263E-03,   64.3733E-03,       4.54123,-0.0209641,-0.00627323,-4.31056e-05
26159,17.0,-36.0,0.00336941,  -609.224E-03,   64.3741E-03,       4.71946,-0.0236664,-0.00709247,-3.31409e-05
26162,16.0,-36.0,0.00349202,  -594.252E-03,   64.3749E-03,       4.89171,-0.0262773,-0.0078803,-2.25043e-05
26163,15.0,-36.0,0.00360984,  -580.425E-03,   64.3758E-03,       5.05729,-0.0287878,-0.00863422,-1.21126e-05
26168,14.0,-36.0,0.0037224,  -567.802E-03,   64.3765E-03,       5.21555,-0.0311889,-0.00935195,-2.75091e-06
26169,13.0,-36.0,0.00382926,  -556.422E-03,   64.3772E-03,       5.36586,-0.0334716,-0.0100314,4.99354e-06
26174,12.0,-36.0,0.00393,  -546.306E-03,   64.3778E-03,       5.50762,-0.0356269,-0.0106704,1.0769e-05
26177,11.0,-36.0,0.00402423,  -537.455E-03,   64.3782E-03,       5.64025,-0.037646,-0.011267,1.44653e-05
26178,10.0,-36.0,0.00411156,  -529.850E-03,   64.3785E-03,       5.76324,-0.0395203,-0.0118192,1.61912e-05
26183,9.0,-36.0,0.00419165,  -523.451E-03,   64.3786E-03,       5.87608,-0.0412416,-0.0123251,1.62298e-05
26184,8.0,-36.0,0.00426418,  -518.201E-03,   64.3786E-03,       5.97831,-0.0428024,-0.0127829,1.49784e-05
26189,7.0,-36.0,0.00432888,  -514.023E-03,   64.3784E-03,       6.06953,-0.0441956,-0.013191,1.28838e-05
26192,6.0,-36.0,0.00438547,  -510.824E-03,   64.3781E-03,       6.14935,-0.0454152,-0.0135477,1.0381e-05
26193,5.0,-36.0,0.00443375,  -508.496E-03,   64.3778E-03,       6.21746,-0.0464558,-0.0138518,7.84125e-06
26198,4.0,-36.0,0.00447351,  -506.915E-03,   64.3775E-03,       6.27357,-0.047313,-0.0141022,5.53581e-06
26199,3.0,-36.0,0.0045046,  -505.947E-03,   64.3772E-03,       6.31745,-0.0479833,-0.0142979,3.61707e-06
26204,2.0,-36.0,0.00452689,  -505.447E-03,   64.3769E-03,       6.34892,-0.0484639,-0.0144381,2.11701e-06
26207,1.0,-36.0,0.0045403,  -505.264E-03,   64.3768E-03,       6.36786,-0.0487531,-0.0145225,9.61919e-07
26208,8.52801e-30,-36.0,0.00454478,  -505.241E-03,   64.3767E-03,       6.37418,-0.0488496,-0.0145506,4.9738e-14
26213,-1.0,-36.0,0.0045403,  -505.217E-03,   64.3768E-03,       6.36786,-0.0487531,-0.0145225,-9.61919e-07
26214,-2.0,-36.0,0.00452689,  -505.034E-03,   64.3769E-03,       6.34892,-0.0484639,-0.0144381,-2.11701e-06
26219,-3.0,-36.0,0.0045046,  -504.535E-03,   64.3772E-03,       6.31745,-0.0479833,-0.0142979,-3.61707e-06
26222,-4.0,-36.0,0.00447351,  -503.567E-03,   64.3775E-03,       6.27357,-0.047313,-0.0141022,-5.53581e-06
26223,-5.0,-36.0,0.00443375,  -501.986E-03,   64.3778E-03,       6.21746,-0.0464558,-0.0138518,-7.84125e-06
26228,-6.0,-36.0,0.00438547,  -499.658E-03,   64.3781E-03,       6.14935,-0.0454152,-0.0135477,-1.0381e-05
26229,-7.0,-36.0,0.00432888,  -496.459E-03,   64.3784E-03,       6.06953,-0.0441956,-0.013191,-1.28838e-05
26234,-8.0,-36.0,0.00426418,  -492.281E-03,   64.3786E-03,       5.97831,-0.0428024,-0.0127829,-1.49784e-05
26237,-9.0,-36.0,0.00419165,  -487.031E-03,   64.3786E-03,       5.87608,-0.0412416,-0.0123251,-1.62298e-05
26238,-10.0,-36.0,0.00411156,  -480.632E-03,   64.3785E-03,       5.76324,-0.0395203,-0.0118192,-1.61912e-05
26243,-11.0,-36.0,0.00402423,  -473.026E-03,   64.3782E-03,       5.64025,-0.037646,-0.011267,-1.44653e-05
26244,-12.0,-36.0,0.00393,  -464.175E-03,   64.3778E-03,       5.50762,-0.0356269,-0.0106704,-1.0769e-05
26249,-13.0,-36.0,0.00382926,  -454.060E-03,   64.3772E-03,       5.36586,-0.0334716,-0.0100314,-4.99354e-06
26252,-14.0,-36.0,0.0037224,  -442.680E-03,   64.3765E-03,       5.21555,-0.0311889,-0.00935195,2.75091e-06
26253,-15.0,-36.0,0.00360984,  -430.057E-03,   64.3758E-03,       5.05729,-0.0287878,-0.00863422,1.21126e-05
26258,-16.0,-36.0,0.00349202,  -416.230E-03,   64.3749E-03,       4.89171,-0.0262773,-0.0078803,2.25043e-05
26259,-17.0,-36.0,0.00336941,  -401.258E-03,   64.3741E-03,       4.71946,-0.0236664,-0.00709247,3.31409e-05
26264,-18.0,-36.0,0.0032425,  -385.219E-03,   64.3733E-03,       4.54123,-0.0209641,-0.00627323,4.31056e-05
26267,-19.0,-36.0,0.00311178,  -368.205E-03,   64.3725E-03,       4.35770,-0.0181798,-0.00542532,5.14393e-05
26268,-20.0,-36.0,0.00297778,  -350.326E-03,   64.3718E-03,       4.16960,-0.0153228,-0.00455191,5.72427e-05
26273,-21.0,-36.0,0.00284101,  -331.703E-03,   64.3712E-03,       3.97767,-0.0124032,-0.00365658,5.97778e-05
26274,-22.0,-36.0,0.00270202,  -312.472E-03,   64.3707E-03,       3.78266,-0.0094313,-0.00274341,5.85574e-05
26279,-23.0,-36.0,0.00256136,  -292.775E-03,   64.3703E-03,       3.58532,-0.00641843,-0.00181696,5.34092e-05
26282,-24.0,-36.0,0.00241958,  -272.764E-03,   64.3701E-03,       3.38644,-0.0033764,-0.000882197,4.45084e-05
26283,-25.0,-36.0,0.00227723,  -252.594E-03,   64.3700E-03,       3.18677,-0.000317715,5.56149e-05,3.23723e-05
26288,-26.0,-36.0,0.00213488,  -232.425E-03,   64.3701E-03,       2.98711,0.00274462,0.000991095,1.78205e-05
26289,-27.0,-36.0,0.00199308,  -212.414E-03,   64.3703E-03,       2.78822,0.00579729,0.00191894,1.90348e-06
26294,-28.0,-36.0,0.00185239,  -192.718E-03,   64.3707E-03,       2.59090,0.00882688,0.0028341,-1.41899e-05
26295,-29.0,-36.0,0.00171336,  -173.489E-03,   64.3712E-03,       2.39589,0.0118201,0.00373203,-2.92372e-05
26300,-30.0,-36.0,0.00157652,  -154.868E-03,   64.3718E-03,       2.20397,0.0147642,0.00460874,-4.20913e-05
26301,-31.0,-36.0,0.00144243,  -136.992E-03,   64.3726E-03,       2.01589,0.0176466,0.00546097,-5.17742e-05
26306,-32.0,-36.0,0.00131159,  -119.981E-03,   64.3734E-03,       1.83238,0.0204556,0.00628616,-5.757e-05
26309,-33.0,-36.0,0.00118452,  -103.945E-03,   64.3743E-03,       1.65416,0.0231801,0.00708243,-5.90741e-05
26310,-34.0,-36.0,0.00106172,  -88.9769E-03,   64.3752E-03,       1.48193,0.0258096,0.00784845,-5.62592e-05
26315,-35.0,-36.0,0.000943646,  -75.1536E-03,   64.3761E-03,       1.31637,0.0283344,0.00858335,-4.94569e-05
26316,-36.0,-36.0,0.000830773,  -62.5337E-03,   64.3770E-03,       1.15813,0.0307455,0.00928641,-3.94023e-05
26321,-37.0,-36.0,0.000723534,  -51.1570E-03,   64.3776E-03,       1.00785,0.0330342,0.00995698,-2.71153e-05
26324,-38.0,-36.0,0.000622348,  -41.0440E-03,   64.3782E-03,   866.109E-03,0.0351928,0.010594,-1.39161e-05
26325,-39.0,-36.0,0.0005276069999999999,  -32.1954E-03,   64.3785E-03,   733.488E-03,0.0372137,0.011196,-1.13916e-06
26330,-40.0,-36.0,0.00043968400000000003,  -24.5918E-03,   64.3787E-03,   610.516E-03,0.0390898,0.0117605,9.89586e-06
26331,-41.0,-36.0,0.000358927,  -18.1945E-03,   64.3788E-03,   497.692E-03,0.040814,0.0122843,1.83812e-05
26336,-42.0,-36.0,0.000285658,  -12.9459E-03,   64.3787E-03,   395.473E-03,0.0423788,0.012763,2.3972e-05
26339,-43.0,-36.0,0.000220178,  -8.76985E-03,   64.3786E-03,   304.280E-03,0.0437758,0.0131919,2.72814e-05
26340,-44.0,-36.0,0.000162763,  -5.57336E-03,   64.3784E-03,   224.489E-03,0.0449958,0.0135662,2.9309e-05
26345,-45.0,-36.0,0.000113666,  -3.24764E-03,   64.3782E-03,   156.429E-03,0.0460283,0.0138821,3.13958e-05
26346,-46.0,-36.0,7.31126e-05,  -1.66961E-03,   64.3779E-03,   100.381E-03,0.0468625,0.0141372,3.38819e-05
26351,-47.0,-36.0,4.1307600000000004e-05,  -704.235E-06,   64.3777E-03,   56.5715E-03,0.0474893,0.0143304,3.55369e-05
26354,-48.0,-36.0,1.8427e-05,  -206.419E-06,   64.3774E-03,   25.1721E-03,0.0479027,0.0144611,3.29446e-05
26355,-49.0,-36.0,4.6192e-06,  -23.9443E-06,   64.3772E-03,   6.29644E-03,0.0481033,0.0145284,2.11186e-05
26360,-50.0,-36.0,0.0,  -14.3773E-42,   64.3771E-03,           -0.,0.0481511,0.0145462,1.24317e-05
26361,50.0,-37.0,0.0,      -1.01048,   64.3756E-03,            0.,0.0481155,0.0145437,-1.58384e-05
26366,49.0,-37.0,4.6548e-06,      -1.01046,   64.3757E-03,   6.29247E-03,0.0480814,0.0145311,-2.67647e-05
26369,48.0,-37.0,1.85619e-05,      -1.01028,   64.3760E-03,   25.1599E-03,0.0479035,0.0144726,-4.02335e-05
26370,47.0,-37.0,4.1591199999999996e-05,      -1.00978,   64.3763E-03,   56.5511E-03,0.0475041,0.0143493,-4.22481e-05
26375,46.0,-37.0,7.35839e-05,      -1.00881,   64.3766E-03,   100.356E-03,0.0468839,0.0141615,-4.00442e-05
26376,45.0,-37.0,0.000114355,      -1.00723,   64.3770E-03,   156.404E-03,0.0460512,0.0139091,-3.78171e-05
26381,44.0,-37.0,0.000163697,      -1.00491,   64.3773E-03,   224.466E-03,0.0450184,0.0135932,-3.64525e-05
26384,43.0,-37.0,0.000221378,      -1.00171,   64.3777E-03,   304.261E-03,0.0437978,0.0132171,-3.44539e-05
26385,42.0,-37.0,0.000287147,  -997.536E-03,   64.3781E-03,   395.459E-03,0.0424007,0.0127858,-3.01215e-05
26390,41.0,-37.0,0.000360727,  -992.287E-03,   64.3784E-03,   497.682E-03,0.0408363,0.012305,-2.1992e-05
26391,40.0,-37.0,0.000441821,  -985.889E-03,   64.3785E-03,   610.513E-03,0.0391123,0.0117802,-9.9356e-06
26396,39.0,-37.0,0.000530106,  -978.285E-03,   64.3784E-03,   733.490E-03,0.0372357,0.0112155,5.41667e-06
26399,38.0,-37.0,0.0006252359999999999,  -969.436E-03,   64.3780E-03,   866.117E-03,0.0352131,0.0106143,2.25558e-05
26400,37.0,-37.0,0.00072684,  -959.322E-03,   64.3775E-03,       1.00786,0.0330514,0.00997855,3.97921e-05
26405,36.0,-37.0,0.0008345239999999999,  -947.944E-03,   64.3767E-03,       1.15815,0.0307581,0.00930947,5.53068e-05
26406,35.0,-37.0,0.000947873,  -935.323E-03,   64.3757E-03,       1.31640,0.0283415,0.00860778,6.75626e-05
26411,34.0,-37.0,0.00106645,  -921.498E-03,   64.3746E-03,       1.48197,0.0258104,0.00787412,7.52932e-05
26414,33.0,-37.0,0.00118979,  -906.529E-03,   64.3734E-03,       1.65420,0.0231744,0.00710905,7.76914e-05
26415,32.0,-37.0,0.00131742,  -890.492E-03,   64.3723E-03,       1.83243,0.0204437,0.00631348,7.43763e-05
26420,31.0,-37.0,0.00144884,  -873.481E-03,   64.3712E-03,       2.01594,0.0176293,0.00548865,6.54632e-05
26421,30.0,-37.0,0.00158355,  -855.605E-03,   64.3702E-03,       2.20402,0.0147426,0.00463636,5.15178e-05
26426,29.0,-37.0,0.00172101,  -836.985E-03,   64.3693E-03,       2.39593,0.0117955,0.00375904,3.35354e-05
26429,28.0,-37.0,0.00186069,  -817.756E-03,   64.3686E-03,       2.59093,0.00880073,0.00285981,1.28518e-05
26430,27.0,-37.0,0.00200205,  -798.062E-03,   64.3681E-03,       2.78825,0.005771,0.00194246,-8.96138e-06
26435,26.0,-37.0,0.00214453,  -778.054E-03,   64.3678E-03,       2.98712,0.00271944,0.00101144,-3.02357e-05
26436,25.0,-37.0,0.00228758,  -757.887E-03,   64.3677E-03,       3.18676,-0.000340795,7.16972e-05,-4.93586e-05
26441,24.0,-37.0,0.00243062,  -737.720E-03,   64.3678E-03,       3.38641,-0.00339672,-0.000871436,-6.49233e-05
26444,23.0,-37.0,0.00257311,  -717.711E-03,   64.3681E-03,       3.58529,-0.00643569,-0.00181247,-7.58628e-05
26445,22.0,-37.0,0.00271447,  -698.016E-03,   64.3686E-03,       3.78261,-0.00944554,-0.00274592,-8.15463e-05
26450,21.0,-37.0,0.00285416,  -678.786E-03,   64.3693E-03,       3.97762,-0.0124147,-0.00366653,-8.18306e-05
26451,20.0,-37.0,0.00299162,  -660.164E-03,   64.3701E-03,       4.16954,-0.0153322,-0.00456937,-7.70555e-05
26456,19.0,-37.0,0.00312631,  -642.285E-03,   64.3710E-03,       4.35763,-0.0181877,-0.00544999,-6.79876e-05
26459,18.0,-37.0,0.0032577,  -625.271E-03,   64.3720E-03,       4.54116,-0.0209712,-0.00630441,-5.57173e-05
26460,17.0,-37.0,0.00338527,  -609.231E-03,   64.3731E-03,       4.71940,-0.0236731,-0.00712915,-4.15259e-05
26465,16.0,-37.0,0.00350851,  -594.258E-03,   64.3741E-03,       4.89166,-0.0262841,-0.00792117,-2.6739e-05
26466,15.0,-37.0,0.00362695,  -580.429E-03,   64.3751E-03,       5.05725,-0.0287949,-0.00867782,-1.25864e-05
26471,14.0,-37.0,0.0037401,  -567.804E-03,   64.3760E-03,       5.21552,-0.0311961,-0.00939678,-8.54899e-08
26474,13.0,-37.0,0.00384753,  -556.423E-03,   64.3768E-03,       5.36583,-0.0334785,-0.0100759,1.00386e-05
26475,12.0,-37.0,0.0039488,  -546.306E-03,   64.3774E-03,       5.50760,-0.0356331,-0.0107133,1.73909e-05
26480,11.0,-37.0,0.00404353,  -537.454E-03,   64.3779E-03,       5.64024,-0.0376509,-0.0113071,2.19011e-05
26481,10.0,-37.0,0.00413132,  -529.848E-03,   64.3781E-03,       5.76324,-0.0395233,-0.0118557,2.37808e-05
26486,9.0,-37.0,0.00421184,  -523.449E-03,   64.3781E-03,       5.87608,-0.0412421,-0.0123574,2.34553e-05
26489,8.0,-37.0,0.00428476,  -518.198E-03,   64.3780E-03,       5.97832,-0.0427999,-0.0128106,2.14791e-05
26490,7.0,-37.0,0.0043498,  -514.021E-03,   64.3778E-03,       6.06954,-0.0441899,-0.0132141,1.84503e-05
26495,6.0,-37.0,0.0044067,  -510.822E-03,   64.3774E-03,       6.14936,-0.0454061,-0.0135664,1.49338e-05
26496,5.0,-37.0,0.00445524,  -508.494E-03,   64.3770E-03,       6.21746,-0.0464434,-0.0138665,1.13994e-05
26501,4.0,-37.0,0.00449521,  -506.914E-03,   64.3766E-03,       6.27357,-0.0472977,-0.0141134,8.18168e-06
26504,3.0,-37.0,0.00452647,  -505.946E-03,   64.3762E-03,       6.31745,-0.0479655,-0.0143063,5.46245e-06
26505,2.0,-37.0,0.00454888,  -505.447E-03,   64.3759E-03,       6.34892,-0.0484443,-0.0144445,3.27313e-06
26510,1.0,-37.0,0.00456237,  -505.264E-03,   64.3757E-03,       6.36786,-0.0487323,-0.0145277,1.51615e-06
26511,-2.29059e-29,-37.0,0.00456687,  -505.241E-03,   64.3756E-03,       6.37418,-0.0488284,-0.0145554,2.84217e-14
26516,-1.0,-37.0,0.00456237,  -505.218E-03,   64.3757E-03,       6.36786,-0.0487323,-0.0145277,-1.51615e-06
26519,-2.0,-37.0,0.00454888,  -505.035E-03,   64.3759E-03,       6.34892,-0.0484443,-0.0144445,-3.27313e-06
26520,-3.0,-37.0,0.00452647,  -504.536E-03,   64.3762E-03,       6.31745,-0.0479655,-0.0143063,-5.46245e-06
26525,-4.0,-37.0,0.00449521,  -503.568E-03,   64.3766E-03,       6.27357,-0.0472977,-0.0141134,-8.18168e-06
26526,-5.0,-37.0,0.00445524,  -501.988E-03,   64.3770E-03,       6.21746,-0.0464434,-0.0138665,-1.13994e-05
26531,-6.0,-37.0,0.0044067,  -499.660E-03,   64.3774E-03,       6.14936,-0.0454061,-0.0135664,-1.49338e-05
26534,-7.0,-37.0,0.0043498,  -496.461E-03,   64.3778E-03,       6.06954,-0.0441899,-0.0132141,-1.84503e-05
26535,-8.0,-37.0,0.00428476,  -492.283E-03,   64.3780E-03,       5.97832,-0.0427999,-0.0128106,-2.14791e-05
26540,-9.0,-37.0,0.00421184,  -487.033E-03,   64.3781E-03,       5.87608,-0.0412421,-0.0123574,-2.34553e-05
26541,-10.0,-37.0,0.00413132,  -480.634E-03,   64.3781E-03,       5.76324,-0.0395233,-0.0118557,-2.37808e-05
26546,-11.0,-37.0,0.00404353,  -473.028E-03,   64.3779E-03,       5.64024,-0.0376509,-0.0113071,-2.19011e-05
26549,-12.0,-37.0,0.0039488,  -464.176E-03,   64.3774E-03,       5.50760,-0.0356331,-0.0107133,-1.73909e-05
26550,-13.0,-37.0,0.00384753,  -454.059E-03,   64.3768E-03,       5.36583,-0.0334785,-0.0100759,-1.00386e-05
26555,-14.0,-37.0,0.0037401,  -442.677E-03,   64.3760E-03,       5.21552,-0.0311961,-0.00939678,8.54901e-08
26556,-15.0,-37.0,0.00362695,  -430.053E-03,   64.3751E-03,       5.05725,-0.0287949,-0.00867782,1.25864e-05
26561,-16.0,-37.0,0.00350851,  -416.224E-03,   64.3741E-03,       4.89166,-0.0262841,-0.00792117,2.6739e-05
26564,-17.0,-37.0,0.00338527,  -401.251E-03,   64.3731E-03,       4.71940,-0.0236731,-0.00712915,4.15259e-05
26565,-18.0,-37.0,0.0032577,  -385.211E-03,   64.3720E-03,       4.54116,-0.0209712,-0.00630441,5.57173e-05
26570,-19.0,-37.0,0.00312631,  -368.197E-03,   64.3710E-03,       4.35763,-0.0181877,-0.00544999,6.79876e-05
26571,-20.0,-37.0,0.00299162,  -350.318E-03,   64.3701E-03,       4.16954,-0.0153322,-0.00456937,7.70555e-05
26576,-21.0,-37.0,0.00285416,  -331.696E-03,   64.3693E-03,       3.97762,-0.0124147,-0.00366653,8.18306e-05
26579,-22.0,-37.0,0.00271447,  -312.466E-03,   64.3686E-03,       3.78261,-0.00944554,-0.00274592,8.15463e-05
26580,-23.0,-37.0,0.00257311,  -292.771E-03,   64.3681E-03,       3.58529,-0.00643569,-0.00181247,7.58628e-05
26585,-24.0,-37.0,0.00243062,  -272.762E-03,   64.3678E-03,       3.38641,-0.00339672,-0.000871436,6.49233e-05
26586,-25.0,-37.0,0.00228758,  -252.595E-03,   64.3677E-03,       3.18676,-0.000340795,7.16972e-05,4.93586e-05
26591,-26.0,-37.0,0.00214453,  -232.428E-03,   64.3678E-03,       2.98712,0.00271944,0.00101144,3.02357e-05
26594,-27.0,-37.0,0.00200205,  -212.419E-03,   64.3681E-03,       2.78825,0.005771,0.00194246,8.96138e-06
26595,-28.0,-37.0,0.00186069,  -192.725E-03,   64.3686E-03,       2.59093,0.00880073,0.00285981,-1.28518e-05
26600,-29.0,-37.0,0.00172101,  -173.497E-03,   64.3693E-03,       2.39593,0.0117955,0.00375904,-3.35354e-05
26601,-30.0,-37.0,0.00158355,  -154.877E-03,   64.3702E-03,       2.20402,0.0147426,0.00463636,-5.15178e-05
26606,-31.0,-37.0,0.00144884,  -137.001E-03,   64.3712E-03,       2.01594,0.0176293,0.00548865,-6.54632e-05
26609,-32.0,-37.0,0.00131742,  -119.990E-03,   64.3723E-03,       1.83243,0.0204437,0.00631348,-7.43763e-05
26610,-33.0,-37.0,0.00118979,  -103.953E-03,   64.3734E-03,       1.65420,0.0231744,0.00710905,-7.76914e-05
26615,-34.0,-37.0,0.00106645,  -88.9834E-03,   64.3746E-03,       1.48197,0.0258104,0.00787412,-7.52932e-05
26616,-35.0,-37.0,0.000947873,  -75.1588E-03,   64.3757E-03,       1.31640,0.0283415,0.00860778,-6.75626e-05
26621,-36.0,-37.0,0.0008345239999999999,  -62.5377E-03,   64.3767E-03,       1.15815,0.0307581,0.00930947,-5.53068e-05
26624,-37.0,-37.0,0.00072684,  -51.1599E-03,   64.3775E-03,       1.00786,0.0330514,0.00997855,-3.97921e-05
26625,-38.0,-37.0,0.0006252359999999999,  -41.0460E-03,   64.3780E-03,   866.117E-03,0.0352131,0.0106143,-2.25558e-05
26630,-39.0,-37.0,0.000530106,  -32.1966E-03,   64.3784E-03,   733.490E-03,0.0372357,0.0112155,-5.41667e-06
26631,-40.0,-37.0,0.000441821,  -24.5926E-03,   64.3785E-03,   610.513E-03,0.0391123,0.0117802,9.9356e-06
26636,-41.0,-37.0,0.000360727,  -18.1949E-03,   64.3784E-03,   497.682E-03,0.0408363,0.012305,2.1992e-05
26639,-42.0,-37.0,0.000287147,  -12.9460E-03,   64.3781E-03,   395.459E-03,0.0424007,0.0127858,3.01215e-05
26640,-43.0,-37.0,0.000221378,  -8.76966E-03,   64.3777E-03,   304.261E-03,0.0437978,0.0132171,3.44539e-05
26645,-44.0,-37.0,0.000163697,  -5.57305E-03,   64.3773E-03,   224.466E-03,0.0450184,0.0135932,3.64525e-05
26646,-45.0,-37.0,0.000114355,  -3.24719E-03,   64.3770E-03,   156.404E-03,0.0460512,0.0139091,3.78171e-05
26651,-46.0,-37.0,7.35839e-05,  -1.66929E-03,   64.3766E-03,   100.356E-03,0.0468839,0.0141615,4.00442e-05
26654,-47.0,-37.0,4.1591199999999996e-05,  -704.030E-06,   64.3763E-03,   56.5511E-03,0.0475041,0.0143493,4.22481e-05
26655,-48.0,-37.0,1.85619e-05,  -206.437E-06,   64.3760E-03,   25.1599E-03,0.0479035,0.0144726,4.02335e-05
26660,-49.0,-37.0,4.6548e-06,  -24.0115E-06,   64.3757E-03,   6.29247E-03,0.0480814,0.0145311,2.67647e-05
26661,-50.0,-37.0,0.0,  -14.8299E-42,   64.3756E-03,            0.,0.0481155,0.0145437,1.58384e-05
26666,50.0,-38.0,0.0,      -1.01048,   64.3740E-03,           -0.,0.0480694,0.0145452,-1.98561e-05
26669,49.0,-38.0,4.69081e-06,      -1.01046,   64.3741E-03,   6.28780E-03,0.0480546,0.0145396,-3.20123e-05
26670,48.0,-38.0,1.86965e-05,      -1.01028,   64.3743E-03,   25.1451E-03,0.0479079,0.0144956,-4.66068e-05
26675,47.0,-38.0,4.18717e-05,      -1.00978,   64.3747E-03,   56.5293E-03,0.0475255,0.0143845,-4.72604e-05
26676,46.0,-38.0,7.40448e-05,      -1.00881,   64.3751E-03,   100.331E-03,0.0469113,0.0142052,-4.47448e-05
26681,45.0,-38.0,0.000115024,      -1.00723,   64.3757E-03,   156.381E-03,0.0460792,0.0139567,-4.35972e-05
26684,44.0,-38.0,0.00016459599999999998,      -1.00491,   64.3763E-03,   224.448E-03,0.0450452,0.0136408,-4.3199e-05
26685,43.0,-38.0,0.00022253,      -1.00171,   64.3770E-03,   304.249E-03,0.0438238,0.0132625,-4.12324e-05
26690,42.0,-38.0,0.000288573,  -997.535E-03,   64.3776E-03,   395.453E-03,0.0424266,0.0128283,-3.49799e-05
26691,41.0,-38.0,0.00036245300000000005,  -992.285E-03,   64.3781E-03,   497.682E-03,0.0408624,0.0123453,-2.34485e-05
26696,40.0,-38.0,0.000443873,  -985.887E-03,   64.3784E-03,   610.519E-03,0.0391379,0.011819,-6.81136e-06
26699,39.0,-38.0,0.000532514,  -978.282E-03,   64.3784E-03,   733.503E-03,0.0372593,0.0112538,1.33706e-05
26700,38.0,-38.0,0.000628031,  -969.432E-03,   64.3782E-03,   866.139E-03,0.0352329,0.0106521,3.51132e-05
26705,37.0,-38.0,0.0007300560000000001,  -959.317E-03,   64.3775E-03,       1.00789,0.0330656,0.0100157,5.61378e-05
26706,36.0,-38.0,0.000838195,  -947.937E-03,   64.3766E-03,       1.15820,0.0307652,0.00934555,7.44172e-05
26711,35.0,-38.0,0.000952033,  -935.314E-03,   64.3754E-03,       1.31645,0.0283403,0.00864237,8.81633e-05
26714,34.0,-38.0,0.00107113,  -921.488E-03,   64.3741E-03,       1.48203,0.0258005,0.00790687,9.60616e-05
26715,33.0,-38.0,0.00119503,  -906.517E-03,   64.3726E-03,       1.65427,0.0231561,0.00713995,9.72304e-05
26720,32.0,-38.0,0.00132325,  -890.479E-03,   64.3711E-03,       1.83250,0.0204181,0.00634269,9.13347e-05
26721,31.0,-38.0,0.00145529,  -873.467E-03,   64.3697E-03,       2.01602,0.0175978,0.00551656,7.85698e-05
26726,30.0,-38.0,0.00159064,  -855.591E-03,   64.3684E-03,       2.20409,0.014707,0.00466336,5.96899e-05
26729,29.0,-38.0,0.00172877,  -836.972E-03,   64.3672E-03,       2.39600,0.011758,0.0037854,3.59582e-05
26730,28.0,-38.0,0.00186915,  -817.746E-03,   64.3663E-03,       2.59098,0.00876328,0.00288554,9.06645e-06
26735,27.0,-38.0,0.00201122,  -798.055E-03,   64.3656E-03,       2.78828,0.00573541,0.00196724,-1.89967e-05
26736,26.0,-38.0,0.00215443,  -778.050E-03,   64.3652E-03,       2.98713,0.00268713,0.00103452,-4.61229e-05
26741,25.0,-38.0,0.00229821,  -757.887E-03,   64.3651E-03,       3.18676,-0.00036895,9.20039e-05,-7.02753e-05
26744,24.0,-38.0,0.00244201,  -737.723E-03,   64.3652E-03,       3.38639,-0.00342039,-0.000855281,-8.96896e-05
26745,23.0,-38.0,0.00258525,  -717.718E-03,   64.3656E-03,       3.58524,-0.0064551,-0.00180197,-0.000103041
26750,22.0,-38.0,0.00272737,  -698.025E-03,   64.3663E-03,       3.78254,-0.0094614,-0.00274258,-0.000109575
26751,21.0,-38.0,0.00286781,  -678.797E-03,   64.3672E-03,       3.97754,-0.0124281,-0.00367164,-0.000109164
26756,20.0,-38.0,0.00300601,  -660.177E-03,   64.3682E-03,       4.16945,-0.0153443,-0.00458388,-0.000102301
26759,19.0,-38.0,0.00314144,  -642.298E-03,   64.3694E-03,       4.35754,-0.0181997,-0.00547436,-9.00173e-05
26760,18.0,-38.0,0.00327355,  -625.284E-03,   64.3707E-03,       4.54107,-0.0209842,-0.00633859,-7.37453e-05
26765,17.0,-38.0,0.00340183,  -609.242E-03,   64.3721E-03,       4.71932,-0.0236879,-0.00717253,-5.51427e-05
26766,16.0,-38.0,0.00352576,  -594.267E-03,   64.3734E-03,       4.89158,-0.026301,-0.00797264,-3.59025e-05
26771,15.0,-38.0,0.00364486,  -580.437E-03,   64.3746E-03,       5.05718,-0.0288138,-0.00873589,-1.75756e-05
26772,14.0,-38.0,0.00375865,  -567.810E-03,   64.3756E-03,       5.21546,-0.0312165,-0.00945965,-1.42694e-06
26777,13.0,-38.0,0.00386668,  -556.426E-03,   64.3765E-03,       5.36579,-0.0334997,-0.0101417,1.16591e-05
26778,12.0,-38.0,0.00396854,  -546.307E-03,   64.3772E-03,       5.50757,-0.0356539,-0.0107801,2.12175e-05
26783,11.0,-38.0,0.0040638,  -537.454E-03,   64.3776E-03,       5.64023,-0.0376702,-0.0113733,2.71875e-05
26786,10.0,-38.0,0.00415209,  -529.847E-03,   64.3778E-03,       5.76323,-0.03954,-0.0119197,2.98521e-05
26787,9.0,-38.0,0.00423307,  -523.447E-03,   64.3778E-03,       5.87608,-0.0412553,-0.0124181,2.97477e-05
26792,8.0,-38.0,0.00430642,  -518.196E-03,   64.3776E-03,       5.97833,-0.0428088,-0.0128673,2.75585e-05
26793,7.0,-38.0,0.00437183,  -514.018E-03,   64.3772E-03,       6.06955,-0.0441941,-0.0132663,2.40118e-05
26798,6.0,-38.0,0.00442906,  -510.820E-03,   64.3767E-03,       6.14937,-0.0454056,-0.0136141,1.97866e-05
26801,5.0,-38.0,0.00447787,  -508.492E-03,   64.3762E-03,       6.21747,-0.0464383,-0.0139099,1.54443e-05
26802,4.0,-38.0,0.00451808,  -506.912E-03,   64.3757E-03,       6.27358,-0.0472885,-0.0141531,1.13851e-05
26807,3.0,-38.0,0.00454952,  -505.945E-03,   64.3752E-03,       6.31746,-0.0479529,-0.0143428,7.8303e-06
26808,2.0,-38.0,0.00457206,  -505.446E-03,   64.3749E-03,       6.34893,-0.0484291,-0.0144787,4.8296e-06
26813,1.0,-38.0,0.00458562,  -505.264E-03,   64.3746E-03,       6.36786,-0.0487155,-0.0145604,2.28664e-06
26816,1.35395e-29,-38.0,0.00459015,  -505.241E-03,   64.3746E-03,       6.37418,-0.048811,-0.0145877,-2.84217e-14
26817,-1.0,-38.0,0.00458562,  -505.218E-03,   64.3746E-03,       6.36786,-0.0487155,-0.0145604,-2.28664e-06
26822,-2.0,-38.0,0.00457206,  -505.036E-03,   64.3749E-03,       6.34893,-0.0484291,-0.0144787,-4.8296e-06
26823,-3.0,-38.0,0.00454952,  -504.537E-03,   64.3752E-03,       6.31746,-0.0479529,-0.0143428,-7.8303e-06
26828,-4.0,-38.0,0.00451808,  -503.570E-03,   64.3757E-03,       6.27358,-0.0472885,-0.0141531,-1.13851e-05
26831,-5.0,-38.0,0.00447787,  -501.990E-03,   64.3762E-03,       6.21747,-0.0464383,-0.0139099,-1.54443e-05
26832,-6.0,-38.0,0.00442906,  -499.662E-03,   64.3767E-03,       6.14937,-0.0454056,-0.0136141,-1.97866e-05
26837,-7.0,-38.0,0.00437183,  -496.464E-03,   64.3772E-03,       6.06955,-0.0441941,-0.0132663,-2.40118e-05
26838,-8.0,-38.0,0.00430642,  -492.286E-03,   64.3776E-03,       5.97833,-0.0428088,-0.0128673,-2.75585e-05
26843,-9.0,-38.0,0.00423307,  -487.035E-03,   64.3778E-03,       5.87608,-0.0412553,-0.0124181,-2.97477e-05
26846,-10.0,-38.0,0.00415209,  -480.635E-03,   64.3778E-03,       5.76323,-0.03954,-0.0119197,-2.98521e-05
26847,-11.0,-38.0,0.0040638,  -473.028E-03,   64.3776E-03,       5.64023,-0.0376702,-0.0113733,-2.71875e-05
26852,-12.0,-38.0,0.00396854,  -464.174E-03,   64.3772E-03,       5.50757,-0.0356539,-0.0107801,-2.12175e-05
26853,-13.0,-38.0,0.00386668,  -454.056E-03,   64.3765E-03,       5.36579,-0.0334997,-0.0101417,-1.16591e-05
26858,-14.0,-38.0,0.00375865,  -442.672E-03,   64.3756E-03,       5.21546,-0.0312165,-0.00945965,1.42694e-06
26861,-15.0,-38.0,0.00364486,  -430.045E-03,   64.3746E-03,       5.05718,-0.0288138,-0.00873589,1.75756e-05
26862,-16.0,-38.0,0.00352576,  -416.214E-03,   64.3734E-03,       4.89158,-0.026301,-0.00797264,3.59025e-05
26867,-17.0,-38.0,0.00340183,  -401.240E-03,   64.3721E-03,       4.71932,-0.0236879,-0.00717253,5.51427e-05
26868,-18.0,-38.0,0.00327355,  -385.198E-03,   64.3707E-03,       4.54107,-0.0209842,-0.00633859,7.37453e-05
26873,-19.0,-38.0,0.00314144,  -368.184E-03,   64.3694E-03,       4.35754,-0.0181997,-0.00547436,9.00173e-05
26876,-20.0,-38.0,0.00300601,  -350.305E-03,   64.3682E-03,       4.16945,-0.0153443,-0.00458388,0.000102301
26877,-21.0,-38.0,0.00286781,  -331.684E-03,   64.3672E-03,       3.97754,-0.0124281,-0.00367164,0.000109164
26882,-22.0,-38.0,0.00272737,  -312.456E-03,   64.3663E-03,       3.78254,-0.0094614,-0.00274258,0.000109575
26883,-23.0,-38.0,0.00258525,  -292.764E-03,   64.3656E-03,       3.58524,-0.0064551,-0.00180197,0.000103041
26888,-24.0,-38.0,0.00244201,  -272.759E-03,   64.3652E-03,       3.38639,-0.00342039,-0.000855281,8.96896e-05
26891,-25.0,-38.0,0.00229821,  -252.595E-03,   64.3651E-03,       3.18676,-0.00036895,9.20039e-05,7.02753e-05
26892,-26.0,-38.0,0.00215443,  -232.432E-03,   64.3652E-03,       2.98713,0.00268713,0.00103452,4.61229e-05
26897,-27.0,-38.0,0.00201122,  -212.427E-03,   64.3656E-03,       2.78828,0.00573541,0.00196724,1.89967e-05
26898,-28.0,-38.0,0.00186915,  -192.736E-03,   64.3663E-03,       2.59098,0.00876328,0.00288554,-9.06645e-06
26903,-29.0,-38.0,0.00172877,  -173.510E-03,   64.3672E-03,       2.39600,0.011758,0.0037854,-3.59582e-05
26906,-30.0,-38.0,0.00159064,  -154.891E-03,   64.3684E-03,       2.20409,0.014707,0.00466336,-5.96899e-05
26907,-31.0,-38.0,0.00145529,  -137.015E-03,   64.3697E-03,       2.01602,0.0175978,0.00551656,-7.85698e-05
26912,-32.0,-38.0,0.00132325,  -120.003E-03,   64.3711E-03,       1.83250,0.0204181,0.00634269,-9.13347e-05
26913,-33.0,-38.0,0.00119503,  -103.965E-03,   64.3726E-03,       1.65427,0.0231561,0.00713995,-9.72304e-05
26918,-34.0,-38.0,0.00107113,  -88.9940E-03,   64.3741E-03,       1.48203,0.0258005,0.00790687,-9.60616e-05
26921,-35.0,-38.0,0.000952033,  -75.1675E-03,   64.3754E-03,       1.31645,0.0283403,0.00864237,-8.81633e-05
26922,-36.0,-38.0,0.000838195,  -62.5444E-03,   64.3766E-03,       1.15820,0.0307652,0.00934555,-7.44172e-05
26927,-37.0,-38.0,0.0007300560000000001,  -51.1650E-03,   64.3775E-03,       1.00789,0.0330656,0.0100157,-5.61378e-05
26928,-38.0,-38.0,0.000628031,  -41.0497E-03,   64.3782E-03,   866.139E-03,0.0352329,0.0106521,-3.51132e-05
26933,-39.0,-38.0,0.000532514,  -32.1993E-03,   64.3784E-03,   733.503E-03,0.0372593,0.0112538,-1.33706e-05
26936,-40.0,-38.0,0.000443873,  -24.5944E-03,   64.3784E-03,   610.519E-03,0.0391379,0.011819,6.81136e-06
26937,-41.0,-38.0,0.00036245300000000005,  -18.1963E-03,   64.3781E-03,   497.682E-03,0.0408624,0.0123453,2.34485e-05
26942,-42.0,-38.0,0.000288573,  -12.9469E-03,   64.3776E-03,   395.453E-03,0.0424266,0.0128283,3.49799e-05
26943,-43.0,-38.0,0.00022253,  -8.77027E-03,   64.3770E-03,   304.249E-03,0.0438238,0.0132625,4.12324e-05
26948,-44.0,-38.0,0.00016459599999999998,  -5.57325E-03,   64.3763E-03,   224.448E-03,0.0450452,0.0136408,4.3199e-05
26951,-45.0,-38.0,0.000115024,  -3.24725E-03,   64.3757E-03,   156.381E-03,0.0460792,0.0139567,4.35972e-05
26952,-46.0,-38.0,7.40448e-05,  -1.66918E-03,   64.3751E-03,   100.331E-03,0.0469113,0.0142052,4.47448e-05
26957,-47.0,-38.0,4.18717e-05,  -704.068E-06,   64.3747E-03,   56.5293E-03,0.0475255,0.0143845,4.72604e-05
26958,-48.0,-38.0,1.86965e-05,  -206.544E-06,   64.3743E-03,   25.1451E-03,0.0479079,0.0144956,4.66068e-05
26963,-49.0,-38.0,4.69081e-06,  -24.1745E-06,   64.3741E-03,   6.28780E-03,0.0480546,0.0145396,3.20123e-05
26966,-50.0,-38.0,0.0,  -15.6525E-42,   64.3740E-03,           -0.,0.0480694,0.0145452,1.98561e-05
26967,50.0,-39.0,0.0,      -1.01048,   64.3721E-03,            0.,0.0480118,0.0145516,-2.19526e-05
26972,49.0,-39.0,4.72612e-06,      -1.01046,   64.3722E-03,   6.28232E-03,0.0480239,0.0145586,-3.50529e-05
26973,48.0,-39.0,1.88279e-05,      -1.01027,   64.3725E-03,   25.1309E-03,0.0479171,0.0145372,-4.83772e-05
26978,47.0,-39.0,4.21406e-05,      -1.00978,   64.3729E-03,   56.5095E-03,0.0475516,0.0144442,-4.74338e-05
26981,46.0,-39.0,7.44817e-05,      -1.00881,   64.3735E-03,   100.314E-03,0.0469408,0.0142758,-4.58625e-05
26982,45.0,-39.0,0.00011565,      -1.00723,   64.3743E-03,   156.370E-03,0.0461063,0.0140314,-4.69541e-05
26987,44.0,-39.0,0.000165432,      -1.00491,   64.3753E-03,   224.446E-03,0.0450695,0.0137144,-4.84992e-05
26988,43.0,-39.0,0.00022359599999999998,      -1.00171,   64.3763E-03,   304.256E-03,0.0438467,0.0133325,-4.6083e-05
26993,42.0,-39.0,0.000289894,  -997.532E-03,   64.3773E-03,   395.468E-03,0.0424491,0.0128948,-3.72419e-05
26996,41.0,-39.0,0.000364054,  -992.282E-03,   64.3781E-03,   497.704E-03,0.0408842,0.0124087,-2.12777e-05
26997,40.0,-39.0,0.000445786,  -985.883E-03,   64.3786E-03,   610.548E-03,0.0391577,0.0118803,3.49954e-07
27002,39.0,-39.0,0.000534774,  -978.277E-03,   64.3788E-03,   733.541E-03,0.0372751,0.0113127,2.5349e-05
27003,38.0,-39.0,0.000630674,  -969.425E-03,   64.3785E-03,   866.187E-03,0.0352423,0.0107082,5.09828e-05
27008,37.0,-39.0,0.000733122,  -959.308E-03,   64.3778E-03,       1.00795,0.0330665,0.0100676,7.47671e-05
27011,36.0,-39.0,0.0008417260000000001,  -947.926E-03,   64.3767E-03,       1.15827,0.0307561,0.00939222,9.44904e-05
27012,35.0,-39.0,0.000956068,  -935.300E-03,   64.3753E-03,       1.31654,0.0283207,0.00868292,0.000108436
27017,34.0,-39.0,0.00107571,  -921.471E-03,   64.3736E-03,       1.48213,0.0257705,0.00794115,0.000115296
27018,33.0,-39.0,0.00120019,  -906.498E-03,   64.3718E-03,       1.65438,0.0231169,0.00716839,0.000114282
27023,32.0,-39.0,0.00132903,  -890.459E-03,   64.3699E-03,       1.83262,0.0203714,0.00636642,0.000105121
27026,31.0,-39.0,0.00146172,  -873.446E-03,   64.3681E-03,       2.01613,0.017546,0.00553709,8.81233e-05
27027,30.0,-39.0,0.00159776,  -855.571E-03,   64.3663E-03,       2.20420,0.014653,0.00468241,6.41972e-05
27032,29.0,-39.0,0.00173661,  -836.954E-03,   64.3648E-03,       2.39609,0.0117045,0.00380454,3.48213e-05
27033,28.0,-39.0,0.00187773,  -817.731E-03,   64.3636E-03,       2.59105,0.00871275,0.00290597,1.96937e-06
27038,27.0,-39.0,0.00202056,  -798.044E-03,   64.3627E-03,       2.78833,0.00568994,0.00198952,-3.20471e-05
27041,26.0,-39.0,0.00216455,  -778.044E-03,   64.3621E-03,       2.98715,0.00264804,0.00105848,-6.47642e-05
27042,25.0,-39.0,0.00230913,  -757.886E-03,   64.3619E-03,       3.18675,-0.000401128,0.00011667,-9.38054e-05
27047,24.0,-39.0,0.00245372,  -737.728E-03,   64.3621E-03,       3.38635,-0.00344599,-0.000831565,-0.000117103
27048,23.0,-39.0,0.00259777,  -717.727E-03,   64.3627E-03,       3.58517,-0.00647521,-0.00178141,-0.000133109
27053,22.0,-39.0,0.00274071,  -698.039E-03,   64.3636E-03,       3.78246,-0.00947771,-0.00272767,-0.000140941
27056,21.0,-39.0,0.00288196,  -678.814E-03,   64.3648E-03,       3.97743,-0.0124426,-0.00366489,-0.000140458
27057,20.0,-39.0,0.00302097,  -660.196E-03,   64.3662E-03,       4.16933,-0.0153593,-0.00458756,-0.000132245
27062,19.0,-39.0,0.00315719,  -642.318E-03,   64.3678E-03,       4.35741,-0.0182171,-0.00549024,-0.000117523
27063,18.0,-39.0,0.00329008,  -625.303E-03,   64.3694E-03,       4.54094,-0.0210056,-0.00636775,-9.79831e-05
27068,17.0,-39.0,0.00341912,  -609.260E-03,   64.3711E-03,       4.71919,-0.0237144,-0.00721528,-7.55784e-05
27071,16.0,-39.0,0.0035438,  -594.283E-03,   64.3727E-03,       4.89146,-0.0263329,-0.00802854,-5.23021e-05
27072,15.0,-39.0,0.00366361,  -580.450E-03,   64.3741E-03,       5.05708,-0.0288507,-0.00880377,-2.99801e-05
27077,14.0,-39.0,0.00377809,  -567.820E-03,   64.3754E-03,       5.21537,-0.0312575,-0.00953779,-1.01036e-05
27078,13.0,-39.0,0.00388678,  -556.433E-03,   64.3764E-03,       5.36572,-0.0335434,-0.010228,6.27856e-06
27083,12.0,-39.0,0.00398925,  -546.312E-03,   64.3771E-03,       5.50751,-0.0356987,-0.0108723,1.86025e-05
27086,11.0,-39.0,0.0040851,  -537.456E-03,   64.3775E-03,       5.64019,-0.0377143,-0.0114691,2.67689e-05
27087,10.0,-39.0,0.00417394,  -529.847E-03,   64.3777E-03,       5.76320,-0.0395816,-0.012017,3.10714e-05
27092,9.0,-39.0,0.00425542,  -523.446E-03,   64.3776E-03,       5.87607,-0.041293,-0.0125151,3.2092e-05
27093,8.0,-39.0,0.00432921,  -518.195E-03,   64.3772E-03,       5.97832,-0.0428416,-0.0129627,3.05805e-05
27098,7.0,-39.0,0.00439503,  -514.017E-03,   64.3768E-03,       6.06954,-0.0442212,-0.0133591,2.73373e-05
27101,6.0,-39.0,0.00445261,  -510.818E-03,   64.3762E-03,       6.14937,-0.0454268,-0.0137038,2.31131e-05
27102,5.0,-39.0,0.00450173,  -508.490E-03,   64.3755E-03,       6.21748,-0.0464539,-0.0139963,1.85338e-05
27107,4.0,-39.0,0.00454219,  -506.911E-03,   64.3749E-03,       6.27358,-0.047299,-0.0142363,1.40547e-05
27108,3.0,-39.0,0.00457382,  -505.944E-03,   64.3744E-03,       6.31746,-0.0479591,-0.0144234,9.9438e-06
27113,2.0,-39.0,0.0045965,  -505.445E-03,   64.3739E-03,       6.34893,-0.0484321,-0.0145572,6.2902e-06
27116,1.0,-39.0,0.00461015,  -505.263E-03,   64.3737E-03,       6.36786,-0.0487165,-0.0146376,3.03217e-06
27117,-6.177869999999999e-30,-39.0,0.00461471,  -505.241E-03,   64.3736E-03,       6.37418,-0.0488114,-0.0146644,0.0
27122,-1.0,-39.0,0.00461015,  -505.219E-03,   64.3737E-03,       6.36786,-0.0487165,-0.0146376,-3.03217e-06
27123,-2.0,-39.0,0.0045965,  -505.037E-03,   64.3739E-03,       6.34893,-0.0484321,-0.0145572,-6.2902e-06
27128,-3.0,-39.0,0.00457382,  -504.538E-03,   64.3744E-03,       6.31746,-0.0479591,-0.0144234,-9.9438e-06
27131,-4.0,-39.0,0.00454219,  -503.571E-03,   64.3749E-03,       6.27358,-0.047299,-0.0142363,-1.40547e-05
27132,-5.0,-39.0,0.00450173,  -501.991E-03,   64.3755E-03,       6.21748,-0.0464539,-0.0139963,-1.85338e-05
27137,-6.0,-39.0,0.00445261,  -499.664E-03,   64.3762E-03,       6.14937,-0.0454268,-0.0137038,-2.31131e-05
27138,-7.0,-39.0,0.00439503,  -496.465E-03,   64.3768E-03,       6.06954,-0.0442212,-0.0133591,-2.73373e-05
27143,-8.0,-39.0,0.00432921,  -492.287E-03,   64.3772E-03,       5.97832,-0.0428416,-0.0129627,-3.05805e-05
27146,-9.0,-39.0,0.00425542,  -487.036E-03,   64.3776E-03,       5.87607,-0.041293,-0.0125151,-3.2092e-05
27147,-10.0,-39.0,0.00417394,  -480.634E-03,   64.3777E-03,       5.76320,-0.0395816,-0.012017,-3.10714e-05
27152,-11.0,-39.0,0.0040851,  -473.025E-03,   64.3775E-03,       5.64019,-0.0377143,-0.0114691,-2.67689e-05
27153,-12.0,-39.0,0.00398925,  -464.170E-03,   64.3771E-03,       5.50751,-0.0356987,-0.0108723,-1.86025e-05
27158,-13.0,-39.0,0.00388678,  -454.048E-03,   64.3764E-03,       5.36572,-0.0335434,-0.010228,-6.27856e-06
27161,-14.0,-39.0,0.00377809,  -442.662E-03,   64.3754E-03,       5.21537,-0.0312575,-0.00953779,1.01036e-05
27162,-15.0,-39.0,0.00366361,  -430.032E-03,   64.3741E-03,       5.05708,-0.0288507,-0.00880377,2.99801e-05
27167,-16.0,-39.0,0.0035438,  -416.199E-03,   64.3727E-03,       4.89146,-0.0263329,-0.00802854,5.23021e-05
27168,-17.0,-39.0,0.00341912,  -401.222E-03,   64.3711E-03,       4.71919,-0.0237144,-0.00721528,7.55784e-05
27173,-18.0,-39.0,0.00329008,  -385.179E-03,   64.3694E-03,       4.54094,-0.0210056,-0.00636775,9.79831e-05
27176,-19.0,-39.0,0.00315719,  -368.164E-03,   64.3678E-03,       4.35741,-0.0182171,-0.00549024,0.000117523
27177,-20.0,-39.0,0.00302097,  -350.286E-03,   64.3662E-03,       4.16933,-0.0153593,-0.00458756,0.000132245
27182,-21.0,-39.0,0.00288196,  -331.667E-03,   64.3648E-03,       3.97743,-0.0124426,-0.00366489,0.000140458
27183,-22.0,-39.0,0.00274071,  -312.443E-03,   64.3636E-03,       3.78246,-0.00947771,-0.00272767,0.000140941
27188,-23.0,-39.0,0.00259777,  -292.755E-03,   64.3627E-03,       3.58517,-0.00647521,-0.00178141,0.000133109
27191,-24.0,-39.0,0.00245372,  -272.754E-03,   64.3621E-03,       3.38635,-0.00344599,-0.000831565,0.000117103
27192,-25.0,-39.0,0.00230913,  -252.596E-03,   64.3619E-03,       3.18675,-0.000401128,0.00011667,9.38054e-05
27197,-26.0,-39.0,0.00216455,  -232.438E-03,   64.3621E-03,       2.98715,0.00264804,0.00105848,6.47642e-05
27198,-27.0,-39.0,0.00202056,  -212.438E-03,   64.3627E-03,       2.78833,0.00568994,0.00198952,3.20471e-05
27203,-28.0,-39.0,0.00187773,  -192.751E-03,   64.3636E-03,       2.59105,0.00871275,0.00290597,-1.96937e-06
27206,-29.0,-39.0,0.00173661,  -173.528E-03,   64.3648E-03,       2.39609,0.0117045,0.00380454,-3.48213e-05
27207,-30.0,-39.0,0.00159776,  -154.911E-03,   64.3663E-03,       2.20420,0.014653,0.00468241,-6.41972e-05
27212,-31.0,-39.0,0.00146172,  -137.036E-03,   64.3681E-03,       2.01613,0.017546,0.00553709,-8.81233e-05
27213,-32.0,-39.0,0.00132903,  -120.023E-03,   64.3699E-03,       1.83262,0.0203714,0.00636642,-0.000105121
27218,-33.0,-39.0,0.00120019,  -103.984E-03,   64.3718E-03,       1.65438,0.0231169,0.00716839,-0.000114282
27221,-34.0,-39.0,0.00107571,  -89.0106E-03,   64.3736E-03,       1.48213,0.0257705,0.00794115,-0.000115296
27222,-35.0,-39.0,0.000956068,  -75.1816E-03,   64.3753E-03,       1.31654,0.0283207,0.00868292,-0.000108436
27227,-36.0,-39.0,0.0008417260000000001,  -62.5560E-03,   64.3767E-03,       1.15827,0.0307561,0.00939222,-9.44904e-05
27228,-37.0,-39.0,0.000733122,  -51.1742E-03,   64.3778E-03,       1.00795,0.0330665,0.0100676,-7.47671e-05
27233,-38.0,-39.0,0.000630674,  -41.0569E-03,   64.3785E-03,   866.187E-03,0.0352423,0.0107082,-5.09828e-05
27236,-39.0,-39.0,0.000534774,  -32.2049E-03,   64.3788E-03,   733.541E-03,0.0372751,0.0113127,-2.5349e-05
27237,-40.0,-39.0,0.000445786,  -24.5989E-03,   64.3786E-03,   610.548E-03,0.0391577,0.0118803,-3.49955e-07
27242,-41.0,-39.0,0.000364054,  -18.1999E-03,   64.3781E-03,   497.704E-03,0.0408842,0.0124087,2.12777e-05
27243,-42.0,-39.0,0.000289894,  -12.9499E-03,   64.3773E-03,   395.468E-03,0.0424491,0.0128948,3.72419e-05
27248,-43.0,-39.0,0.00022359599999999998,  -8.77255E-03,   64.3763E-03,   304.256E-03,0.0438467,0.0133325,4.6083e-05
27251,-44.0,-39.0,0.000165432,  -5.57503E-03,   64.3753E-03,   224.446E-03,0.0450695,0.0137144,4.84992e-05
27252,-45.0,-39.0,0.00011565,  -3.24836E-03,   64.3743E-03,   156.370E-03,0.0461063,0.0140314,4.69541e-05
27257,-46.0,-39.0,7.44817e-05,  -1.66998E-03,   64.3735E-03,   100.314E-03,0.0469408,0.0142758,4.58625e-05
27258,-47.0,-39.0,4.21406e-05,  -704.541E-06,   64.3729E-03,   56.5095E-03,0.0475516,0.0144442,4.74338e-05
27263,-48.0,-39.0,1.88279e-05,  -207.005E-06,   64.3725E-03,   25.1309E-03,0.0479171,0.0145372,4.83772e-05
27266,-49.0,-39.0,4.72612e-06,  -24.4640E-06,   64.3722E-03,   6.28232E-03,0.0480239,0.0145586,3.50529e-05
27267,-50.0,-39.0,0.0,  -17.2220E-42,   64.3721E-03,            0.,0.0480118,0.0145516,2.19526e-05
27272,50.0,-40.0,0.0,      -1.01048,   64.3698E-03,           -0.,0.0479483,0.0145717,-2.1379e-05
27273,49.0,-40.0,4.760119999999999e-06,      -1.01046,   64.3699E-03,   6.27828E-03,0.0479931,0.0145957,-3.13656e-05
27278,48.0,-40.0,1.89504e-05,      -1.01027,   64.3703E-03,   25.1206E-03,0.0479303,0.0146058,-4.05239e-05
27281,47.0,-40.0,4.23876e-05,      -1.00978,   64.3708E-03,   56.5033E-03,0.0475761,0.0145346,-3.84289e-05
27282,46.0,-40.0,7.487390000000001e-05,      -1.00881,   64.3717E-03,   100.318E-03,0.0469612,0.0143775,-4.01207e-05
27287,45.0,-40.0,0.000116205,      -1.00723,   64.3729E-03,   156.389E-03,0.0461192,0.0141343,-4.62829e-05
27288,44.0,-40.0,0.00016616599999999998,      -1.00490,   64.3743E-03,   224.480E-03,0.0450769,0.0138129,-5.04318e-05
27293,43.0,-40.0,0.000224529,      -1.00170,   64.3758E-03,   304.302E-03,0.0438514,0.0134253,-4.75632e-05
27296,42.0,-40.0,0.00029105,  -997.525E-03,   64.3772E-03,   395.524E-03,0.0424523,0.0129821,-3.52533e-05
27297,41.0,-40.0,0.000365466,  -992.274E-03,   64.3784E-03,   497.769E-03,0.0408853,0.0124919,-1.45933e-05
27302,40.0,-40.0,0.000447491,  -985.874E-03,   64.3791E-03,   610.621E-03,0.0391547,0.0119593,1.16515e-05
27303,39.0,-40.0,0.000536813,  -978.266E-03,   64.3793E-03,   733.624E-03,0.0372654,0.0113866,4.01296e-05
27308,38.0,-40.0,0.000633093,  -969.412E-03,   64.3790E-03,   866.282E-03,0.0352236,0.0107748,6.77912e-05
27311,37.0,-40.0,0.000735968,  -959.292E-03,   64.3781E-03,       1.00806,0.033037,0.0101249,9.20887e-05
27312,36.0,-40.0,0.000845045,  -947.907E-03,   64.3768E-03,       1.15839,0.0307149,0.00943832,0.000111087
27317,35.0,-40.0,0.0009599089999999999,  -935.278E-03,   64.3751E-03,       1.31668,0.0282679,0.00871701,0.000123292
27318,34.0,-40.0,0.00108012,  -921.447E-03,   64.3731E-03,       1.48228,0.0257075,0.00796343,0.000127671
27323,33.0,-40.0,0.00120521,  -906.471E-03,   64.3709E-03,       1.65454,0.0230457,0.00718043,0.000123605
27326,32.0,-40.0,0.00133471,  -890.430E-03,   64.3685E-03,       1.83278,0.0202949,0.0063707,0.000110956
27327,31.0,-40.0,0.0014681,  -873.418E-03,   64.3662E-03,       2.01629,0.0174677,0.00553687,9.01306e-05
27332,30.0,-40.0,0.00160487,  -855.543E-03,   64.3640E-03,       2.20434,0.0145763,0.00468122,6.21082e-05
27333,29.0,-40.0,0.00174448,  -836.930E-03,   64.3621E-03,       2.39622,0.0116328,0.00380579,2.84615e-05
27338,28.0,-40.0,0.00188639,  -817.710E-03,   64.3605E-03,       2.59115,0.00864879,0.00291246,-8.7432e-06
27341,27.0,-40.0,0.00203004,  -798.029E-03,   64.3593E-03,       2.78840,0.00563563,0.00200311,-4.7059e-05
27342,26.0,-40.0,0.00217487,  -778.036E-03,   64.3585E-03,       2.98719,0.00260427,0.00107984,-8.38838e-05
27347,25.0,-40.0,0.0023203,  -757.885E-03,   64.3583E-03,       3.18674,-0.000434621,0.000145161,-0.000116676
27348,24.0,-40.0,0.00246576,  -737.734E-03,   64.3585E-03,       3.38630,-0.00347056,-0.00079783,-0.000143218
27353,23.0,-40.0,0.00261069,  -717.740E-03,   64.3593E-03,       3.58509,-0.00649315,-0.00174537,-0.000161818
27356,22.0,-40.0,0.0027545,  -698.058E-03,   64.3605E-03,       3.78234,-0.00949199,-0.00269302,-0.000171486
27357,21.0,-40.0,0.00289662,  -678.837E-03,   64.3620E-03,       3.97729,-0.0124566,-0.00363568,-0.000172014
27362,20.0,-40.0,0.0030365,  -660.222E-03,   64.3639E-03,       4.16917,-0.0153762,-0.00456779,-0.00016397
27363,19.0,-40.0,0.00317358,  -642.345E-03,   64.3659E-03,       4.35724,-0.01824,-0.00548348,-0.000148608
27368,18.0,-40.0,0.00330732,  -625.330E-03,   64.3680E-03,       4.54076,-0.0210368,-0.00637683,-0.000127697
27371,17.0,-40.0,0.00343719,  -609.286E-03,   64.3701E-03,       4.71901,-0.0237552,-0.00724208,-0.000103304
27372,16.0,-40.0,0.00356266,  -594.307E-03,   64.3720E-03,       4.89130,-0.0263838,-0.00807387,-7.75612e-05
27377,15.0,-40.0,0.00368325,  -580.471E-03,   64.3738E-03,       5.05692,-0.0289113,-0.00886741,-5.2443e-05
27378,14.0,-40.0,0.00379847,  -567.837E-03,   64.3752E-03,       5.21524,-0.0313265,-0.00961862,-2.95871e-05
27383,13.0,-40.0,0.00390788,  -556.447E-03,   64.3763E-03,       5.36560,-0.0336188,-0.0103242,-1.01772e-05
27386,12.0,-40.0,0.00401102,  -546.323E-03,   64.3771E-03,       5.50741,-0.0357782,-0.0109815,5.10568e-06
27387,11.0,-40.0,0.00410749,  -537.464E-03,   64.3775E-03,       5.64010,-0.0377953,-0.0115887,1.60656e-05
27392,10.0,-40.0,0.00419692,  -529.853E-03,   64.3776E-03,       5.76313,-0.0396619,-0.0121445,2.29209e-05
27393,9.0,-40.0,0.00427894,  -523.450E-03,   64.3774E-03,       5.87601,-0.0413706,-0.0126481,2.61975e-05
27398,8.0,-40.0,0.00435322,  -518.197E-03,   64.3769E-03,       5.97827,-0.0429148,-0.013099,2.66071e-05
27401,7.0,-40.0,0.00441948,  -514.017E-03,   64.3763E-03,       6.06950,-0.0442892,-0.0134971,2.49282e-05
27402,6.0,-40.0,0.00447744,  -510.818E-03,   64.3756E-03,       6.14934,-0.0454889,-0.0138422,2.19056e-05
27407,5.0,-40.0,0.00452689,  -508.490E-03,   64.3748E-03,       6.21745,-0.0465102,-0.0141344,1.81745e-05
27408,4.0,-40.0,0.00456761,  -506.910E-03,   64.3741E-03,       6.27356,-0.0473499,-0.0143735,1.42159e-05
27413,3.0,-40.0,0.00459945,  -505.943E-03,   64.3735E-03,       6.31744,-0.0480055,-0.0145595,1.03391e-05
27416,2.0,-40.0,0.00462229,  -505.445E-03,   64.3730E-03,       6.34891,-0.0484751,-0.0146924,6.68915e-06
27417,1.0,-40.0,0.00463603,  -505.263E-03,   64.3727E-03,       6.36784,-0.0487574,-0.0147722,3.27325e-06
27422,1.7970599999999998e-29,-40.0,0.00464062,  -505.241E-03,   64.3726E-03,       6.37416,-0.0488515,-0.0147988,2.84217e-14
27423,-1.0,-40.0,0.00463603,  -505.219E-03,   64.3727E-03,       6.36784,-0.0487574,-0.0147722,-3.27325e-06
27428,-2.0,-40.0,0.00462229,  -505.037E-03,   64.3730E-03,       6.34891,-0.0484751,-0.0146924,-6.68915e-06
27431,-3.0,-40.0,0.00459945,  -504.538E-03,   64.3735E-03,       6.31744,-0.0480055,-0.0145595,-1.03391e-05
27432,-4.0,-40.0,0.00456761,  -503.572E-03,   64.3741E-03,       6.27356,-0.0473499,-0.0143735,-1.42159e-05
27437,-5.0,-40.0,0.00452689,  -501.991E-03,   64.3748E-03,       6.21745,-0.0465102,-0.0141344,-1.81745e-05
27438,-6.0,-40.0,0.00447744,  -499.663E-03,   64.3756E-03,       6.14934,-0.0454889,-0.0138422,-2.19056e-05
27443,-7.0,-40.0,0.00441948,  -496.464E-03,   64.3763E-03,       6.06950,-0.0442892,-0.0134971,-2.49282e-05
27446,-8.0,-40.0,0.00435322,  -492.285E-03,   64.3769E-03,       5.97827,-0.0429148,-0.013099,-2.66071e-05
27447,-9.0,-40.0,0.00427894,  -487.032E-03,   64.3774E-03,       5.87601,-0.0413706,-0.0126481,-2.61975e-05
27452,-10.0,-40.0,0.00419692,  -480.629E-03,   64.3776E-03,       5.76313,-0.0396619,-0.0121445,-2.29209e-05
27453,-11.0,-40.0,0.00410749,  -473.018E-03,   64.3775E-03,       5.64010,-0.0377953,-0.0115887,-1.60656e-05
27458,-12.0,-40.0,0.00401102,  -464.159E-03,   64.3771E-03,       5.50741,-0.0357782,-0.0109815,-5.10568e-06
27461,-13.0,-40.0,0.00390788,  -454.034E-03,   64.3763E-03,       5.36560,-0.0336188,-0.0103242,1.01772e-05
27462,-14.0,-40.0,0.00379847,  -442.645E-03,   64.3752E-03,       5.21524,-0.0313265,-0.00961862,2.95871e-05
27467,-15.0,-40.0,0.00368325,  -430.011E-03,   64.3738E-03,       5.05692,-0.0289113,-0.00886741,5.2443e-05
27468,-16.0,-40.0,0.00356266,  -416.175E-03,   64.3720E-03,       4.89130,-0.0263838,-0.00807387,7.75612e-05
27473,-17.0,-40.0,0.00343719,  -401.196E-03,   64.3701E-03,       4.71901,-0.0237552,-0.00724208,0.000103304
27476,-18.0,-40.0,0.00330732,  -385.152E-03,   64.3680E-03,       4.54076,-0.0210368,-0.00637683,0.000127697
27477,-19.0,-40.0,0.00317358,  -368.137E-03,   64.3659E-03,       4.35724,-0.01824,-0.00548348,0.000148608
27482,-20.0,-40.0,0.0030365,  -350.260E-03,   64.3639E-03,       4.16917,-0.0153762,-0.00456779,0.00016397
27483,-21.0,-40.0,0.00289662,  -331.645E-03,   64.3620E-03,       3.97729,-0.0124566,-0.00363568,0.000172014
27488,-22.0,-40.0,0.0027545,  -312.424E-03,   64.3605E-03,       3.78234,-0.00949199,-0.00269302,0.000171486
27491,-23.0,-40.0,0.00261069,  -292.742E-03,   64.3593E-03,       3.58509,-0.00649315,-0.00174537,0.000161818
27492,-24.0,-40.0,0.00246576,  -272.748E-03,   64.3585E-03,       3.38630,-0.00347056,-0.00079783,0.000143218
27497,-25.0,-40.0,0.0023203,  -252.597E-03,   64.3583E-03,       3.18674,-0.000434621,0.000145161,0.000116676
27498,-26.0,-40.0,0.00217487,  -232.446E-03,   64.3585E-03,       2.98719,0.00260427,0.00107984,8.38838e-05
27503,-27.0,-40.0,0.00203004,  -212.453E-03,   64.3593E-03,       2.78840,0.00563563,0.00200311,4.7059e-05
27506,-28.0,-40.0,0.00188639,  -192.771E-03,   64.3605E-03,       2.59115,0.00864879,0.00291246,8.7432e-06
27507,-29.0,-40.0,0.00174448,  -173.552E-03,   64.3621E-03,       2.39622,0.0116328,0.00380579,-2.84615e-05
27512,-30.0,-40.0,0.00160487,  -154.939E-03,   64.3640E-03,       2.20434,0.0145763,0.00468122,-6.21082e-05
27513,-31.0,-40.0,0.0014681,  -137.064E-03,   64.3662E-03,       2.01629,0.0174677,0.00553687,-9.01306e-05
27518,-32.0,-40.0,0.00133471,  -120.052E-03,   64.3685E-03,       1.83278,0.0202949,0.0063707,-0.000110956
27521,-33.0,-40.0,0.00120521,  -104.011E-03,   64.3709E-03,       1.65454,0.0230457,0.00718043,-0.000123605
27522,-34.0,-40.0,0.00108012,  -89.0353E-03,   64.3731E-03,       1.48228,0.0257075,0.00796343,-0.000127671
27527,-35.0,-40.0,0.0009599089999999999,  -75.2034E-03,   64.3751E-03,       1.31668,0.0282679,0.00871701,-0.000123292
27528,-36.0,-40.0,0.000845045,  -62.5747E-03,   64.3768E-03,       1.15839,0.0307149,0.00943832,-0.000111087
27533,-37.0,-40.0,0.000735968,  -51.1899E-03,   64.3781E-03,       1.00806,0.033037,0.0101249,-9.20887e-05
27536,-38.0,-40.0,0.000633093,  -41.0700E-03,   64.3790E-03,   866.282E-03,0.0352236,0.0107748,-6.77912e-05
27537,-39.0,-40.0,0.000536813,  -32.2158E-03,   64.3793E-03,   733.624E-03,0.0372654,0.0113866,-4.01296e-05
27542,-40.0,-40.0,0.000447491,  -24.6081E-03,   64.3791E-03,   610.621E-03,0.0391547,0.0119593,-1.16515e-05
27543,-41.0,-40.0,0.000365466,  -18.2078E-03,   64.3784E-03,   497.769E-03,0.0408853,0.0124919,1.45933e-05
27548,-42.0,-40.0,0.00029105,  -12.9566E-03,   64.3772E-03,   395.524E-03,0.0424523,0.0129821,3.52533e-05
27551,-43.0,-40.0,0.000224529,  -8.77832E-03,   64.3758E-03,   304.302E-03,0.0438514,0.0134253,4.75632e-05
27552,-44.0,-40.0,0.00016616599999999998,  -5.57956E-03,   64.3743E-03,   224.480E-03,0.0450769,0.0138129,5.04318e-05
27557,-45.0,-40.0,0.000116205,  -3.25186E-03,   64.3729E-03,   156.389E-03,0.0461192,0.0141343,4.62829e-05
27558,-46.0,-40.0,7.487390000000001e-05,  -1.67229E-03,   64.3717E-03,   100.318E-03,0.0469612,0.0143775,4.01207e-05
27563,-47.0,-40.0,4.23876e-05,  -706.156E-06,   64.3708E-03,   56.5033E-03,0.0475761,0.0145346,3.84289e-05
27566,-48.0,-40.0,1.89504e-05,  -207.977E-06,   64.3703E-03,   25.1206E-03,0.0479303,0.0146058,4.05239e-05
27567,-49.0,-40.0,4.760119999999999e-06,  -25.0521E-06,   64.3699E-03,   6.27828E-03,0.0479931,0.0145957,3.13656e-05
27572,-50.0,-40.0,0.0,  -19.8003E-42,   64.3698E-03,           -0.,0.0479483,0.0145717,2.1379e-05
27573,50.0,-41.0,0.0,      -1.01048,   64.3669E-03,           -0.,0.0478941,0.0146172,-1.17771e-05
27578,49.0,-41.0,4.7901900000000005e-06,      -1.01046,   64.3670E-03,   6.27689E-03,0.0479705,0.0146616,-1.54772e-05
27581,48.0,-41.0,1.90581e-05,      -1.01027,   64.3675E-03,   25.1258E-03,0.0479429,0.0147058,-1.52405e-05
27582,47.0,-41.0,4.25949e-05,      -1.00977,   64.3683E-03,   56.5250E-03,0.0475834,0.0146561,-1.43683e-05
27587,46.0,-41.0,7.519449999999999e-05,      -1.00880,   64.3696E-03,   100.367E-03,0.0469501,0.0145031,-2.49317e-05
27588,45.0,-41.0,0.00011664700000000001,      -1.00722,   64.3713E-03,   156.465E-03,0.0460926,0.014253,-3.92458e-05
27593,44.0,-41.0,0.00016674299999999999,      -1.00489,   64.3733E-03,   224.578E-03,0.0450408,0.0139209,-4.7689e-05
27596,43.0,-41.0,0.00022526099999999998,      -1.00169,   64.3754E-03,   304.417E-03,0.0438108,0.0135226,-4.40474e-05
27597,42.0,-41.0,0.000291968,  -997.512E-03,   64.3773E-03,   395.650E-03,0.0424087,0.0130718,-2.82012e-05
27602,41.0,-41.0,0.000366609,  -992.259E-03,   64.3788E-03,   497.903E-03,0.0408377,0.012575,-3.69936e-06
27603,40.0,-41.0,0.000448904,  -985.857E-03,   64.3796E-03,   610.764E-03,0.0391009,0.0120354,2.50773e-05
27608,39.0,-41.0,0.000538546,  -978.247E-03,   64.3799E-03,   733.776E-03,0.037203,0.011453,5.40467e-05
27611,38.0,-41.0,0.0006352,  -969.390E-03,   64.3795E-03,   866.446E-03,0.0351508,0.0108285,8.02506e-05
27612,37.0,-41.0,0.000738504,  -959.267E-03,   64.3785E-03,       1.00824,0.032953,0.0101627,0.000101663
27617,36.0,-41.0,0.000848068,  -947.879E-03,   64.3770E-03,       1.15858,0.0306201,0.00945832,0.000116914
27618,35.0,-41.0,0.000963474,  -935.247E-03,   64.3749E-03,       1.31688,0.0281637,0.00871877,0.000125108
27623,34.0,-41.0,0.00108428,  -921.412E-03,   64.3725E-03,       1.48249,0.0255963,0.00794842,0.000125641
27626,33.0,-41.0,0.00121002,  -906.434E-03,   64.3698E-03,       1.65475,0.0229309,0.00715166,0.000118193
27627,32.0,-41.0,0.00134021,  -890.393E-03,   64.3669E-03,       1.83299,0.0201805,0.00633272,0.000102794
27632,31.0,-41.0,0.00147435,  -873.381E-03,   64.3641E-03,       2.01649,0.0173578,0.00549507,7.98636e-05
27633,30.0,-41.0,0.0016119,  -855.509E-03,   64.3614E-03,       2.20453,0.0144749,0.00464142,5.03338e-05
27638,29.0,-41.0,0.00175233,  -836.899E-03,   64.3589E-03,       2.39637,0.0115432,0.00377355,1.56109e-05
27641,28.0,-41.0,0.0018951,  -817.685E-03,   64.3569E-03,       2.59128,0.00857359,0.00289254,-2.24098e-05
27642,27.0,-41.0,0.00203963,  -798.011E-03,   64.3553E-03,       2.78848,0.0055761,0.00199894,-6.1504e-05
27647,26.0,-41.0,0.00218536,  -778.026E-03,   64.3544E-03,       2.98723,0.00256034,0.00109318,-9.92474e-05
27648,25.0,-41.0,0.00233171,  -757.884E-03,   64.3541E-03,       3.18674,-0.000464425,0.000175911,-0.000133259
27653,24.0,-41.0,0.00247812,  -737.741E-03,   64.3544E-03,       3.38625,-0.00348899,-0.000751629,-0.000161398
27656,23.0,-41.0,0.00262398,  -717.755E-03,   64.3554E-03,       3.58500,-0.00650401,-0.00168733,-0.000181991
27657,22.0,-41.0,0.00276874,  -698.080E-03,   64.3569E-03,       3.78221,-0.00949978,-0.00262802,-0.00019398
27662,21.0,-41.0,0.00291181,  -678.866E-03,   64.3589E-03,       3.97711,-0.012466,-0.00356945,-0.000197024
27663,20.0,-41.0,0.00305263,  -660.255E-03,   64.3612E-03,       4.16897,-0.015392,-0.00450632,-0.00019151
27668,19.0,-41.0,0.00319064,  -642.381E-03,   64.3638E-03,       4.35702,-0.0182661,-0.00543255,-0.000178484
27671,18.0,-41.0,0.00332529,  -625.366E-03,   64.3664E-03,       4.54053,-0.0210763,-0.00634151,-0.000159508
27672,17.0,-41.0,0.00345605,  -609.321E-03,   64.3689E-03,       4.71878,-0.0238101,-0.00722642,-0.000136468
27677,16.0,-41.0,0.00358239,  -594.340E-03,   64.3712E-03,       4.89107,-0.0264549,-0.00808065,-0.00011136
27678,15.0,-41.0,0.00370382,  -580.501E-03,   64.3733E-03,       5.05670,-0.0289982,-0.00889811,-8.60808e-05
27683,14.0,-41.0,0.00381985,  -567.864E-03,   64.3749E-03,       5.21503,-0.0314277,-0.00967345,-6.22559e-05
27686,13.0,-41.0,0.00393002,  -556.471E-03,   64.3762E-03,       5.36541,-0.033732,-0.0104022,-4.11189e-05
27687,12.0,-41.0,0.00403389,  -546.343E-03,   64.3770E-03,       5.50724,-0.0359006,-0.011081,-2.34557e-05
27692,11.0,-41.0,0.00413105,  -537.480E-03,   64.3774E-03,       5.63994,-0.0379241,-0.0117074,-9.60907e-06
27693,10.0,-41.0,0.0042211,  -529.866E-03,   64.3774E-03,       5.76299,-0.039794,-0.0122796,4.66028e-07
27698,9.0,-41.0,0.0043037,  -523.460E-03,   64.3771E-03,       5.87588,-0.0415035,-0.0127969,7.11289e-06
27701,8.0,-41.0,0.00437852,  -518.205E-03,   64.3765E-03,       5.97815,-0.0430464,-0.013259,1.08676e-05
27702,7.0,-41.0,0.00444525,  -514.024E-03,   64.3758E-03,       6.06939,-0.0444178,-0.0136657,1.23553e-05
27707,6.0,-41.0,0.00450363,  -510.823E-03,   64.3749E-03,       6.14924,-0.0456138,-0.0140174,1.22007e-05
27708,5.0,-41.0,0.00455343,  -508.494E-03,   64.3741E-03,       6.21735,-0.0466308,-0.0143144,1.09614e-05
27713,4.0,-41.0,0.00459445,  -506.913E-03,   64.3732E-03,       6.27347,-0.0474664,-0.0145569,9.08646e-06
27716,3.0,-41.0,0.00462652,  -505.945E-03,   64.3725E-03,       6.31735,-0.0481184,-0.0147453,6.89971e-06
27717,2.0,-41.0,0.00464952,  -505.446E-03,   64.3720E-03,       6.34882,-0.0485852,-0.0148797,4.6029e-06
27722,1.0,-41.0,0.00466336,  -505.264E-03,   64.3717E-03,       6.36775,-0.0488657,-0.0149603,2.29471e-06
27723,2.1294999999999996e-30,-41.0,0.00466797,  -505.241E-03,   64.3716E-03,       6.37407,-0.0489593,-0.0149871,2.84217e-14
27728,-1.0,-41.0,0.00466336,  -505.218E-03,   64.3717E-03,       6.36775,-0.0488657,-0.0149603,-2.29471e-06
27729,-2.0,-41.0,0.00464952,  -505.036E-03,   64.3720E-03,       6.34882,-0.0485852,-0.0148797,-4.6029e-06
27734,-3.0,-41.0,0.00462652,  -504.537E-03,   64.3725E-03,       6.31735,-0.0481184,-0.0147453,-6.89971e-06
27735,-4.0,-41.0,0.00459445,  -503.569E-03,   64.3732E-03,       6.27347,-0.0474664,-0.0145569,-9.08646e-06
27740,-5.0,-41.0,0.00455343,  -501.988E-03,   64.3741E-03,       6.21735,-0.0466308,-0.0143144,-1.09614e-05
27743,-6.0,-41.0,0.00450363,  -499.659E-03,   64.3749E-03,       6.14924,-0.0456138,-0.0140174,-1.22007e-05
27744,-7.0,-41.0,0.00444525,  -496.458E-03,   64.3758E-03,       6.06939,-0.0444178,-0.0136657,-1.23553e-05
27749,-8.0,-41.0,0.00437852,  -492.277E-03,   64.3765E-03,       5.97815,-0.0430464,-0.013259,-1.08676e-05
27750,-9.0,-41.0,0.0043037,  -487.022E-03,   64.3771E-03,       5.87588,-0.0415035,-0.0127969,-7.11289e-06
27755,-10.0,-41.0,0.0042211,  -480.616E-03,   64.3774E-03,       5.76299,-0.039794,-0.0122796,-4.66029e-07
27758,-11.0,-41.0,0.00413105,  -473.001E-03,   64.3774E-03,       5.63994,-0.0379241,-0.0117074,9.60907e-06
27759,-12.0,-41.0,0.00403389,  -464.139E-03,   64.3770E-03,       5.50724,-0.0359006,-0.011081,2.34557e-05
27764,-13.0,-41.0,0.00393002,  -454.011E-03,   64.3762E-03,       5.36541,-0.033732,-0.0104022,4.11189e-05
27765,-14.0,-41.0,0.00381985,  -442.617E-03,   64.3749E-03,       5.21503,-0.0314277,-0.00967345,6.22559e-05
27770,-15.0,-41.0,0.00370382,  -429.981E-03,   64.3733E-03,       5.05670,-0.0289982,-0.00889811,8.60808e-05
27773,-16.0,-41.0,0.00358239,  -416.142E-03,   64.3712E-03,       4.89107,-0.0264549,-0.00808065,0.00011136
27774,-17.0,-41.0,0.00345605,  -401.160E-03,   64.3689E-03,       4.71878,-0.0238101,-0.00722642,0.000136468
27779,-18.0,-41.0,0.00332529,  -385.116E-03,   64.3664E-03,       4.54053,-0.0210763,-0.00634151,0.000159508
27780,-19.0,-41.0,0.00319064,  -368.101E-03,   64.3638E-03,       4.35702,-0.0182661,-0.00543255,0.000178484
27785,-20.0,-41.0,0.00305263,  -350.227E-03,   64.3612E-03,       4.16897,-0.015392,-0.00450632,0.00019151
27788,-21.0,-41.0,0.00291181,  -331.616E-03,   64.3589E-03,       3.97711,-0.012466,-0.00356945,0.000197024
27789,-22.0,-41.0,0.00276874,  -312.401E-03,   64.3569E-03,       3.78221,-0.00949978,-0.00262802,0.00019398
27794,-23.0,-41.0,0.00262398,  -292.726E-03,   64.3554E-03,       3.58500,-0.00650401,-0.00168733,0.000181991
27795,-24.0,-41.0,0.00247812,  -272.741E-03,   64.3544E-03,       3.38625,-0.00348899,-0.000751629,0.000161398
27800,-25.0,-41.0,0.00233171,  -252.598E-03,   64.3541E-03,       3.18674,-0.000464425,0.000175911,0.000133259
27803,-26.0,-41.0,0.00218536,  -232.456E-03,   64.3544E-03,       2.98723,0.00256034,0.00109318,9.92474e-05
27804,-27.0,-41.0,0.00203963,  -212.471E-03,   64.3553E-03,       2.78848,0.0055761,0.00199894,6.1504e-05
27809,-28.0,-41.0,0.0018951,  -192.796E-03,   64.3569E-03,       2.59128,0.00857359,0.00289254,2.24098e-05
27810,-29.0,-41.0,0.00175233,  -173.583E-03,   64.3589E-03,       2.39637,0.0115432,0.00377355,-1.56109e-05
27815,-30.0,-41.0,0.0016119,  -154.973E-03,   64.3614E-03,       2.20453,0.0144749,0.00464142,-5.03338e-05
27818,-31.0,-41.0,0.00147435,  -137.101E-03,   64.3641E-03,       2.01649,0.0173578,0.00549507,-7.98636e-05
27819,-32.0,-41.0,0.00134021,  -120.089E-03,   64.3669E-03,       1.83299,0.0201805,0.00633272,-0.000102794
27824,-33.0,-41.0,0.00121002,  -104.047E-03,   64.3698E-03,       1.65475,0.0229309,0.00715166,-0.000118193
27825,-34.0,-41.0,0.00108428,  -89.0700E-03,   64.3725E-03,       1.48249,0.0255963,0.00794842,-0.000125641
27830,-35.0,-41.0,0.000963474,  -75.2352E-03,   64.3749E-03,       1.31688,0.0281637,0.00871877,-0.000125108
27833,-36.0,-41.0,0.000848068,  -62.6032E-03,   64.3770E-03,       1.15858,0.0306201,0.00945832,-0.000116914
27834,-37.0,-41.0,0.000738504,  -51.2150E-03,   64.3785E-03,       1.00824,0.032953,0.0101627,-0.000101663
27839,-38.0,-41.0,0.0006352,  -41.0919E-03,   64.3795E-03,   866.446E-03,0.0351508,0.0108285,-8.02506e-05
27840,-39.0,-41.0,0.000538546,  -32.2350E-03,   64.3799E-03,   733.776E-03,0.037203,0.011453,-5.40467e-05
27845,-40.0,-41.0,0.000448904,  -24.6249E-03,   64.3796E-03,   610.764E-03,0.0391009,0.0120354,-2.50773e-05
27848,-41.0,-41.0,0.000366609,  -18.2226E-03,   64.3788E-03,   497.903E-03,0.0408377,0.012575,3.69936e-06
27849,-42.0,-41.0,0.000291968,  -12.9697E-03,   64.3773E-03,   395.650E-03,0.0424087,0.0130718,2.82012e-05
27854,-43.0,-41.0,0.00022526099999999998,  -8.78957E-03,   64.3754E-03,   304.417E-03,0.0438108,0.0135226,4.40474e-05
27855,-44.0,-41.0,0.00016674299999999999,  -5.58902E-03,   64.3733E-03,   224.578E-03,0.0450408,0.0139209,4.7689e-05
27860,-45.0,-41.0,0.00011664700000000001,  -3.25908E-03,   64.3713E-03,   156.465E-03,0.0460926,0.014253,3.92458e-05
27863,-46.0,-41.0,7.519449999999999e-05,  -1.67757E-03,   64.3696E-03,   100.367E-03,0.0469501,0.0145031,2.49317e-05
27864,-47.0,-41.0,4.25949e-05,  -709.447E-06,   64.3683E-03,   56.5250E-03,0.0475834,0.0146561,1.43683e-05
27869,-48.0,-41.0,1.90581e-05,  -210.020E-06,   64.3675E-03,   25.1258E-03,0.0479429,0.0147058,1.52405e-05
27870,-49.0,-41.0,4.7901900000000005e-06,  -25.9974E-06,   64.3670E-03,   6.27689E-03,0.0479705,0.0146616,1.54772e-05
27875,-50.0,-41.0,0.0,  -23.9048E-42,   64.3669E-03,           -0.,0.0478941,0.0146172,1.17771e-05
27878,50.0,-42.0,0.0,      -1.01048,   64.3630E-03,           -0.,0.0478752,0.0146976,8.69075e-06
27879,49.0,-42.0,4.815019999999999e-06,      -1.01045,   64.3632E-03,   6.28471E-03,0.0479703,0.014762,2.00942e-05
27884,48.0,-42.0,1.91383e-05,      -1.01027,   64.3639E-03,   25.1578E-03,0.0479442,0.014836,3.48223e-05
27885,47.0,-42.0,4.27408e-05,      -1.00977,   64.3651E-03,   56.6023E-03,0.0475443,0.0147897,2.76526e-05
27890,46.0,-42.0,7.540220000000001e-05,      -1.00879,   64.3671E-03,   100.491E-03,0.0468712,0.0146222,1.50447e-06
27893,45.0,-42.0,0.00011692,      -1.00721,   64.3696E-03,   156.631E-03,0.0459864,0.0143488,-2.6026e-05
27894,44.0,-42.0,0.00016709,      -1.00488,   64.3725E-03,   224.774E-03,0.0449212,0.0139932,-3.9557e-05
27899,43.0,-42.0,0.00022570900000000002,      -1.00167,   64.3751E-03,   304.632E-03,0.0436846,0.013579,-3.50595e-05
27900,42.0,-42.0,0.000292554,  -997.490E-03,   64.3774E-03,   395.876E-03,0.0422777,0.0131166,-1.69308e-05
27905,41.0,-42.0,0.000367381,  -992.235E-03,   64.3791E-03,   498.137E-03,0.0407014,0.0126107,8.73135e-06
27908,40.0,-42.0,0.00044991800000000005,  -985.830E-03,   64.3801E-03,   611.002E-03,0.0389574,0.01206,3.57104e-05
27909,39.0,-42.0,0.000539865,  -978.217E-03,   64.3803E-03,   734.021E-03,0.0370515,0.0114632,6.02383e-05
27914,38.0,-42.0,0.000636889,  -969.356E-03,   64.3798E-03,   866.697E-03,0.0349908,0.01082,8.01151e-05
27915,37.0,-42.0,0.0007406310000000001,  -959.230E-03,   64.3786E-03,       1.00850,0.0327856,0.0101327,9.43373e-05
27920,36.0,-42.0,0.000850697,  -947.839E-03,   64.3768E-03,       1.15885,0.0304472,0.00940542,0.00010257
27923,35.0,-42.0,0.000966672,  -935.204E-03,   64.3744E-03,       1.31715,0.0279885,0.00864401,0.000104728
27924,34.0,-42.0,0.00108811,  -921.367E-03,   64.3715E-03,       1.48276,0.0254226,0.00785493,0.000100804
27929,33.0,-42.0,0.00121454,  -906.388E-03,   64.3684E-03,       1.65502,0.0227631,0.0070447,9.08713e-05
27930,32.0,-42.0,0.00134548,  -890.347E-03,   64.3650E-03,       1.83324,0.0200231,0.00621905,7.50519e-05
27935,31.0,-42.0,0.00148041,  -873.337E-03,   64.3616E-03,       2.01672,0.0172151,0.00538252,5.37127e-05
27938,30.0,-42.0,0.0016188,  -855.468E-03,   64.3583E-03,       2.20474,0.0143506,0.00453812,2.74411e-05
27939,29.0,-42.0,0.00176012,  -836.864E-03,   64.3553E-03,       2.39655,0.0114402,0.00368727,-2.79555e-06
27944,28.0,-42.0,0.0019038,  -817.657E-03,   64.3528E-03,       2.59142,0.00849333,0.00282996,-3.5736e-05
27945,27.0,-42.0,0.00204929,  -797.991E-03,   64.3509E-03,       2.78858,0.00551856,0.0019651,-6.97951e-05
27950,26.0,-42.0,0.002196,  -778.015E-03,   64.3497E-03,       2.98727,0.00252394,0.00109101,-0.000103224
27953,25.0,-42.0,0.00234335,  -757.882E-03,   64.3493E-03,       3.18673,-0.000482763,0.000206005,-0.000134197
27954,24.0,-42.0,0.00249076,  -737.750E-03,   64.3497E-03,       3.38620,-0.00349367,-0.000691058,-0.000161009
27959,23.0,-42.0,0.00263766,  -717.773E-03,   64.3509E-03,       3.58489,-0.00650042,-0.00160027,-0.000182206
27960,22.0,-42.0,0.00278344,  -698.106E-03,   64.3528E-03,       3.78206,-0.00949389,-0.00252029,-0.000196742
27965,21.0,-42.0,0.00292754,  -678.898E-03,   64.3553E-03,       3.97693,-0.012464,-0.00344819,-0.000204069
27968,20.0,-42.0,0.00306938,  -660.293E-03,   64.3581E-03,       4.16875,-0.0153995,-0.00437942,-0.000204188
27969,19.0,-42.0,0.00320839,  -642.422E-03,   64.3612E-03,       4.35677,-0.0182883,-0.00530797,-0.000197623
27974,18.0,-42.0,0.00334403,  -625.410E-03,   64.3644E-03,       4.54026,-0.0211171,-0.0062268,-0.000185352
27975,17.0,-42.0,0.00347576,  -609.366E-03,   64.3674E-03,       4.71850,-0.0238722,-0.00712816,-0.000168677
27980,16.0,-42.0,0.00360304,  -594.384E-03,   64.3701E-03,       4.89078,-0.0265397,-0.0080042,-0.000149074
27983,15.0,-42.0,0.00372538,  -580.543E-03,   64.3725E-03,       5.05642,-0.0291055,-0.00884734,-0.000128032
27984,14.0,-42.0,0.00384228,  -567.903E-03,   64.3744E-03,       5.21474,-0.0315565,-0.00965072,-0.000106914
27989,13.0,-42.0,0.00395328,  -556.507E-03,   64.3758E-03,       5.36513,-0.0338801,-0.0104085,-8.68446e-05
27990,12.0,-42.0,0.00405793,  -546.375E-03,   64.3766E-03,       5.50697,-0.0360652,-0.011116,-6.8649e-05
27995,11.0,-42.0,0.00415583,  -537.509E-03,   64.3770E-03,       5.63968,-0.038102,-0.0117698,-5.2835e-05
27998,10.0,-42.0,0.00424658,  -529.891E-03,   64.3769E-03,       5.76274,-0.0399822,-0.0123676,-3.96151e-05
27999,9.0,-42.0,0.00432981,  -523.481E-03,   64.3764E-03,       5.87564,-0.0416989,-0.0129078,-2.8958e-05
28004,8.0,-42.0,0.0044052,  -518.223E-03,   64.3757E-03,       5.97792,-0.0432466,-0.01339,-2.06552e-05
28005,7.0,-42.0,0.00447244,  -514.039E-03,   64.3749E-03,       6.06917,-0.0446206,-0.0138141,-1.43901e-05
28010,6.0,-42.0,0.00453127,  -510.836E-03,   64.3739E-03,       6.14902,-0.0458176,-0.0141804,-9.79983e-06
28013,5.0,-42.0,0.00458145,  -508.504E-03,   64.3729E-03,       6.21714,-0.0468346,-0.0144893,-6.52278e-06
28014,4.0,-42.0,0.00462279,  -506.921E-03,   64.3720E-03,       6.27326,-0.0476695,-0.0147412,-4.22969e-06
28019,3.0,-42.0,0.00465511,  -505.951E-03,   64.3712E-03,       6.31715,-0.0483206,-0.0149367,-2.63955e-06
28020,2.0,-42.0,0.00467829,  -505.450E-03,   64.3707E-03,       6.34862,-0.0487866,-0.0150761,-1.52249e-06
28025,1.0,-42.0,0.00469223,  -505.266E-03,   64.3703E-03,       6.36756,-0.0490666,-0.0151596,-6.93482e-07
28028,1.87641e-29,-42.0,0.00469688,  -505.241E-03,   64.3702E-03,       6.37388,-0.0491599,-0.0151874,0.0
28029,-1.0,-42.0,0.00469223,  -505.216E-03,   64.3703E-03,       6.36756,-0.0490666,-0.0151596,6.93482e-07
28034,-2.0,-42.0,0.00467829,  -505.032E-03,   64.3707E-03,       6.34862,-0.0487866,-0.0150761,1.52249e-06
28035,-3.0,-42.0,0.00465511,  -504.531E-03,   64.3712E-03,       6.31715,-0.0483206,-0.0149367,2.63955e-06
28040,-4.0,-42.0,0.00462279,  -503.561E-03,   64.3720E-03,       6.27326,-0.0476695,-0.0147412,4.22969e-06
28043,-5.0,-42.0,0.00458145,  -501.978E-03,   64.3729E-03,       6.21714,-0.0468346,-0.0144893,6.52278e-06
28044,-6.0,-42.0,0.00453127,  -499.646E-03,   64.3739E-03,       6.14902,-0.0458176,-0.0141804,9.79983e-06
28049,-7.0,-42.0,0.00447244,  -496.443E-03,   64.3749E-03,       6.06917,-0.0446206,-0.0138141,1.43901e-05
28050,-8.0,-42.0,0.0044052,  -492.259E-03,   64.3757E-03,       5.97792,-0.0432466,-0.01339,2.06552e-05
28055,-9.0,-42.0,0.00432981,  -487.000E-03,   64.3764E-03,       5.87564,-0.0416989,-0.0129078,2.8958e-05
28058,-10.0,-42.0,0.00424658,  -480.591E-03,   64.3769E-03,       5.76274,-0.0399822,-0.0123676,3.96151e-05
28059,-11.0,-42.0,0.00415583,  -472.973E-03,   64.3770E-03,       5.63968,-0.038102,-0.0117698,5.2835e-05
28064,-12.0,-42.0,0.00405793,  -464.107E-03,   64.3766E-03,       5.50697,-0.0360652,-0.011116,6.8649e-05
28065,-13.0,-42.0,0.00395328,  -453.975E-03,   64.3758E-03,       5.36513,-0.0338801,-0.0104085,8.68446e-05
28070,-14.0,-42.0,0.00384228,  -442.578E-03,   64.3744E-03,       5.21474,-0.0315565,-0.00965072,0.000106914
28073,-15.0,-42.0,0.00372538,  -429.939E-03,   64.3725E-03,       5.05642,-0.0291055,-0.00884734,0.000128032
28074,-16.0,-42.0,0.00360304,  -416.098E-03,   64.3701E-03,       4.89078,-0.0265397,-0.0080042,0.000149074
28079,-17.0,-42.0,0.00347576,  -401.116E-03,   64.3674E-03,       4.71850,-0.0238722,-0.00712816,0.000168677
28080,-18.0,-42.0,0.00334403,  -385.072E-03,   64.3644E-03,       4.54026,-0.0211171,-0.0062268,0.000185352
28085,-19.0,-42.0,0.00320839,  -368.059E-03,   64.3612E-03,       4.35677,-0.0182883,-0.00530797,0.000197623
28088,-20.0,-42.0,0.00306938,  -350.189E-03,   64.3581E-03,       4.16875,-0.0153995,-0.00437942,0.000204188
28089,-21.0,-42.0,0.00292754,  -331.583E-03,   64.3553E-03,       3.97693,-0.012464,-0.00344819,0.000204069
28094,-22.0,-42.0,0.00278344,  -312.376E-03,   64.3528E-03,       3.78206,-0.00949389,-0.00252029,0.000196742
28095,-23.0,-42.0,0.00263766,  -292.709E-03,   64.3509E-03,       3.58489,-0.00650042,-0.00160027,0.000182206
28100,-24.0,-42.0,0.00249076,  -272.732E-03,   64.3497E-03,       3.38620,-0.00349367,-0.000691058,0.000161009
28103,-25.0,-42.0,0.00234335,  -252.600E-03,   64.3493E-03,       3.18673,-0.000482763,0.000206005,0.000134197
28104,-26.0,-42.0,0.002196,  -232.467E-03,   64.3497E-03,       2.98727,0.00252394,0.00109101,0.000103224
28109,-27.0,-42.0,0.00204929,  -212.491E-03,   64.3509E-03,       2.78858,0.00551856,0.0019651,6.97951e-05
28110,-28.0,-42.0,0.0019038,  -192.825E-03,   64.3528E-03,       2.59142,0.00849333,0.00282996,3.5736e-05
28115,-29.0,-42.0,0.00176012,  -173.618E-03,   64.3553E-03,       2.39655,0.0114402,0.00368727,2.79555e-06
28118,-30.0,-42.0,0.0016188,  -155.013E-03,   64.3583E-03,       2.20474,0.0143506,0.00453812,-2.74411e-05
28119,-31.0,-42.0,0.00148041,  -137.145E-03,   64.3616E-03,       2.01672,0.0172151,0.00538252,-5.37127e-05
28124,-32.0,-42.0,0.00134548,  -120.135E-03,   64.3650E-03,       1.83324,0.0200231,0.00621905,-7.50519e-05
28125,-33.0,-42.0,0.00121454,  -104.093E-03,   64.3684E-03,       1.65502,0.0227631,0.0070447,-9.08713e-05
28130,-34.0,-42.0,0.00108811,  -89.1149E-03,   64.3715E-03,       1.48276,0.0254226,0.00785493,-0.000100804
28133,-35.0,-42.0,0.000966672,  -75.2780E-03,   64.3744E-03,       1.31715,0.0279885,0.00864401,-0.000104728
28134,-36.0,-42.0,0.000850697,  -62.6432E-03,   64.3768E-03,       1.15885,0.0304472,0.00940542,-0.00010257
28139,-37.0,-42.0,0.0007406310000000001,  -51.2517E-03,   64.3786E-03,       1.00850,0.0327856,0.0101327,-9.43373e-05
28140,-38.0,-42.0,0.000636889,  -41.1253E-03,   64.3798E-03,   866.697E-03,0.0349908,0.01082,-8.01151e-05
28145,-39.0,-42.0,0.000539865,  -32.2652E-03,   64.3803E-03,   734.021E-03,0.0370515,0.0114632,-6.02383e-05
28148,-40.0,-42.0,0.00044991800000000005,  -24.6522E-03,   64.3801E-03,   611.002E-03,0.0389574,0.01206,-3.57104e-05
28149,-41.0,-42.0,0.000367381,  -18.2472E-03,   64.3791E-03,   498.137E-03,0.0407014,0.0126107,-8.73135e-06
28154,-42.0,-42.0,0.000292554,  -12.9916E-03,   64.3774E-03,   395.876E-03,0.0422777,0.0131166,1.69308e-05
28155,-43.0,-42.0,0.00022570900000000002,  -8.80892E-03,   64.3751E-03,   304.632E-03,0.0436846,0.013579,3.50595e-05
28160,-44.0,-42.0,0.00016709,  -5.60528E-03,   64.3725E-03,   224.774E-03,0.0449212,0.0139932,3.95569e-05
28163,-45.0,-42.0,0.00011692,  -3.27216E-03,   64.3696E-03,   156.631E-03,0.0459864,0.0143488,2.6026e-05
28164,-46.0,-42.0,7.540220000000001e-05,  -1.68690E-03,   64.3671E-03,   100.491E-03,0.0468712,0.0146222,-1.50447e-06
28169,-47.0,-42.0,4.27408e-05,  -715.637E-06,   64.3651E-03,   56.6023E-03,0.0475443,0.0147897,-2.76526e-05
28170,-48.0,-42.0,1.91383e-05,  -213.372E-06,   64.3639E-03,   25.1578E-03,0.0479442,0.014836,-3.48223e-05
28175,-49.0,-42.0,4.815019999999999e-06,  -27.5574E-06,   64.3632E-03,   6.28471E-03,0.0479703,0.014762,-2.00942e-05
28178,-50.0,-42.0,0.0,  -29.5268E-42,   64.3630E-03,           -0.,0.0478752,0.0146976,-8.69075e-06
28179,50.0,-43.0,0.0,      -1.01048,   64.3579E-03,           -0.,0.0479445,0.0148382,4.93719e-05
28184,49.0,-43.0,4.82863e-06,      -1.01045,   64.3582E-03,   6.30526E-03,0.0480136,0.0149051,8.18018e-05
28185,48.0,-43.0,1.91778e-05,      -1.01026,   64.3592E-03,   25.2399E-03,0.0479099,0.0149671,0.000113013
28190,47.0,-43.0,4.2788100000000005e-05,      -1.00976,   64.3613E-03,   56.7612E-03,0.0474155,0.0148856,8.74137e-05
28193,46.0,-43.0,7.54419e-05,      -1.00878,   64.3642E-03,   100.726E-03,0.0466711,0.0146637,3.40456e-05
28194,45.0,-43.0,0.000116944,      -1.00719,   64.3678E-03,   156.921E-03,0.0457491,0.0143358,-9.64218e-06
28199,44.0,-43.0,0.000167112,      -1.00485,   64.3714E-03,   225.099E-03,0.0446668,0.0139426,-2.74485e-05
28200,43.0,-43.0,0.000225761,      -1.00164,   64.3747E-03,   304.974E-03,0.0434219,0.0135034,-2.30351e-05
28205,42.0,-43.0,0.000292686,  -997.458E-03,   64.3773E-03,   396.225E-03,0.0420106,0.013027,-4.90859e-06
28208,41.0,-43.0,0.000367655,  -992.199E-03,   64.3791E-03,   498.486E-03,0.040429,0.0125091,1.62828e-05
28209,40.0,-43.0,0.00045040699999999994,  -985.790E-03,   64.3801E-03,   611.351E-03,0.0386812,0.0119445,3.5097e-05
28214,39.0,-43.0,0.000540643,  -978.174E-03,   64.3802E-03,   734.366E-03,0.0367721,0.01133,4.87827e-05
28215,38.0,-43.0,0.0006380369999999999,  -969.311E-03,   64.3795E-03,   867.039E-03,0.034711,0.0106659,5.67383e-05
28220,37.0,-43.0,0.000742226,  -959.182E-03,   64.3781E-03,       1.00883,0.0325084,0.00995593,5.95574e-05
28223,36.0,-43.0,0.000852818,  -947.788E-03,   64.3760E-03,       1.15918,0.0301767,0.00920675,5.81457e-05
28224,35.0,-43.0,0.000969393,  -935.152E-03,   64.3733E-03,       1.31747,0.0277291,0.00842657,5.33884e-05
28229,34.0,-43.0,0.0010915,  -921.315E-03,   64.3701E-03,       1.48306,0.0251792,0.00762431,4.59895e-05
28230,33.0,-43.0,0.00121867,  -906.337E-03,   64.3664E-03,       1.65531,0.0225405,0.00680839,3.6308e-05
28235,32.0,-43.0,0.00135041,  -890.298E-03,   64.3625E-03,       1.83351,0.0198255,0.00598604,2.45733e-05
28238,31.0,-43.0,0.0014862,  -873.291E-03,   64.3586E-03,       2.01696,0.0170461,0.00516261,1.07829e-05
28239,30.0,-43.0,0.0016255,  -855.427E-03,   64.3547E-03,       2.20494,0.0142128,0.00434123,-5.0188e-06
28244,29.0,-43.0,0.00176778,  -836.829E-03,   64.3512E-03,       2.39672,0.0113346,0.00352274,-2.28084e-05
28245,28.0,-43.0,0.00191246,  -817.630E-03,   64.3482E-03,       2.59155,0.00841948,0.00270586,-4.23732e-05
28250,27.0,-43.0,0.00205897,  -797.972E-03,   64.3459E-03,       2.78866,0.00547455,0.00188764,-6.33689e-05
28253,26.0,-43.0,0.00220674,  -778.004E-03,   64.3445E-03,       2.98731,0.00250626,0.00106412,-8.52147e-05
28254,25.0,-43.0,0.00235518,  -757.881E-03,   64.3440E-03,       3.18673,-0.000478976,0.000231004,-0.00010717
28259,24.0,-43.0,0.0025037,  -737.757E-03,   64.3445E-03,       3.38615,-0.00347435,-0.000615484,-0.000128333
28260,23.0,-43.0,0.0026517,  -717.789E-03,   64.3460E-03,       3.58480,-0.00647224,-0.00147796,-0.000147747
28265,22.0,-43.0,0.00279859,  -698.131E-03,   64.3483E-03,       3.78192,-0.00946386,-0.00235731,-0.000164473
28268,21.0,-43.0,0.00294381,  -678.931E-03,   64.3512E-03,       3.97674,-0.012439,-0.00325234,-0.000177699
28269,20.0,-43.0,0.00308675,  -660.331E-03,   64.3546E-03,       4.16853,-0.0153861,-0.00415969,-0.000186819
28274,19.0,-43.0,0.00322686,  -642.466E-03,   64.3582E-03,       4.35652,-0.018292,-0.00507394,-0.000191502
28275,18.0,-43.0,0.00336357,  -625.457E-03,   64.3619E-03,       4.53998,-0.0211427,-0.005988,-0.000191717
28280,17.0,-43.0,0.00349635,  -609.415E-03,   64.3654E-03,       4.71820,-0.023923,-0.00689359,-0.00018772
28283,16.0,-43.0,0.00362465,  -594.435E-03,   64.3685E-03,       4.89045,-0.0266178,-0.00778184,-0.000180012
28284,15.0,-43.0,0.00374797,  -580.594E-03,   64.3712E-03,       5.05607,-0.0292117,-0.00864387,-0.000169269
28289,14.0,-43.0,0.00386582,  -567.953E-03,   64.3732E-03,       5.21439,-0.0316904,-0.00947136,-0.000156257
28290,13.0,-43.0,0.00397772,  -556.554E-03,   64.3747E-03,       5.36477,-0.0340405,-0.0102569,-0.00014176
28295,12.0,-43.0,0.00408323,  -546.420E-03,   64.3755E-03,       5.50660,-0.0362501,-0.0109944,-0.000126506
28298,11.0,-43.0,0.00418193,  -537.551E-03,   64.3758E-03,       5.63931,-0.0383088,-0.011679,-0.000111128
28299,10.0,-43.0,0.00427342,  -529.929E-03,   64.3756E-03,       5.76237,-0.0402082,-0.0123073,-9.61328e-05
28304,9.0,-43.0,0.00435734,  -523.516E-03,   64.3751E-03,       5.87527,-0.0419412,-0.0128768,-8.18972e-05
28305,8.0,-43.0,0.00443335,  -518.254E-03,   64.3742E-03,       5.97755,-0.0435024,-0.0133864,-6.86728e-05
28310,7.0,-43.0,0.00450115,  -514.066E-03,   64.3732E-03,       6.06880,-0.0448876,-0.0138353,-5.66005e-05
28313,6.0,-43.0,0.00456047,  -510.858E-03,   64.3721E-03,       6.14866,-0.0460935,-0.0142234,-4.5727e-05
28314,5.0,-43.0,0.00461107,  -508.523E-03,   64.3710E-03,       6.21678,-0.0471175,-0.0145511,-3.60209e-05
28319,4.0,-43.0,0.00465274,  -506.936E-03,   64.3700E-03,       6.27290,-0.0479577,-0.0148185,-2.73862e-05
28320,3.0,-43.0,0.00468533,  -505.962E-03,   64.3692E-03,       6.31679,-0.0486127,-0.0150261,-1.96738e-05
28325,2.0,-43.0,0.0047087,  -505.457E-03,   64.3686E-03,       6.34827,-0.0490813,-0.0151741,-1.26922e-05
28328,1.0,-43.0,0.00472276,  -505.269E-03,   64.3682E-03,       6.36720,-0.0493628,-0.0152628,-6.21667e-06
28329,0.0,-43.0,0.00472746,  -505.241E-03,   64.3680E-03,       6.37352,-0.0494567,-0.0152924,-2.84217e-14
28334,-1.0,-43.0,0.00472276,  -505.213E-03,   64.3682E-03,       6.36720,-0.0493628,-0.0152628,6.21667e-06
28335,-2.0,-43.0,0.0047087,  -505.025E-03,   64.3686E-03,       6.34827,-0.0490813,-0.0151741,1.26922e-05
28340,-3.0,-43.0,0.00468533,  -504.520E-03,   64.3692E-03,       6.31679,-0.0486127,-0.0150261,1.96738e-05
28343,-4.0,-43.0,0.00465274,  -503.546E-03,   64.3700E-03,       6.27290,-0.0479577,-0.0148185,2.73862e-05
28344,-5.0,-43.0,0.00461107,  -501.959E-03,   64.3710E-03,       6.21678,-0.0471175,-0.0145511,3.60209e-05
28349,-6.0,-43.0,0.00456047,  -499.623E-03,   64.3721E-03,       6.14866,-0.0460935,-0.0142234,4.5727e-05
28350,-7.0,-43.0,0.00450115,  -496.416E-03,   64.3732E-03,       6.06880,-0.0448876,-0.0138353,5.66005e-05
28355,-8.0,-43.0,0.00443335,  -492.228E-03,   64.3742E-03,       5.97755,-0.0435024,-0.0133864,6.86728e-05
28358,-9.0,-43.0,0.00435734,  -486.966E-03,   64.3751E-03,       5.87527,-0.0419412,-0.0128768,8.18972e-05
28359,-10.0,-43.0,0.00427342,  -480.553E-03,   64.3756E-03,       5.76237,-0.0402082,-0.0123073,9.61328e-05
28364,-11.0,-43.0,0.00418193,  -472.931E-03,   64.3758E-03,       5.63931,-0.0383088,-0.011679,0.000111128
28365,-12.0,-43.0,0.00408323,  -464.062E-03,   64.3755E-03,       5.50660,-0.0362501,-0.0109944,0.000126506
28370,-13.0,-43.0,0.00397772,  -453.927E-03,   64.3747E-03,       5.36477,-0.0340405,-0.0102569,0.00014176
28373,-14.0,-43.0,0.00386582,  -442.529E-03,   64.3732E-03,       5.21439,-0.0316904,-0.00947136,0.000156257
28374,-15.0,-43.0,0.00374797,  -429.888E-03,   64.3712E-03,       5.05607,-0.0292117,-0.00864387,0.000169269
28379,-16.0,-43.0,0.00362465,  -416.047E-03,   64.3685E-03,       4.89045,-0.0266178,-0.00778184,0.000180012
28380,-17.0,-43.0,0.00349635,  -401.066E-03,   64.3654E-03,       4.71820,-0.023923,-0.00689359,0.00018772
28385,-18.0,-43.0,0.00336357,  -385.024E-03,   64.3619E-03,       4.53998,-0.0211427,-0.005988,0.000191717
28388,-19.0,-43.0,0.00322686,  -368.016E-03,   64.3582E-03,       4.35652,-0.018292,-0.00507394,0.000191502
28389,-20.0,-43.0,0.00308675,  -350.151E-03,   64.3546E-03,       4.16853,-0.0153861,-0.00415969,0.000186819
28394,-21.0,-43.0,0.00294381,  -331.551E-03,   64.3512E-03,       3.97674,-0.012439,-0.00325234,0.000177699
28395,-22.0,-43.0,0.00279859,  -312.351E-03,   64.3483E-03,       3.78192,-0.00946386,-0.00235731,0.000164473
28400,-23.0,-43.0,0.0026517,  -292.693E-03,   64.3460E-03,       3.58480,-0.00647224,-0.00147796,0.000147747
28403,-24.0,-43.0,0.0025037,  -272.725E-03,   64.3445E-03,       3.38615,-0.00347435,-0.000615484,0.000128333
28404,-25.0,-43.0,0.00235518,  -252.601E-03,   64.3440E-03,       3.18673,-0.000478976,0.000231004,0.00010717
28409,-26.0,-43.0,0.00220674,  -232.478E-03,   64.3445E-03,       2.98731,0.00250626,0.00106412,8.52147e-05
28410,-27.0,-43.0,0.00205897,  -212.510E-03,   64.3459E-03,       2.78866,0.00547455,0.00188764,6.33689e-05
28415,-28.0,-43.0,0.00191246,  -192.852E-03,   64.3482E-03,       2.59155,0.00841948,0.00270586,4.23732e-05
28418,-29.0,-43.0,0.00176778,  -173.653E-03,   64.3512E-03,       2.39672,0.0113346,0.00352274,2.28084e-05
28419,-30.0,-43.0,0.0016255,  -155.055E-03,   64.3547E-03,       2.20494,0.0142128,0.00434123,5.0188e-06
28424,-31.0,-43.0,0.0014862,  -137.191E-03,   64.3586E-03,       2.01696,0.0170461,0.00516261,-1.07829e-05
28425,-32.0,-43.0,0.00135041,  -120.184E-03,   64.3625E-03,       1.83351,0.0198255,0.00598604,-2.45733e-05
28430,-33.0,-43.0,0.00121867,  -104.145E-03,   64.3664E-03,       1.65531,0.0225405,0.00680839,-3.6308e-05
28433,-34.0,-43.0,0.0010915,  -89.1670E-03,   64.3701E-03,       1.48306,0.0251792,0.00762431,-4.59895e-05
28434,-35.0,-43.0,0.000969393,  -75.3297E-03,   64.3733E-03,       1.31747,0.0277291,0.00842657,-5.33884e-05
28439,-36.0,-43.0,0.000852818,  -62.6934E-03,   64.3760E-03,       1.15918,0.0301767,0.00920675,-5.81457e-05
28440,-37.0,-43.0,0.000742226,  -51.2998E-03,   64.3781E-03,       1.00883,0.0325084,0.00995593,-5.95574e-05
28445,-38.0,-43.0,0.0006380369999999999,  -41.1707E-03,   64.3795E-03,   867.039E-03,0.034711,0.0106659,-5.67383e-05
28448,-39.0,-43.0,0.000540643,  -32.3075E-03,   64.3802E-03,   734.366E-03,0.0367721,0.01133,-4.87827e-05
28449,-40.0,-43.0,0.00045040699999999994,  -24.6914E-03,   64.3801E-03,   611.351E-03,0.0386812,0.0119445,-3.5097e-05
28454,-41.0,-43.0,0.000367655,  -18.2831E-03,   64.3791E-03,   498.486E-03,0.040429,0.0125091,-1.62828e-05
28455,-42.0,-43.0,0.000292686,  -13.0242E-03,   64.3773E-03,   396.225E-03,0.0420106,0.013027,4.90859e-06
28460,-43.0,-43.0,0.000225761,  -8.83781E-03,   64.3747E-03,   304.974E-03,0.0434219,0.0135034,2.30351e-05
28463,-44.0,-43.0,0.000167112,  -5.63016E-03,   64.3714E-03,   225.099E-03,0.0446668,0.0139426,2.74485e-05
28464,-45.0,-43.0,0.000116944,  -3.29217E-03,   64.3678E-03,   156.921E-03,0.0457491,0.0143358,9.64218e-06
28469,-46.0,-43.0,7.54419e-05,  -1.70186E-03,   64.3642E-03,   100.726E-03,0.0466711,0.0146637,-3.40456e-05
28470,-47.0,-43.0,4.2788100000000005e-05,  -725.166E-06,   64.3613E-03,   56.7612E-03,0.0474155,0.0148856,-8.74137e-05
28475,-48.0,-43.0,1.91778e-05,  -218.704E-06,   64.3592E-03,   25.2399E-03,0.0479099,0.0149671,-0.000113013
28478,-49.0,-43.0,4.82863e-06,  -29.6520E-06,   64.3582E-03,   6.30526E-03,0.0480136,0.0149051,-8.18018e-05
28479,-50.0,-43.0,0.0,  -36.5739E-42,   64.3579E-03,           -0.,0.0479445,0.0148382,-4.93719e-05
28484,50.0,-44.0,0.0,      -1.01048,   64.3511E-03,           -0.,0.0481561,0.0150291,0.0001059
28485,49.0,-44.0,4.82757e-06,      -1.01045,   64.3516E-03,   6.34972E-03,0.0481197,0.015062,0.000164948
28490,48.0,-44.0,1.91481e-05,      -1.01026,   64.3534E-03,   25.3876E-03,0.0478053,0.0150404,0.000209274
28493,47.0,-44.0,4.26874e-05,      -1.00974,   64.3565E-03,   57.0291E-03,0.0471348,0.0148352,0.000143888
28494,46.0,-44.0,7.523e-05,      -1.00876,   64.3609E-03,   101.090E-03,0.0462946,0.014489,5.69602e-05
28499,45.0,-44.0,0.00011661,      -1.00716,   64.3656E-03,   157.346E-03,0.0453286,0.0140701,7.44162e-07
28500,44.0,-44.0,0.000166677,      -1.00482,   64.3702E-03,   225.554E-03,0.0442286,0.0136171,-1.89065e-05
28505,43.0,-44.0,0.000225272,      -1.00161,   64.3739E-03,   305.437E-03,0.0429789,0.0131496,-1.24631e-05
28508,42.0,-44.0,0.00029221200000000003,  -997.416E-03,   64.3766E-03,   396.684E-03,0.0415633,0.0126579,2.20477e-08
28509,41.0,-44.0,0.000367278,  -992.153E-03,   64.3784E-03,   498.935E-03,0.0399837,0.0121285,9.85921e-06
28514,40.0,-44.0,0.000450215,  -985.742E-03,   64.3792E-03,   611.785E-03,0.0382403,0.0115518,1.32382e-05
28515,39.0,-44.0,0.000540731,  -978.123E-03,   64.3791E-03,   734.784E-03,0.036341,0.0109234,9.7748e-06
28520,38.0,-44.0,0.000638498,  -969.258E-03,   64.3783E-03,   867.436E-03,0.0342945,0.0102448,1.37042e-06
28523,37.0,-44.0,0.000743152,  -959.128E-03,   64.3767E-03,       1.00921,0.0321122,0.00952198,-9.76118e-06
28524,36.0,-44.0,0.000854299,  -947.735E-03,   64.3744E-03,       1.15953,0.0298064,0.00876376,-2.13275e-05
28529,35.0,-44.0,0.0009715139999999999,  -935.100E-03,   64.3714E-03,       1.31779,0.0273901,0.00798064,-3.14453e-05
28530,34.0,-44.0,0.00109434,  -921.265E-03,   64.3678E-03,       1.48335,0.0248762,0.00718333,-3.89119e-05
28535,33.0,-44.0,0.00122231,  -906.290E-03,   64.3638E-03,       1.65556,0.0222774,0.00638168,-4.30088e-05
28538,32.0,-44.0,0.00135492,  -890.255E-03,   64.3595E-03,       1.83373,0.0196052,0.0055838,-4.37778e-05
28539,31.0,-44.0,0.00149163,  -873.253E-03,   64.3551E-03,       2.01715,0.01687,0.00479536,-4.16631e-05
28544,30.0,-44.0,0.00163193,  -855.395E-03,   64.3507E-03,       2.20510,0.0140808,0.00401926,-3.76765e-05
28545,29.0,-44.0,0.00177524,  -836.802E-03,   64.3467E-03,       2.39684,0.0112452,0.00325551,-3.30377e-05
28550,28.0,-44.0,0.00192101,  -817.609E-03,   64.3433E-03,       2.59163,0.00836972,0.00250155,-2.91917e-05
28553,27.0,-44.0,0.00206865,  -797.957E-03,   64.3407E-03,       2.78872,0.00546002,0.00175265,-2.74865e-05
28554,26.0,-44.0,0.00221757,  -777.996E-03,   64.3391E-03,       2.98734,0.00252151,0.00100272,-2.91006e-05
28559,25.0,-44.0,0.00236718,  -757.879E-03,   64.3386E-03,       3.18673,-0.000440227,0.000245131,-3.48096e-05
28560,24.0,-44.0,0.00251689,  -737.762E-03,   64.3392E-03,       3.38611,-0.00341888,-0.00052635,-4.49335e-05
28565,23.0,-44.0,0.0026661,  -717.800E-03,   64.3408E-03,       3.58473,-0.00640702,-0.00131674,-5.92527e-05
28568,22.0,-44.0,0.00281421,  -698.148E-03,   64.3434E-03,       3.78182,-0.00939577,-0.00212915,-7.70597e-05
28569,21.0,-44.0,0.00296063,  -678.954E-03,   64.3468E-03,       3.97662,-0.0123746,-0.0029643,-9.72318e-05
28574,20.0,-44.0,0.00310478,  -660.360E-03,   64.3506E-03,       4.16836,-0.0153314,-0.00382035,-0.000118381
28575,19.0,-44.0,0.00324607,  -642.501E-03,   64.3548E-03,       4.35632,-0.0182525,-0.00469296,-0.000139014
28580,18.0,-44.0,0.00338395,  -625.498E-03,   64.3589E-03,       4.53975,-0.0211228,-0.00557559,-0.000157697
28583,17.0,-44.0,0.00351787,  -609.460E-03,   64.3628E-03,       4.71792,-0.0239266,-0.00646005,-0.000173202
28584,16.0,-44.0,0.00364728,  -594.483E-03,   64.3662E-03,       4.89015,-0.0266476,-0.00733709,-0.000184605
28589,15.0,-44.0,0.00377167,  -580.645E-03,   64.3691E-03,       5.05573,-0.0292699,-0.00819707,-0.000191345
28590,14.0,-44.0,0.00389055,  -568.007E-03,   64.3712E-03,       5.21401,-0.0317781,-0.00903061,-0.000193232
28595,13.0,-44.0,0.00400343,  -556.609E-03,   64.3727E-03,       5.36436,-0.034158,-0.00982905,-0.000190417
28598,12.0,-44.0,0.00410987,  -546.474E-03,   64.3735E-03,       5.50616,-0.0363971,-0.0105848,-0.000183335
28599,11.0,-44.0,0.00420943,  -537.604E-03,   64.3736E-03,       5.63885,-0.0384844,-0.0112918,-0.000172627
28604,10.0,-44.0,0.00430173,  -529.980E-03,   64.3733E-03,       5.76188,-0.0404109,-0.0119449,-0.000159058
28605,9.0,-44.0,0.0043864,  -523.564E-03,   64.3725E-03,       5.87477,-0.0421693,-0.0125408,-0.000143441
28610,8.0,-44.0,0.00446308,  -518.297E-03,   64.3715E-03,       5.97704,-0.0437538,-0.0130767,-0.000126561
28613,7.0,-44.0,0.00453149,  -514.105E-03,   64.3703E-03,       6.06828,-0.0451599,-0.0135511,-0.000109121
28614,6.0,-44.0,0.00459133,  -510.892E-03,   64.3690E-03,       6.14813,-0.0463841,-0.0139629,-9.16946e-05
28619,5.0,-44.0,0.00464238,  -508.551E-03,   64.3678E-03,       6.21624,-0.0474237,-0.0143118,-7.47056e-05
28620,4.0,-44.0,0.00468443,  -506.959E-03,   64.3668E-03,       6.27236,-0.0482769,-0.0145973,-5.841e-05
28625,3.0,-44.0,0.00471731,  -505.979E-03,   64.3659E-03,       6.31625,-0.048942,-0.0148193,-4.29013e-05
28628,2.0,-44.0,0.00474089,  -505.469E-03,   64.3652E-03,       6.34772,-0.0494179,-0.014978,-2.81265e-05
28629,1.0,-44.0,0.00475508,  -505.275E-03,   64.3648E-03,       6.36666,-0.0497037,-0.0150731,-1.39121e-05
28634,2.55011e-29,-44.0,0.00475981,  -505.241E-03,   64.3646E-03,       6.37298,-0.0497991,-0.0151049,0.0
28635,-1.0,-44.0,0.00475508,  -505.207E-03,   64.3648E-03,       6.36666,-0.0497037,-0.0150731,1.39121e-05
28640,-2.0,-44.0,0.00474089,  -505.013E-03,   64.3652E-03,       6.34772,-0.0494179,-0.014978,2.81265e-05
28643,-3.0,-44.0,0.00471731,  -504.502E-03,   64.3659E-03,       6.31625,-0.048942,-0.0148193,4.29013e-05
28644,-4.0,-44.0,0.00468443,  -503.523E-03,   64.3668E-03,       6.27236,-0.0482769,-0.0145973,5.841e-05
28649,-5.0,-44.0,0.00464238,  -501.930E-03,   64.3678E-03,       6.21624,-0.0474237,-0.0143118,7.47056e-05
28650,-6.0,-44.0,0.00459133,  -499.589E-03,   64.3690E-03,       6.14813,-0.0463841,-0.0139629,9.16946e-05
28655,-7.0,-44.0,0.00453149,  -496.377E-03,   64.3703E-03,       6.06828,-0.0451599,-0.0135511,0.000109121
28658,-8.0,-44.0,0.00446308,  -492.185E-03,   64.3715E-03,       5.97704,-0.0437538,-0.0130767,0.000126561
28659,-9.0,-44.0,0.0043864,  -486.918E-03,   64.3725E-03,       5.87477,-0.0421693,-0.0125408,0.000143441
28664,-10.0,-44.0,0.00430173,  -480.502E-03,   64.3733E-03,       5.76188,-0.0404109,-0.0119449,0.000159058
28665,-11.0,-44.0,0.00420943,  -472.878E-03,   64.3736E-03,       5.63885,-0.0384844,-0.0112918,0.000172627
28670,-12.0,-44.0,0.00410987,  -464.008E-03,   64.3735E-03,       5.50616,-0.0363971,-0.0105848,0.000183335
28673,-13.0,-44.0,0.00400343,  -453.873E-03,   64.3727E-03,       5.36436,-0.034158,-0.00982905,0.000190417
28674,-14.0,-44.0,0.00389055,  -442.475E-03,   64.3712E-03,       5.21401,-0.0317781,-0.00903061,0.000193232
28679,-15.0,-44.0,0.00377167,  -429.836E-03,   64.3691E-03,       5.05573,-0.0292699,-0.00819707,0.000191345
28680,-16.0,-44.0,0.00364728,  -415.998E-03,   64.3662E-03,       4.89015,-0.0266476,-0.00733709,0.000184605
28685,-17.0,-44.0,0.00351787,  -401.021E-03,   64.3628E-03,       4.71792,-0.0239266,-0.00646005,0.000173202
28686,-18.0,-44.0,0.00338395,  -384.984E-03,   64.3589E-03,       4.53975,-0.0211228,-0.00557559,0.000157697
28691,-19.0,-44.0,0.00324607,  -367.981E-03,   64.3548E-03,       4.35632,-0.0182525,-0.00469296,0.000139014
28692,-20.0,-44.0,0.00310478,  -350.121E-03,   64.3506E-03,       4.16836,-0.0153314,-0.00382035,0.000118381
28697,-21.0,-44.0,0.00296063,  -331.528E-03,   64.3468E-03,       3.97662,-0.0123746,-0.0029643,9.72318e-05
28700,-22.0,-44.0,0.00281421,  -312.334E-03,   64.3434E-03,       3.78182,-0.00939577,-0.00212915,7.70597e-05
28701,-23.0,-44.0,0.0026661,  -292.682E-03,   64.3408E-03,       3.58473,-0.00640702,-0.00131674,5.92527e-05
28706,-24.0,-44.0,0.00251689,  -272.720E-03,   64.3392E-03,       3.38611,-0.00341888,-0.00052635,4.49335e-05
28707,-25.0,-44.0,0.00236718,  -252.603E-03,   64.3386E-03,       3.18673,-0.000440227,0.000245131,3.48096e-05
28712,-26.0,-44.0,0.00221757,  -232.486E-03,   64.3391E-03,       2.98734,0.00252151,0.00100272,2.91006e-05
28715,-27.0,-44.0,0.00206865,  -212.525E-03,   64.3407E-03,       2.78872,0.00546002,0.00175265,2.74865e-05
28716,-28.0,-44.0,0.00192101,  -192.873E-03,   64.3433E-03,       2.59163,0.00836972,0.00250155,2.91917e-05
28721,-29.0,-44.0,0.00177524,  -173.680E-03,   64.3467E-03,       2.39684,0.0112452,0.00325551,3.30377e-05
28722,-30.0,-44.0,0.00163193,  -155.087E-03,   64.3507E-03,       2.20510,0.0140808,0.00401926,3.76765e-05
28727,-31.0,-44.0,0.00149163,  -137.229E-03,   64.3551E-03,       2.01715,0.01687,0.00479536,4.16631e-05
28730,-32.0,-44.0,0.00135492,  -120.227E-03,   64.3595E-03,       1.83373,0.0196052,0.0055838,4.37778e-05
28731,-33.0,-44.0,0.00122231,  -104.192E-03,   64.3638E-03,       1.65556,0.0222774,0.00638168,4.30088e-05
28736,-34.0,-44.0,0.00109434,  -89.2172E-03,   64.3678E-03,       1.48335,0.0248762,0.00718333,3.89119e-05
28737,-35.0,-44.0,0.0009715139999999999,  -75.3822E-03,   64.3714E-03,       1.31779,0.0273901,0.00798064,3.14453e-05
28742,-36.0,-44.0,0.000854299,  -62.7471E-03,   64.3744E-03,       1.15953,0.0298064,0.00876376,2.13275e-05
28745,-37.0,-44.0,0.000743152,  -51.3536E-03,   64.3767E-03,       1.00921,0.0321122,0.00952198,9.76118e-06
28746,-38.0,-44.0,0.000638498,  -41.2235E-03,   64.3783E-03,   867.436E-03,0.0342945,0.0102448,-1.37042e-06
28751,-39.0,-44.0,0.000540731,  -32.3586E-03,   64.3791E-03,   734.784E-03,0.036341,0.0109234,-9.7748e-06
28752,-40.0,-44.0,0.000450215,  -24.7398E-03,   64.3792E-03,   611.785E-03,0.0382403,0.0115518,-1.32382e-05
28757,-41.0,-44.0,0.000367278,  -18.3284E-03,   64.3784E-03,   498.935E-03,0.0399837,0.0121285,-9.85921e-06
28760,-42.0,-44.0,0.00029221200000000003,  -13.0659E-03,   64.3766E-03,   396.684E-03,0.0415633,0.0126579,-2.20474e-08
28761,-43.0,-44.0,0.000225272,  -8.87526E-03,   64.3739E-03,   305.437E-03,0.0429789,0.0131496,1.24631e-05
28766,-44.0,-44.0,0.000166677,  -5.66270E-03,   64.3702E-03,   225.554E-03,0.0442286,0.0136171,1.89065e-05
28767,-45.0,-44.0,0.00011661,  -3.31906E-03,   64.3656E-03,   157.346E-03,0.0453286,0.0140701,-7.44162e-07
28772,-46.0,-44.0,7.523e-05,  -1.72201E-03,   64.3609E-03,   101.090E-03,0.0462946,0.014489,-5.69602e-05
28775,-47.0,-44.0,4.26874e-05,  -738.556E-06,   64.3565E-03,   57.0291E-03,0.0471348,0.0148352,-0.000143888
28776,-48.0,-44.0,1.91481e-05,  -225.611E-06,   64.3534E-03,   25.3876E-03,0.0478053,0.0150404,-0.000209274
28781,-49.0,-44.0,4.82757e-06,  -32.3635E-06,   64.3516E-03,   6.34972E-03,0.0481197,0.015062,-0.000164948
28782,-50.0,-44.0,0.0,  -43.2118E-42,   64.3511E-03,           -0.,0.0481561,0.0150291,-0.0001059
28787,50.0,-45.0,0.0,      -1.01048,   64.3422E-03,           -0.,0.0485878,0.0152787,0.000173832
28790,49.0,-45.0,4.79742e-06,      -1.01045,   64.3432E-03,   6.41885E-03,0.048303,0.0151996,0.000253673
28791,48.0,-45.0,1.90141e-05,      -1.01025,   64.3461E-03,   25.6123E-03,0.0475652,0.0149152,0.000277578
28796,47.0,-45.0,4.23566e-05,      -1.00973,   64.3512E-03,   57.4014E-03,0.0466538,0.0144463,0.000154946
28797,46.0,-45.0,7.464510000000001e-05,      -1.00874,   64.3571E-03,   101.555E-03,0.0457055,0.0138898,3.95107e-05
28802,45.0,-45.0,0.000115765,      -1.00713,   64.3632E-03,   157.857E-03,0.044705,0.0133264,-1.70653e-05
28805,44.0,-45.0,0.00016560900000000002,      -1.00478,   64.3682E-03,   226.071E-03,0.043601,0.012808,-2.0904e-05
28806,43.0,-45.0,0.00022405599999999998,      -1.00157,   64.3721E-03,   305.944E-03,0.042345,0.0123141,-1.41167e-05
28811,42.0,-45.0,0.00029094200000000003,  -997.374E-03,   64.3748E-03,   397.169E-03,0.0409374,0.0118121,-1.21316e-05
28812,41.0,-45.0,0.00036606,  -992.108E-03,   64.3763E-03,   499.392E-03,0.0393698,0.0112801,-1.97119e-05
28817,40.0,-45.0,0.00044916,  -985.695E-03,   64.3769E-03,   612.209E-03,0.0376483,0.0107039,-3.73707e-05
28820,39.0,-45.0,0.000539951,  -978.076E-03,   64.3767E-03,   735.171E-03,0.0357779,0.0100793,-6.10269e-05
28821,38.0,-45.0,0.000638103,  -969.212E-03,   64.3757E-03,   867.782E-03,0.0337683,0.00940929,-8.69437e-05
28826,37.0,-45.0,0.00074325,  -959.084E-03,   64.3740E-03,       1.00951,0.0316296,0.00870118,-0.000110947
28827,36.0,-45.0,0.000854992,  -947.694E-03,   64.3716E-03,       1.15978,0.0293734,0.00796537,-0.000129625
28832,35.0,-45.0,0.000972898,  -935.064E-03,   64.3685E-03,       1.31799,0.0270113,0.00721337,-0.000140461
28835,34.0,-45.0,0.00109651,  -921.235E-03,   64.3648E-03,       1.48351,0.0245549,0.0064565,-0.000141678
28836,33.0,-45.0,0.00122534,  -906.266E-03,   64.3606E-03,       1.65567,0.022015,0.00570487,-0.000132716
28841,32.0,-45.0,0.00135889,  -890.237E-03,   64.3560E-03,       1.83380,0.0194016,0.00496638,-0.00011381
28842,31.0,-45.0,0.00149662,  -873.240E-03,   64.3512E-03,       2.01719,0.0167234,0.00424633,-8.63786e-05
28847,30.0,-45.0,0.00163799,  -855.387E-03,   64.3465E-03,       2.20511,0.0139875,0.00354685,-5.25739e-05
28850,29.0,-45.0,0.00178244,  -836.797E-03,   64.3422E-03,       2.39684,0.0112005,0.00286711,-1.53863e-05
28851,28.0,-45.0,0.00192939,  -817.606E-03,   64.3385E-03,       2.59162,0.00836768,0.00220337,2.18417e-05
28856,27.0,-45.0,0.00207825,  -797.955E-03,   64.3356E-03,       2.78871,0.00549421,0.00154972,5.55806e-05
28857,26.0,-45.0,0.00222843,  -777.994E-03,   64.3338E-03,       2.98733,0.00258527,0.000898652,8.2597e-05
28862,25.0,-45.0,0.00237933,  -757.877E-03,   64.3333E-03,       3.18672,-0.000353348,0.000242077,0.000100214
28865,24.0,-45.0,0.00253034,  -737.759E-03,   64.3339E-03,       3.38612,-0.00331489,-0.000427829,0.000106658
28866,23.0,-45.0,0.00268086,  -717.798E-03,   64.3357E-03,       3.58474,-0.0062913,-0.00111771,0.000101198
28871,22.0,-45.0,0.00283029,  -698.147E-03,   64.3386E-03,       3.78182,-0.00927304,-0.00183234,8.4228e-05
28872,21.0,-45.0,0.00297803,  -678.955E-03,   64.3423E-03,       3.97661,-0.012249,-0.00257407,5.71723e-05
28877,20.0,-45.0,0.00312348,  -660.365E-03,   64.3465E-03,       4.16834,-0.0152066,-0.00334264,2.23009e-05
28880,19.0,-45.0,0.00326607,  -642.510E-03,   64.3510E-03,       4.35627,-0.0181319,-0.0041351,-1.75549e-05
28881,18.0,-45.0,0.00340521,  -625.513E-03,   64.3554E-03,       4.53966,-0.0210097,-0.00494612,-5.93165e-05
28886,17.0,-45.0,0.00354037,  -609.482E-03,   64.3595E-03,       4.71780,-0.0238241,-0.0057684,-9.99757e-05
28887,16.0,-45.0,0.00367099,  -594.512E-03,   64.3631E-03,       4.88997,-0.026559,-0.00659327,-0.000136867
28892,15.0,-45.0,0.00379654,  -580.680E-03,   64.3660E-03,       5.05550,-0.0291983,-0.00741131,-0.000167872
28895,14.0,-45.0,0.00391653,  -568.047E-03,   64.3682E-03,       5.21372,-0.0317266,-0.00821297,-0.000191539
28896,13.0,-45.0,0.00403048,  -556.655E-03,   64.3695E-03,       5.36401,-0.0341294,-0.00898909,-0.000207118
28901,12.0,-45.0,0.00413793,  -546.523E-03,   64.3701E-03,       5.50576,-0.0363937,-0.00973133,-0.000214526
28902,11.0,-45.0,0.00423844,  -537.655E-03,   64.3700E-03,       5.63840,-0.0385082,-0.0104324,-0.000214238
28907,10.0,-45.0,0.00433162,  -530.032E-03,   64.3694E-03,       5.76139,-0.040463,-0.0110861,-0.00020716
28910,9.0,-45.0,0.00441709,  -523.615E-03,   64.3684E-03,       5.87423,-0.0422501,-0.0116876,-0.000194471
28911,8.0,-45.0,0.00449451,  -518.346E-03,   64.3672E-03,       5.97647,-0.0438629,-0.012233,-0.000177466
28916,7.0,-45.0,0.00456357,  -514.150E-03,   64.3657E-03,       6.06768,-0.0452961,-0.0127192,-0.000157426
28917,6.0,-45.0,0.00462399,  -510.933E-03,   64.3643E-03,       6.14750,-0.0465455,-0.0131441,-0.0001355
28922,5.0,-45.0,0.00467553,  -508.586E-03,   64.3630E-03,       6.21560,-0.0476077,-0.0135059,-0.000112635
28925,4.0,-45.0,0.00471798,  -506.987E-03,   64.3618E-03,       6.27170,-0.0484802,-0.0138033,-8.95254e-05
28926,3.0,-45.0,0.00475118,  -506.001E-03,   64.3608E-03,       6.31558,-0.0491608,-0.0140356,-6.66087e-05
28931,2.0,-45.0,0.00477499,  -505.484E-03,   64.3601E-03,       6.34705,-0.0496481,-0.0142019,-4.40781e-05
28932,1.0,-45.0,0.00478931,  -505.283E-03,   64.3596E-03,       6.36598,-0.0499409,-0.0143019,-2.19258e-05
28937,-4.421819999999999e-29,-45.0,0.00479409,  -505.241E-03,   64.3595E-03,       6.37230,-0.0500385,-0.0143353,0.0
28940,-1.0,-45.0,0.00478931,  -505.199E-03,   64.3596E-03,       6.36598,-0.0499409,-0.0143019,2.19258e-05
28941,-2.0,-45.0,0.00477499,  -504.998E-03,   64.3601E-03,       6.34705,-0.0496481,-0.0142019,4.40781e-05
28946,-3.0,-45.0,0.00475118,  -504.480E-03,   64.3608E-03,       6.31558,-0.0491608,-0.0140356,6.66087e-05
28947,-4.0,-45.0,0.00471798,  -503.494E-03,   64.3618E-03,       6.27170,-0.0484802,-0.0138033,8.95254e-05
28952,-5.0,-45.0,0.00467553,  -501.895E-03,   64.3630E-03,       6.21560,-0.0476077,-0.0135059,0.000112635
28955,-6.0,-45.0,0.00462399,  -499.549E-03,   64.3643E-03,       6.14750,-0.0465455,-0.0131441,0.0001355
28956,-7.0,-45.0,0.00456357,  -496.332E-03,   64.3657E-03,       6.06768,-0.0452961,-0.0127192,0.000157426
28961,-8.0,-45.0,0.00449451,  -492.136E-03,   64.3672E-03,       5.97647,-0.0438629,-0.012233,0.000177466
28962,-9.0,-45.0,0.00441709,  -486.867E-03,   64.3684E-03,       5.87423,-0.0422501,-0.0116876,0.000194471
28967,-10.0,-45.0,0.00433162,  -480.450E-03,   64.3694E-03,       5.76139,-0.040463,-0.0110861,0.00020716
28970,-11.0,-45.0,0.00423844,  -472.827E-03,   64.3700E-03,       5.63840,-0.0385082,-0.0104324,0.000214238
28971,-12.0,-45.0,0.00413793,  -463.959E-03,   64.3701E-03,       5.50576,-0.0363937,-0.00973133,0.000214526
28976,-13.0,-45.0,0.00403048,  -453.827E-03,   64.3695E-03,       5.36401,-0.0341294,-0.00898909,0.000207118
28977,-14.0,-45.0,0.00391653,  -442.434E-03,   64.3682E-03,       5.21372,-0.0317266,-0.00821297,0.000191539
28982,-15.0,-45.0,0.00379654,  -429.802E-03,   64.3660E-03,       5.05550,-0.0291983,-0.00741131,0.000167872
28985,-16.0,-45.0,0.00367099,  -415.970E-03,   64.3631E-03,       4.88997,-0.026559,-0.00659327,0.000136867
28986,-17.0,-45.0,0.00354037,  -401.000E-03,   64.3595E-03,       4.71780,-0.0238241,-0.0057684,9.99757e-05
28991,-18.0,-45.0,0.00340521,  -384.969E-03,   64.3554E-03,       4.53966,-0.0210097,-0.00494612,5.93165e-05
28992,-19.0,-45.0,0.00326607,  -367.972E-03,   64.3510E-03,       4.35627,-0.0181319,-0.0041351,1.75549e-05
28997,-20.0,-45.0,0.00312348,  -350.117E-03,   64.3465E-03,       4.16834,-0.0152066,-0.00334264,-2.23009e-05
29000,-21.0,-45.0,0.00297803,  -331.527E-03,   64.3423E-03,       3.97661,-0.012249,-0.00257407,-5.71723e-05
29001,-22.0,-45.0,0.00283029,  -312.335E-03,   64.3386E-03,       3.78182,-0.00927304,-0.00183234,-8.4228e-05
29006,-23.0,-45.0,0.00268086,  -292.684E-03,   64.3357E-03,       3.58474,-0.0062913,-0.00111771,-0.000101198
29007,-24.0,-45.0,0.00253034,  -272.722E-03,   64.3339E-03,       3.38612,-0.00331489,-0.000427829,-0.000106658
29012,-25.0,-45.0,0.00237933,  -252.605E-03,   64.3333E-03,       3.18672,-0.000353348,0.000242077,-0.000100214
29015,-26.0,-45.0,0.00222843,  -232.487E-03,   64.3338E-03,       2.98733,0.00258527,0.000898652,-8.2597e-05
29016,-27.0,-45.0,0.00207825,  -212.526E-03,   64.3356E-03,       2.78871,0.00549421,0.00154972,-5.55806e-05
29021,-28.0,-45.0,0.00192939,  -192.876E-03,   64.3385E-03,       2.59162,0.00836768,0.00220337,-2.18417e-05
29022,-29.0,-45.0,0.00178244,  -173.684E-03,   64.3422E-03,       2.39684,0.0112005,0.00286711,1.53863e-05
29027,-30.0,-45.0,0.00163799,  -155.095E-03,   64.3465E-03,       2.20511,0.0139875,0.00354685,5.25739e-05
29030,-31.0,-45.0,0.00149662,  -137.241E-03,   64.3512E-03,       2.01719,0.0167234,0.00424633,8.63786e-05
29031,-32.0,-45.0,0.00135889,  -120.245E-03,   64.3560E-03,       1.83380,0.0194016,0.00496638,0.00011381
29036,-33.0,-45.0,0.00122534,  -104.216E-03,   64.3606E-03,       1.65567,0.022015,0.00570487,0.000132716
29037,-34.0,-45.0,0.00109651,  -89.2471E-03,   64.3648E-03,       1.48351,0.0245549,0.0064565,0.000141678
29042,-35.0,-45.0,0.000972898,  -75.4177E-03,   64.3685E-03,       1.31799,0.0270113,0.00721337,0.000140461
29045,-36.0,-45.0,0.000854992,  -62.7874E-03,   64.3716E-03,       1.15978,0.0293734,0.00796537,0.000129625
29046,-37.0,-45.0,0.00074325,  -51.3976E-03,   64.3740E-03,       1.00951,0.0316296,0.00870118,0.000110947
29051,-38.0,-45.0,0.000638103,  -41.2699E-03,   64.3757E-03,   867.782E-03,0.0337683,0.00940929,8.69437e-05
29052,-39.0,-45.0,0.000539951,  -32.4058E-03,   64.3767E-03,   735.171E-03,0.0357779,0.0100793,6.10269e-05
29057,-40.0,-45.0,0.00044916,  -24.7866E-03,   64.3769E-03,   612.209E-03,0.0376483,0.0107039,3.73707e-05
29060,-41.0,-45.0,0.00036606,  -18.3736E-03,   64.3763E-03,   499.392E-03,0.0393698,0.0112801,1.97119e-05
29061,-42.0,-45.0,0.00029094200000000003,  -13.1083E-03,   64.3748E-03,   397.169E-03,0.0409374,0.0118121,1.21316e-05
29066,-43.0,-45.0,0.00022405599999999998,  -8.91408E-03,   64.3721E-03,   305.944E-03,0.042345,0.0123141,1.41167e-05
29067,-44.0,-45.0,0.00016560900000000002,  -5.69707E-03,   64.3682E-03,   226.071E-03,0.043601,0.012808,2.0904e-05
29072,-45.0,-45.0,0.000115765,  -3.34811E-03,   64.3632E-03,   157.857E-03,0.044705,0.0133264,1.70653e-05
29075,-46.0,-45.0,7.464510000000001e-05,  -1.74461E-03,   64.3571E-03,   101.555E-03,0.0457055,0.0138898,-3.95107e-05
29076,-47.0,-45.0,4.23566e-05,  -753.521E-06,   64.3512E-03,   57.4014E-03,0.0466538,0.0144463,-0.000154946
29081,-48.0,-45.0,1.90141e-05,  -233.567E-06,   64.3461E-03,   25.6123E-03,0.0475652,0.0149152,-0.000277578
29082,-49.0,-45.0,4.79742e-06,  -34.8523E-06,   64.3432E-03,   6.41885E-03,0.048303,0.0151996,-0.000253673
29087,-50.0,-45.0,0.0,  -46.7263E-42,   64.3422E-03,           -0.,0.0485878,0.0152787,-0.000173832
29090,50.0,-46.0,0.0,      -1.01048,   64.3317E-03,            0.,0.0492331,0.0154912,0.000209194
29091,49.0,-46.0,4.72608e-06,      -1.01045,   64.3333E-03,   6.51278E-03,0.0485064,0.015145,0.000259107
29096,48.0,-46.0,1.87063e-05,      -1.01024,   64.3382E-03,   25.8854E-03,0.0471441,0.0143642,0.000216892
29097,47.0,-46.0,4.16681e-05,      -1.00972,   64.3454E-03,   57.7918E-03,0.0459591,0.0134432,2.47258e-05
29102,46.0,-46.0,7.35111e-05,      -1.00872,   64.3534E-03,   101.996E-03,0.0449596,0.0125532,-8.44639e-05
29105,45.0,-46.0,0.000114191,      -1.00711,   64.3601E-03,   158.278E-03,0.043976,0.0118452,-7.55162e-05
29106,44.0,-46.0,0.000163679,      -1.00476,   64.3653E-03,   226.458E-03,0.0428611,0.0112777,-4.94679e-05
29111,43.0,-46.0,0.00022187900000000002,      -1.00155,   64.3691E-03,   306.287E-03,0.04162,0.0107708,-3.90274e-05
29112,42.0,-46.0,0.000288646,  -997.351E-03,   64.3714E-03,   397.466E-03,0.0402296,0.0102783,-4.65503e-05
29117,41.0,-46.0,0.00036377800000000004,  -992.086E-03,   64.3727E-03,   499.641E-03,0.0386938,0.00976729,-7.30055e-05
29120,40.0,-46.0,0.00044702800000000003,  -985.675E-03,   64.3731E-03,   612.405E-03,0.0370131,0.00922293,-0.000109506
29121,39.0,-46.0,0.000538101,  -978.060E-03,   64.3728E-03,   735.310E-03,0.0351936,0.00864101,-0.000150232
29126,38.0,-46.0,0.000636663,  -969.201E-03,   64.3718E-03,   867.860E-03,0.0332425,0.00802461,-0.000188302
29127,37.0,-46.0,0.0007423410000000001,  -959.080E-03,   64.3702E-03,       1.00952,0.0311685,0.00738134,-0.000218497
29132,36.0,-46.0,0.00085473,  -947.699E-03,   64.3679E-03,       1.15973,0.0289813,0.00672113,-0.000236692
29135,35.0,-46.0,0.0009733910000000001,  -935.077E-03,   64.3649E-03,       1.31788,0.0266903,0.00605448,-0.000239715
29136,34.0,-46.0,0.00109786,  -921.257E-03,   64.3613E-03,       1.48334,0.0243049,0.00539164,-0.000225943
29141,33.0,-46.0,0.00122764,  -906.296E-03,   64.3571E-03,       1.65546,0.0218339,0.00474113,-0.00019476
29142,32.0,-46.0,0.00136222,  -890.272E-03,   64.3524E-03,       1.83356,0.019285,0.00410963,-0.000147231
29147,31.0,-46.0,0.00150106,  -873.280E-03,   64.3475E-03,       2.01693,0.0166654,0.00350092,-8.56061e-05
29150,30.0,-46.0,0.00164361,  -855.426E-03,   64.3426E-03,       2.20486,0.0139811,0.00291622,-1.36377e-05
29151,29.0,-46.0,0.0017893,  -836.834E-03,   64.3381E-03,       2.39661,0.0112379,0.00235374,6.39693e-05
29156,28.0,-46.0,0.00193754,  -817.636E-03,   64.3341E-03,       2.59143,0.00844117,0.00180935,0.000141688
29157,27.0,-46.0,0.00208773,  -797.977E-03,   64.3311E-03,       2.78857,0.0055968,0.0012768,0.000213825
29162,26.0,-46.0,0.00223928,  -778.005E-03,   64.3292E-03,       2.98726,0.0027112,0.000748604,0.00027494
29165,25.0,-46.0,0.00239158,  -757.875E-03,   64.3286E-03,       3.18672,-0.000208256,0.000216682,0.000320466
29166,24.0,-46.0,0.00254401,  -737.745E-03,   64.3293E-03,       3.38618,-0.00315306,-0.000326767,0.000347104
29171,23.0,-46.0,0.00269597,  -717.773E-03,   64.3313E-03,       3.58487,-0.00611351,-0.000888582,0.000353181
29172,22.0,-46.0,0.00284683,  -698.113E-03,   64.3343E-03,       3.78201,-0.00907878,-0.00147397,0.000338748
29177,21.0,-46.0,0.00299601,  -678.915E-03,   64.3382E-03,       3.97683,-0.012037,-0.00208611,0.000305529
29180,20.0,-46.0,0.00314288,  -660.322E-03,   64.3426E-03,       4.16859,-0.0149753,-0.00272585,0.000256665
29181,19.0,-46.0,0.00328688,  -642.468E-03,   64.3473E-03,       4.35652,-0.0178801,-0.00339171,0.000196331
29186,18.0,-46.0,0.00342741,  -625.474E-03,   64.3518E-03,       4.53989,-0.0207371,-0.00408001,0.000129269
29187,17.0,-46.0,0.00356391,  -609.450E-03,   64.3560E-03,       4.71799,-0.0235319,-0.00478518,6.03062e-05
29192,16.0,-46.0,0.00369584,  -594.488E-03,   64.3595E-03,       4.89011,-0.0262494,-0.00550024,-6.08299e-06
29195,15.0,-46.0,0.00382266,  -580.666E-03,   64.3623E-03,       5.05558,-0.028875,-0.00621724,-6.61268e-05
29196,14.0,-46.0,0.00394387,  -568.044E-03,   64.3642E-03,       5.21374,-0.0313943,-0.00692779,-0.000116989
29201,13.0,-46.0,0.00405897,  -556.661E-03,   64.3653E-03,       5.36395,-0.0337936,-0.00762347,-0.000156873
29202,12.0,-46.0,0.00416751,  -546.539E-03,   64.3656E-03,       5.50562,-0.0360602,-0.00829626,-0.000185015
29207,11.0,-46.0,0.00426906,  -537.678E-03,   64.3651E-03,       5.63818,-0.0381826,-0.00893875,-0.000201563
29210,10.0,-46.0,0.00436319,  -530.060E-03,   64.3642E-03,       5.76110,-0.0401503,-0.00954432,-0.000207404
29211,9.0,-46.0,0.00444954,  -523.647E-03,   64.3628E-03,       5.87387,-0.0419545,-0.0101072,-0.000203939
29216,8.0,-46.0,0.00452776,  -518.380E-03,   64.3612E-03,       5.97605,-0.0435874,-0.0106224,-0.000192856
29217,7.0,-46.0,0.00459753,  -514.184E-03,   64.3595E-03,       6.06721,-0.0450423,-0.0110859,-0.000175923
29222,6.0,-46.0,0.00465857,  -510.965E-03,   64.3578E-03,       6.14699,-0.0463137,-0.011494,-0.000154811
29225,5.0,-46.0,0.00471065,  -508.615E-03,   64.3562E-03,       6.21506,-0.047397,-0.0118439,-0.000130965
29226,4.0,-46.0,0.00475354,  -507.012E-03,   64.3548E-03,       6.27113,-0.0482884,-0.0121333,-0.000105534
29231,3.0,-46.0,0.00478708,  -506.020E-03,   64.3537E-03,       6.31499,-0.0489848,-0.0123603,-7.93386e-05
29232,2.0,-46.0,0.00481114,  -505.497E-03,   64.3529E-03,       6.34644,-0.0494839,-0.0125235,-5.28861e-05
29237,1.0,-46.0,0.00482561,  -505.289E-03,   64.3524E-03,       6.36537,-0.049784,-0.0126218,-2.64214e-05
29240,4.288e-29,-46.0,0.00483044,  -505.241E-03,   64.3523E-03,       6.37168,-0.0498842,-0.0126546,0.0
29241,-1.0,-46.0,0.00482561,  -505.193E-03,   64.3524E-03,       6.36537,-0.049784,-0.0126218,2.64214e-05
29246,-2.0,-46.0,0.00481114,  -504.985E-03,   64.3529E-03,       6.34644,-0.0494839,-0.0125235,5.28861e-05
29247,-3.0,-46.0,0.00478708,  -504.461E-03,   64.3537E-03,       6.31499,-0.0489848,-0.0123603,7.93386e-05
29252,-4.0,-46.0,0.00475354,  -503.470E-03,   64.3548E-03,       6.27113,-0.0482884,-0.0121333,0.000105534
29255,-5.0,-46.0,0.00471065,  -501.867E-03,   64.3562E-03,       6.21506,-0.047397,-0.0118439,0.000130965
29256,-6.0,-46.0,0.00465857,  -499.517E-03,   64.3578E-03,       6.14699,-0.0463137,-0.011494,0.000154811
29261,-7.0,-46.0,0.00459753,  -496.298E-03,   64.3595E-03,       6.06721,-0.0450423,-0.0110859,0.000175923
29262,-8.0,-46.0,0.00452776,  -492.102E-03,   64.3612E-03,       5.97605,-0.0435874,-0.0106224,0.000192856
29267,-9.0,-46.0,0.00444954,  -486.835E-03,   64.3628E-03,       5.87387,-0.0419545,-0.0101072,0.000203939
29270,-10.0,-46.0,0.00436319,  -480.422E-03,   64.3642E-03,       5.76110,-0.0401503,-0.00954432,0.000207404
29271,-11.0,-46.0,0.00426906,  -472.804E-03,   64.3651E-03,       5.63818,-0.0381826,-0.00893875,0.000201563
29276,-12.0,-46.0,0.00416751,  -463.943E-03,   64.3656E-03,       5.50562,-0.0360602,-0.00829626,0.000185015
29277,-13.0,-46.0,0.00405897,  -453.821E-03,   64.3653E-03,       5.36395,-0.0337936,-0.00762347,0.000156873
29282,-14.0,-46.0,0.00394387,  -442.438E-03,   64.3642E-03,       5.21374,-0.0313943,-0.00692779,0.000116989
29285,-15.0,-46.0,0.00382266,  -429.816E-03,   64.3623E-03,       5.05558,-0.028875,-0.00621724,6.61268e-05
29286,-16.0,-46.0,0.00369584,  -415.994E-03,   64.3595E-03,       4.89011,-0.0262494,-0.00550024,6.08299e-06
29291,-17.0,-46.0,0.00356391,  -401.032E-03,   64.3560E-03,       4.71799,-0.0235319,-0.00478518,-6.03062e-05
29292,-18.0,-46.0,0.00342741,  -385.008E-03,   64.3518E-03,       4.53989,-0.0207371,-0.00408001,-0.000129269
29297,-19.0,-46.0,0.00328688,  -368.014E-03,   64.3473E-03,       4.35652,-0.0178801,-0.00339171,-0.000196331
29300,-20.0,-46.0,0.00314288,  -350.160E-03,   64.3426E-03,       4.16859,-0.0149753,-0.00272585,-0.000256665
29301,-21.0,-46.0,0.00299601,  -331.567E-03,   64.3382E-03,       3.97683,-0.012037,-0.00208611,-0.000305529
29306,-22.0,-46.0,0.00284683,  -312.369E-03,   64.3343E-03,       3.78201,-0.00907878,-0.00147397,-0.000338748
29307,-23.0,-46.0,0.00269597,  -292.709E-03,   64.3313E-03,       3.58487,-0.00611351,-0.000888582,-0.000353181
29312,-24.0,-46.0,0.00254401,  -272.737E-03,   64.3293E-03,       3.38618,-0.00315306,-0.000326767,-0.000347104
29315,-25.0,-46.0,0.00239158,  -252.607E-03,   64.3286E-03,       3.18672,-0.000208256,0.000216682,-0.000320466
29316,-26.0,-46.0,0.00223928,  -232.477E-03,   64.3292E-03,       2.98726,0.0027112,0.000748604,-0.00027494
29321,-27.0,-46.0,0.00208773,  -212.505E-03,   64.3311E-03,       2.78857,0.0055968,0.0012768,-0.000213825
29322,-28.0,-46.0,0.00193754,  -192.845E-03,   64.3341E-03,       2.59143,0.00844117,0.00180935,-0.000141688
29327,-29.0,-46.0,0.0017893,  -173.648E-03,   64.3381E-03,       2.39661,0.0112379,0.00235374,-6.39693e-05
29330,-30.0,-46.0,0.00164361,  -155.056E-03,   64.3426E-03,       2.20486,0.0139811,0.00291622,1.36377e-05
29331,-31.0,-46.0,0.00150106,  -137.202E-03,   64.3475E-03,       2.01693,0.0166654,0.00350092,8.56061e-05
29336,-32.0,-46.0,0.00136222,  -120.209E-03,   64.3524E-03,       1.83356,0.019285,0.00410963,0.000147231
29337,-33.0,-46.0,0.00122764,  -104.186E-03,   64.3571E-03,       1.65546,0.0218339,0.00474113,0.00019476
29342,-34.0,-46.0,0.00109786,  -89.2250E-03,   64.3613E-03,       1.48334,0.0243049,0.00539164,0.000225943
29345,-35.0,-46.0,0.0009733910000000001,  -75.4043E-03,   64.3649E-03,       1.31788,0.0266903,0.00605448,0.000239715
29346,-36.0,-46.0,0.00085473,  -62.7829E-03,   64.3679E-03,       1.15973,0.0289813,0.00672113,0.000236692
29351,-37.0,-46.0,0.0007423410000000001,  -51.4014E-03,   64.3702E-03,       1.00952,0.0311685,0.00738134,0.000218497
29352,-38.0,-46.0,0.000636663,  -41.2808E-03,   64.3718E-03,   867.860E-03,0.0332425,0.00802461,0.000188302
29357,-39.0,-46.0,0.000538101,  -32.4222E-03,   64.3728E-03,   735.310E-03,0.0351936,0.00864101,0.000150232
29360,-40.0,-46.0,0.00044702800000000003,  -24.8068E-03,   64.3731E-03,   612.405E-03,0.0370131,0.00922293,0.000109506
29361,-41.0,-46.0,0.00036377800000000004,  -18.3959E-03,   64.3727E-03,   499.641E-03,0.0386938,0.00976729,7.30055e-05
29366,-42.0,-46.0,0.000288646,  -13.1312E-03,   64.3714E-03,   397.466E-03,0.0402296,0.0102783,4.65503e-05
29367,-43.0,-46.0,0.00022187900000000002,  -8.93657E-03,   64.3691E-03,   306.287E-03,0.04162,0.0107708,3.90274e-05
29372,-44.0,-46.0,0.000163679,  -5.71819E-03,   64.3653E-03,   226.458E-03,0.0428611,0.0112777,4.94679e-05
29375,-45.0,-46.0,0.000114191,  -3.36704E-03,   64.3601E-03,   158.278E-03,0.043976,0.0118452,7.55162e-05
29376,-46.0,-46.0,7.35111e-05,  -1.76062E-03,   64.3534E-03,   101.996E-03,0.0449596,0.0125532,8.44639e-05
29381,-47.0,-46.0,4.16681e-05,  -764.938E-06,   64.3454E-03,   57.7918E-03,0.0459591,0.0134432,-2.47258e-05
29382,-48.0,-46.0,1.87063e-05,  -239.088E-06,   64.3382E-03,   25.8854E-03,0.0471441,0.0143642,-0.000216892
29387,-49.0,-46.0,4.72608e-06,  -36.2736E-06,   64.3333E-03,   6.51278E-03,0.0485064,0.015145,-0.000259107
29390,-50.0,-46.0,0.0,  -40.3308E-42,   64.3317E-03,            0.,0.0492331,0.0154912,-0.000209194
29391,50.0,-47.0,0.0,      -1.01048,   64.3204E-03,           -0.,0.0499251,0.0154704,0.00010179
29396,49.0,-47.0,4.573219999999999e-06,      -1.01045,   64.3231E-03,   6.60115E-03,0.0486175,0.0147079,6.0162e-05
29397,48.0,-47.0,1.81081e-05,      -1.01025,   64.3306E-03,   26.0756E-03,0.0464586,0.0130203,-0.000197468
29402,47.0,-47.0,4.0423299999999996e-05,      -1.00972,   64.3406E-03,   57.9910E-03,0.0452329,0.0113735,-0.000410001
29405,46.0,-47.0,7.15451e-05,      -1.00873,   64.3496E-03,   102.070E-03,0.0443774,0.0102051,-0.000318936
29406,45.0,-47.0,0.000111598,      -1.00713,   64.3566E-03,   158.239E-03,0.0433886,0.00943413,-0.000190059
29411,44.0,-47.0,0.000160592,      -1.00478,   64.3617E-03,   226.322E-03,0.0423035,0.00885608,-0.00011785
29412,43.0,-47.0,0.000218455,      -1.00157,   64.3650E-03,   306.068E-03,0.0410822,0.00837685,-8.57209e-05
29417,42.0,-47.0,0.00028505,  -997.385E-03,   64.3672E-03,   397.178E-03,0.0397267,0.00793195,-9.59311e-05
29420,41.0,-47.0,0.000360174,  -992.128E-03,   64.3683E-03,   499.286E-03,0.038234,0.00748736,-0.000127873
29421,40.0,-47.0,0.000443575,  -985.726E-03,   64.3688E-03,   611.987E-03,0.0366055,0.00702797,-0.000171958
29426,39.0,-47.0,0.000534952,  -978.121E-03,   64.3686E-03,   734.825E-03,0.0348452,0.00654844,-0.00021657
29427,38.0,-47.0,0.000633962,  -969.275E-03,   64.3679E-03,   867.307E-03,0.0329583,0.00605067,-0.000253991
29432,37.0,-47.0,0.0007402260000000001,  -959.167E-03,   64.3665E-03,       1.00890,0.0309513,0.00554007,-0.00027805
29435,36.0,-47.0,0.000853328,  -947.798E-03,   64.3645E-03,       1.15905,0.0288313,0.00502358,-0.000283949
29436,35.0,-47.0,0.000972821,  -935.189E-03,   64.3618E-03,       1.31714,0.0266055,0.00450896,-0.000268779
29441,34.0,-47.0,0.00109823,  -921.378E-03,   64.3584E-03,       1.48257,0.024281,0.0040029,-0.00023068
29442,33.0,-47.0,0.00122906,  -906.424E-03,   64.3543E-03,       1.65467,0.0218643,0.00351135,-0.000169784
29447,32.0,-47.0,0.00136477,  -890.403E-03,   64.3497E-03,       1.83278,0.0193619,0.00303806,-8.76193e-05
29450,31.0,-47.0,0.00150483,  -873.407E-03,   64.3448E-03,       2.01618,0.0167797,0.00258518,1.22924e-05
29451,30.0,-47.0,0.00164868,  -855.545E-03,   64.3398E-03,       2.20418,0.0141239,0.00215242,0.00012497
29456,29.0,-47.0,0.00179572,  -836.938E-03,   64.3351E-03,       2.39602,0.0114009,0.0017378,0.000243943
29457,28.0,-47.0,0.00194537,  -817.720E-03,   64.3311E-03,       2.59097,0.00861782,0.00133742,0.000361939
29462,27.0,-47.0,0.00209703,  -798.034E-03,   64.3279E-03,       2.78825,0.00578295,0.000946272,0.000471338
29465,26.0,-47.0,0.00225008,  -778.033E-03,   64.3259E-03,       2.98709,0.00290576,0.000558435,0.000564962
29466,25.0,-47.0,0.00240391,  -757.873E-03,   64.3253E-03,       3.18672,-3.12249e-06,0.000167825,0.000636688
29471,24.0,-47.0,0.0025579,  -737.712E-03,   64.3260E-03,       3.38635,-0.00293201,-0.000231435,0.000682071
29472,23.0,-47.0,0.00271142,  -717.711E-03,   64.3281E-03,       3.58519,-0.00586856,-0.00064446,0.000698727
29477,22.0,-47.0,0.00286385,  -698.025E-03,   64.3313E-03,       3.78247,-0.00880006,-0.0010753,0.000686519
29480,21.0,-47.0,0.00301459,  -678.807E-03,   64.3353E-03,       3.97742,-0.0117138,-0.00152661,0.000647481
29481,20.0,-47.0,0.00316302,  -660.199E-03,   64.3399E-03,       4.16926,-0.0145973,-0.00199956,0.000585523
29486,19.0,-47.0,0.00330855,  -642.336E-03,   64.3446E-03,       4.35726,-0.0174383,-0.00249374,0.000505954
29487,18.0,-47.0,0.00345058,  -625.340E-03,   64.3492E-03,       4.54066,-0.020225,-0.00300722,0.000414901
29492,17.0,-47.0,0.00358856,  -609.319E-03,   64.3532E-03,       4.71876,-0.0229455,-0.00353674,0.000318697
29495,16.0,-47.0,0.00372191,  -594.365E-03,   64.3566E-03,       4.89086,-0.0255883,-0.0040779,0.000223319
29496,15.0,-47.0,0.00385011,  -580.554E-03,   64.3591E-03,       5.05629,-0.0281418,-0.00462541,0.000133925
29501,14.0,-47.0,0.00397264,  -567.946E-03,   64.3606E-03,       5.21438,-0.0305944,-0.00517341,5.45382e-05
29502,13.0,-47.0,0.00408901,  -556.578E-03,   64.3612E-03,       5.36451,-0.0329347,-0.00571572,-1.2119e-05
29507,12.0,-47.0,0.00419874,  -546.470E-03,   64.3610E-03,       5.50610,-0.0351515,-0.00624608,-6.46317e-05
29510,11.0,-47.0,0.0043014,  -537.624E-03,   64.3600E-03,       5.63858,-0.0372339,-0.00675836,-0.000102776
29511,10.0,-47.0,0.00439658,  -530.019E-03,   64.3585E-03,       5.76141,-0.0391716,-0.00724672,-0.000127308
29516,9.0,-47.0,0.00448388,  -523.617E-03,   64.3567E-03,       5.87410,-0.040955,-0.00770568,-0.000139699
29517,8.0,-47.0,0.00456296,  -518.359E-03,   64.3546E-03,       5.97621,-0.0425751,-0.00813023,-0.000141851
29522,7.0,-47.0,0.00463351,  -514.170E-03,   64.3525E-03,       6.06731,-0.0440239,-0.0085158,-0.000135839
29525,6.0,-47.0,0.00469523,  -510.957E-03,   64.3504E-03,       6.14703,-0.0452942,-0.00885835,-0.000123687
29526,5.0,-47.0,0.00474789,  -508.611E-03,   64.3486E-03,       6.21505,-0.0463798,-0.00915433,-0.000107205
29531,4.0,-47.0,0.00479126,  -507.010E-03,   64.3470E-03,       6.27108,-0.0472754,-0.00940069,-8.78845e-05
29532,3.0,-47.0,0.00482517,  -506.020E-03,   64.3457E-03,       6.31491,-0.0479765,-0.00959495,-6.68598e-05
29537,2.0,-47.0,0.0048495,  -505.497E-03,   64.3447E-03,       6.34634,-0.0484798,-0.00973513,-4.49152e-05
29540,1.0,-47.0,0.00486413,  -505.289E-03,   64.3442E-03,       6.36526,-0.0487827,-0.0098198,-2.25377e-05
29541,-5.355949999999999e-29,-47.0,0.00486901,  -505.241E-03,   64.3440E-03,       6.37157,-0.0488838,-0.00984812,0.0
29546,-1.0,-47.0,0.00486413,  -505.192E-03,   64.3442E-03,       6.36526,-0.0487827,-0.0098198,2.25377e-05
29547,-2.0,-47.0,0.0048495,  -504.985E-03,   64.3447E-03,       6.34634,-0.0484798,-0.00973513,4.49152e-05
29552,-3.0,-47.0,0.00482517,  -504.462E-03,   64.3457E-03,       6.31491,-0.0479765,-0.00959495,6.68598e-05
29555,-4.0,-47.0,0.00479126,  -503.471E-03,   64.3470E-03,       6.27108,-0.0472754,-0.00940069,8.78845e-05
29556,-5.0,-47.0,0.00474789,  -501.871E-03,   64.3486E-03,       6.21505,-0.0463798,-0.00915433,0.000107205
29561,-6.0,-47.0,0.00469523,  -499.525E-03,   64.3504E-03,       6.14703,-0.0452942,-0.00885835,0.000123687
29562,-7.0,-47.0,0.00463351,  -496.311E-03,   64.3525E-03,       6.06731,-0.0440239,-0.0085158,0.000135839
29567,-8.0,-47.0,0.00456296,  -492.122E-03,   64.3546E-03,       5.97621,-0.0425751,-0.00813023,0.000141851
29570,-9.0,-47.0,0.00448388,  -486.865E-03,   64.3567E-03,       5.87410,-0.040955,-0.00770568,0.000139699
29571,-10.0,-47.0,0.00439658,  -480.463E-03,   64.3585E-03,       5.76141,-0.0391716,-0.00724672,0.000127308
29576,-11.0,-47.0,0.0043014,  -472.858E-03,   64.3600E-03,       5.63858,-0.0372339,-0.00675836,0.000102776
29577,-12.0,-47.0,0.00419874,  -464.012E-03,   64.3610E-03,       5.50610,-0.0351515,-0.00624608,6.46317e-05
29582,-13.0,-47.0,0.00408901,  -453.904E-03,   64.3612E-03,       5.36451,-0.0329347,-0.00571572,1.2119e-05
29585,-14.0,-47.0,0.00397264,  -442.536E-03,   64.3606E-03,       5.21438,-0.0305944,-0.00517341,-5.45382e-05
29586,-15.0,-47.0,0.00385011,  -429.927E-03,   64.3591E-03,       5.05629,-0.0281418,-0.00462541,-0.000133925
29591,-16.0,-47.0,0.00372191,  -416.117E-03,   64.3566E-03,       4.89086,-0.0255883,-0.0040779,-0.000223319
29592,-17.0,-47.0,0.00358856,  -401.163E-03,   64.3532E-03,       4.71876,-0.0229455,-0.00353674,-0.000318697
29597,-18.0,-47.0,0.00345058,  -385.142E-03,   64.3492E-03,       4.54066,-0.020225,-0.00300722,-0.000414901
29600,-19.0,-47.0,0.00330855,  -368.146E-03,   64.3446E-03,       4.35726,-0.0174383,-0.00249374,-0.000505954
29601,-20.0,-47.0,0.00316302,  -350.283E-03,   64.3399E-03,       4.16926,-0.0145973,-0.00199956,-0.000585523
29606,-21.0,-47.0,0.00301459,  -331.675E-03,   64.3353E-03,       3.97742,-0.0117138,-0.00152661,-0.000647481
29607,-22.0,-47.0,0.00286385,  -312.457E-03,   64.3313E-03,       3.78247,-0.00880006,-0.0010753,-0.000686519
29612,-23.0,-47.0,0.00271142,  -292.771E-03,   64.3281E-03,       3.58519,-0.00586856,-0.00064446,-0.000698727
29615,-24.0,-47.0,0.0025579,  -272.770E-03,   64.3260E-03,       3.38635,-0.00293201,-0.000231435,-0.000682071
29616,-25.0,-47.0,0.00240391,  -252.609E-03,   64.3253E-03,       3.18672,-3.12249e-06,0.000167825,-0.000636688
29621,-26.0,-47.0,0.00225008,  -232.448E-03,   64.3259E-03,       2.98709,0.00290576,0.000558435,-0.000564962
29622,-27.0,-47.0,0.00209703,  -212.447E-03,   64.3279E-03,       2.78825,0.00578295,0.000946272,-0.000471338
29627,-28.0,-47.0,0.00194537,  -192.762E-03,   64.3311E-03,       2.59097,0.00861782,0.00133742,-0.000361939
29630,-29.0,-47.0,0.00179572,  -173.544E-03,   64.3351E-03,       2.39602,0.0114009,0.0017378,-0.000243943
29631,-30.0,-47.0,0.00164868,  -154.937E-03,   64.3398E-03,       2.20418,0.0141239,0.00215242,-0.00012497
29636,-31.0,-47.0,0.00150483,  -137.074E-03,   64.3448E-03,       2.01618,0.0167797,0.00258518,-1.22924e-05
29637,-32.0,-47.0,0.00136477,  -120.079E-03,   64.3497E-03,       1.83278,0.0193619,0.00303806,8.76193e-05
29642,-33.0,-47.0,0.00122906,  -104.057E-03,   64.3543E-03,       1.65467,0.0218643,0.00351135,0.000169784
29643,-34.0,-47.0,0.00109823,  -89.1035E-03,   64.3584E-03,       1.48257,0.024281,0.0040029,0.00023068
29648,-35.0,-47.0,0.000972821,  -75.2929E-03,   64.3618E-03,       1.31714,0.0266055,0.00450896,0.000268779
29649,-36.0,-47.0,0.000853328,  -62.6835E-03,   64.3645E-03,       1.15905,0.0288313,0.00502358,0.000283949
29654,-37.0,-47.0,0.0007402260000000001,  -51.3150E-03,   64.3665E-03,       1.00890,0.0309513,0.00554007,0.00027805
29657,-38.0,-47.0,0.000633962,  -41.2071E-03,   64.3679E-03,   867.307E-03,0.0329583,0.00605067,0.000253991
29658,-39.0,-47.0,0.000534952,  -32.3605E-03,   64.3686E-03,   734.825E-03,0.0348452,0.00654844,0.00021657
29663,-40.0,-47.0,0.000443575,  -24.7556E-03,   64.3688E-03,   611.987E-03,0.0366055,0.00702797,0.000171958
29664,-41.0,-47.0,0.000360174,  -18.3538E-03,   64.3683E-03,   499.286E-03,0.038234,0.00748736,0.000127873
29669,-42.0,-47.0,0.00028505,  -13.0971E-03,   64.3672E-03,   397.178E-03,0.0397267,0.00793195,9.59311e-05
29672,-43.0,-47.0,0.000218455,  -8.90919E-03,   64.3650E-03,   306.068E-03,0.0410822,0.00837685,8.57209e-05
29673,-44.0,-47.0,0.000160592,  -5.69729E-03,   64.3617E-03,   226.322E-03,0.0423035,0.00885608,0.00011785
29678,-45.0,-47.0,0.000111598,  -3.35208E-03,   64.3566E-03,   158.239E-03,0.0433886,0.00943413,0.000190059
29679,-46.0,-47.0,7.15451e-05,  -1.75136E-03,   64.3496E-03,   102.070E-03,0.0443774,0.0102051,0.000318936
29684,-47.0,-47.0,4.0423299999999996e-05,  -760.737E-06,   64.3406E-03,   57.9910E-03,0.0452329,0.0113735,0.000410001
29687,-48.0,-47.0,1.81081e-05,  -236.701E-06,   64.3306E-03,   26.0756E-03,0.0464586,0.0130203,0.000197468
29688,-49.0,-47.0,4.573219999999999e-06,  -33.7190E-06,   64.3231E-03,   6.60115E-03,0.0486175,0.0147079,-6.0162e-05
29693,-50.0,-47.0,0.0,  -17.0398E-42,   64.3204E-03,           -0.,0.0499251,0.0154704,-0.00010179
29694,50.0,-48.0,0.0,      -1.01048,   64.3108E-03,            0.,0.0500553,0.0149356,-0.00034392
29699,49.0,-48.0,4.27727e-06,      -1.01046,   64.3153E-03,   6.58302E-03,0.0480053,0.0131644,-0.000868673
29702,48.0,-48.0,1.70144e-05,      -1.01027,   64.3263E-03,   25.9342E-03,0.0457971,0.0100367,-0.00140562
29703,47.0,-48.0,3.82342e-05,      -1.00976,   64.3381E-03,   57.4265E-03,0.045277,0.00798639,-0.00110549
29708,46.0,-48.0,6.83654e-05,      -1.00880,   64.3474E-03,   101.169E-03,0.0444844,0.0068702,-0.00064532
29709,45.0,-48.0,0.00010760899999999999,      -1.00722,   64.3548E-03,   157.108E-03,0.0435653,0.00616048,-0.000377262
29714,44.0,-48.0,0.000155988,      -1.00489,   64.3598E-03,   225.018E-03,0.0425104,0.00566406,-0.000206015
29717,43.0,-48.0,0.00021344799999999998,      -1.00170,   64.3633E-03,   304.655E-03,0.0413159,0.00527783,-0.000133417
29718,42.0,-48.0,0.000279839,  -997.535E-03,   64.3654E-03,   395.681E-03,0.0399883,0.00493921,-0.000112793
29723,41.0,-48.0,0.00035495300000000003,  -992.298E-03,   64.3668E-03,   497.728E-03,0.0385227,0.00462177,-0.000125508
29724,40.0,-48.0,0.00043852699999999997,  -985.916E-03,   64.3674E-03,   610.374E-03,0.0369234,0.00430856,-0.000151083
29729,39.0,-48.0,0.000530248,  -978.332E-03,   64.3675E-03,   733.163E-03,0.0351915,0.00399429,-0.000176935
29732,38.0,-48.0,0.000629765,  -969.504E-03,   64.3671E-03,   865.603E-03,0.0333319,0.00367768,-0.00019359
29733,37.0,-48.0,0.000736685,  -959.415E-03,   64.3661E-03,       1.00716,0.0313489,0.00336007,-0.000193871
29738,36.0,-48.0,0.0008505839999999999,  -948.062E-03,   64.3644E-03,       1.15729,0.0292481,0.00304475,-0.000173258
29739,35.0,-48.0,0.0009710039999999999,  -935.466E-03,   64.3619E-03,       1.31538,0.0270348,0.0027344,-0.000128403
29744,34.0,-48.0,0.00109746,  -921.663E-03,   64.3586E-03,       1.48083,0.0247148,0.00243229,-5.82272e-05
29747,33.0,-48.0,0.00122944,  -906.710E-03,   64.3546E-03,       1.65298,0.0222937,0.00214011,3.69112e-05
29748,32.0,-48.0,0.00136641,  -890.682E-03,   64.3499E-03,       1.83117,0.0197778,0.00185924,0.000154421
29753,31.0,-48.0,0.00150782,  -873.670E-03,   64.3448E-03,       2.01471,0.0171738,0.00158943,0.000289984
29754,30.0,-48.0,0.00165308,  -855.783E-03,   64.3395E-03,       2.20287,0.0144896,0.00132986,0.000437351
29759,29.0,-48.0,0.00180162,  -837.141E-03,   64.3345E-03,       2.39492,0.0117344,0.00107849,0.00058894
29762,28.0,-48.0,0.00195283,  -817.880E-03,   64.3301E-03,       2.59010,0.00891915,0.000832959,0.000736215
29763,27.0,-48.0,0.00210609,  -798.145E-03,   64.3267E-03,       2.78765,0.0060567,0.000590349,0.000870494
29768,26.0,-48.0,0.00226079,  -778.089E-03,   64.3245E-03,       2.98679,0.00316137,0.000347815,0.000983653
29769,25.0,-48.0,0.00241629,  -757.871E-03,   64.3238E-03,       3.18672,0.000248693,0.000102561,0.00106892
29774,24.0,-48.0,0.00257197,  -737.652E-03,   64.3246E-03,       3.38664,-0.00266533,-0.000147832,0.00112148
29777,23.0,-48.0,0.0027272,  -717.596E-03,   64.3268E-03,       3.58578,-0.00556498,-0.000405408,0.00113893
29778,22.0,-48.0,0.00288135,  -697.860E-03,   64.3303E-03,       3.78333,-0.00843557,-0.000671709,0.00112139
29783,21.0,-48.0,0.0030338,  -678.599E-03,   64.3347E-03,       3.97852,-0.011264,-0.000947795,0.00107148
29784,20.0,-48.0,0.00318392,  -659.957E-03,   64.3396E-03,       4.17057,-0.014039,-0.0012342,0.000993853
29789,19.0,-48.0,0.00333112,  -642.070E-03,   64.3446E-03,       4.35872,-0.0167513,-0.00153095,0.000894744
29792,18.0,-48.0,0.0034748,  -625.058E-03,   64.3494E-03,       4.54225,-0.019393,-0.00183753,0.000781246
29793,17.0,-48.0,0.00361438,  -609.031E-03,   64.3535E-03,       4.72044,-0.0219574,-0.00215288,0.000660648
29798,16.0,-48.0,0.00374929,  -594.079E-03,   64.3568E-03,       4.89258,-0.0244383,-0.00247541,0.000539806
29799,15.0,-48.0,0.00387899,  -580.277E-03,   64.3591E-03,       5.05802,-0.0268294,-0.00280301,0.000424634
29804,14.0,-48.0,0.00400296,  -567.683E-03,   64.3603E-03,       5.21609,-0.0291242,-0.00313309,0.000319758
29807,13.0,-48.0,0.0041207,  -556.333E-03,   64.3605E-03,       5.36619,-0.0313152,-0.00346264,0.000228342
29808,12.0,-48.0,0.00423173,  -546.246E-03,   64.3598E-03,       5.50773,-0.0333945,-0.00378832,0.000152085
29813,11.0,-48.0,0.00433561,  -537.422E-03,   64.3583E-03,       5.64014,-0.0353532,-0.00410652,9.13548e-05
29814,10.0,-48.0,0.00443191,  -529.840E-03,   64.3563E-03,       5.76291,-0.0371823,-0.00441351,4.54269e-05
29819,9.0,-48.0,0.00452026,  -523.459E-03,   64.3539E-03,       5.87554,-0.0388722,-0.00470546,1.27776e-05
29822,8.0,-48.0,0.00460028,  -518.223E-03,   64.3513E-03,       5.97758,-0.0404137,-0.00497863,-8.60582e-06
29823,7.0,-48.0,0.00467167,  -514.054E-03,   64.3487E-03,       6.06862,-0.0417975,-0.00522938,-2.09371e-05
29828,6.0,-48.0,0.00473413,  -510.860E-03,   64.3462E-03,       6.14829,-0.0430154,-0.0054543,-2.63897e-05
29829,5.0,-48.0,0.00478742,  -508.532E-03,   64.3440E-03,       6.21626,-0.0440595,-0.00565027,-2.69186e-05
29834,4.0,-48.0,0.00483131,  -506.948E-03,   64.3421E-03,       6.27226,-0.0449233,-0.00581455,-2.41497e-05
29837,3.0,-48.0,0.00486563,  -505.975E-03,   64.3405E-03,       6.31606,-0.0456011,-0.00594482,-1.93341e-05
29838,2.0,-48.0,0.00489025,  -505.467E-03,   64.3394E-03,       6.34748,-0.0460884,-0.00603922,-1.33577e-05
29843,1.0,-48.0,0.00490506,  -505.275E-03,   64.3388E-03,       6.36638,-0.0463821,-0.0060964,-6.79584e-06
29844,3.8318299999999995e-29,-48.0,0.00491,  -505.241E-03,   64.3385E-03,       6.37269,-0.0464802,-0.00611556,0.0
29849,-1.0,-48.0,0.00490506,  -505.207E-03,   64.3388E-03,       6.36638,-0.0463821,-0.0060964,6.79584e-06
29852,-2.0,-48.0,0.00489025,  -505.015E-03,   64.3394E-03,       6.34748,-0.0460884,-0.00603922,1.33577e-05
29853,-3.0,-48.0,0.00486563,  -504.507E-03,   64.3405E-03,       6.31606,-0.0456011,-0.00594482,1.93341e-05
29858,-4.0,-48.0,0.00483131,  -503.533E-03,   64.3421E-03,       6.27226,-0.0449233,-0.00581455,2.41497e-05
29859,-5.0,-48.0,0.00478742,  -501.949E-03,   64.3440E-03,       6.21626,-0.0440595,-0.00565027,2.69186e-05
29864,-6.0,-48.0,0.00473413,  -499.621E-03,   64.3462E-03,       6.14829,-0.0430154,-0.0054543,2.63897e-05
29867,-7.0,-48.0,0.00467167,  -496.427E-03,   64.3487E-03,       6.06862,-0.0417975,-0.00522938,2.09371e-05
29868,-8.0,-48.0,0.00460028,  -492.259E-03,   64.3513E-03,       5.97758,-0.0404137,-0.00497863,8.60582e-06
29873,-9.0,-48.0,0.00452026,  -487.022E-03,   64.3539E-03,       5.87554,-0.0388722,-0.00470546,-1.27776e-05
29874,-10.0,-48.0,0.00443191,  -480.642E-03,   64.3563E-03,       5.76291,-0.0371823,-0.00441351,-4.54269e-05
29879,-11.0,-48.0,0.00433561,  -473.060E-03,   64.3583E-03,       5.64014,-0.0353532,-0.00410652,-9.13548e-05
29882,-12.0,-48.0,0.00423173,  -464.236E-03,   64.3598E-03,       5.50773,-0.0333945,-0.00378832,-0.000152085
29883,-13.0,-48.0,0.0041207,  -454.149E-03,   64.3605E-03,       5.36619,-0.0313152,-0.00346264,-0.000228342
29888,-14.0,-48.0,0.00400296,  -442.799E-03,   64.3603E-03,       5.21609,-0.0291242,-0.00313309,-0.000319758
29889,-15.0,-48.0,0.00387899,  -430.204E-03,   64.3591E-03,       5.05802,-0.0268294,-0.00280301,-0.000424634
29894,-16.0,-48.0,0.00374929,  -416.403E-03,   64.3568E-03,       4.89258,-0.0244383,-0.00247541,-0.000539806
29897,-17.0,-48.0,0.00361438,  -401.451E-03,   64.3535E-03,       4.72044,-0.0219574,-0.00215288,-0.000660648
29898,-18.0,-48.0,0.0034748,  -385.423E-03,   64.3494E-03,       4.54225,-0.019393,-0.00183753,-0.000781246
29903,-19.0,-48.0,0.00333112,  -368.412E-03,   64.3446E-03,       4.35872,-0.0167513,-0.00153095,-0.000894744
29904,-20.0,-48.0,0.00318392,  -350.525E-03,   64.3396E-03,       4.17057,-0.014039,-0.0012342,-0.000993853
29909,-21.0,-48.0,0.0030338,  -331.883E-03,   64.3347E-03,       3.97852,-0.011264,-0.000947795,-0.00107148
29912,-22.0,-48.0,0.00288135,  -312.621E-03,   64.3303E-03,       3.78333,-0.00843557,-0.000671709,-0.00112139
29913,-23.0,-48.0,0.0027272,  -292.886E-03,   64.3268E-03,       3.58578,-0.00556498,-0.000405408,-0.00113893
29918,-24.0,-48.0,0.00257197,  -272.829E-03,   64.3246E-03,       3.38664,-0.00266533,-0.000147832,-0.00112148
29919,-25.0,-48.0,0.00241629,  -252.611E-03,   64.3238E-03,       3.18672,0.000248693,0.000102561,-0.00106892
29924,-26.0,-48.0,0.00226079,  -232.393E-03,   64.3245E-03,       2.98679,0.00316137,0.000347815,-0.000983653
29927,-27.0,-48.0,0.00210609,  -212.337E-03,   64.3267E-03,       2.78765,0.0060567,0.000590349,-0.000870494
29928,-28.0,-48.0,0.00195283,  -192.601E-03,   64.3301E-03,       2.59010,0.00891915,0.000832959,-0.000736215
29933,-29.0,-48.0,0.00180162,  -173.340E-03,   64.3345E-03,       2.39492,0.0117344,0.00107849,-0.00058894
29934,-30.0,-48.0,0.00165308,  -154.699E-03,   64.3395E-03,       2.20287,0.0144896,0.00132986,-0.000437351
29939,-31.0,-48.0,0.00150782,  -136.812E-03,   64.3448E-03,       2.01471,0.0171738,0.00158943,-0.000289984
29942,-32.0,-48.0,0.00136641,  -119.800E-03,   64.3499E-03,       1.83117,0.0197778,0.00185924,-0.000154421
29943,-33.0,-48.0,0.00122944,  -103.772E-03,   64.3546E-03,       1.65298,0.0222937,0.00214011,-3.69112e-05
29948,-34.0,-48.0,0.00109746,  -88.8193E-03,   64.3586E-03,       1.48083,0.0247148,0.00243229,5.82272e-05
29949,-35.0,-48.0,0.0009710039999999999,  -75.0161E-03,   64.3619E-03,       1.31538,0.0270348,0.0027344,0.000128403
29954,-36.0,-48.0,0.0008505839999999999,  -62.4193E-03,   64.3644E-03,       1.15729,0.0292481,0.00304475,0.000173258
29957,-37.0,-48.0,0.000736685,  -51.0667E-03,   64.3661E-03,       1.00716,0.0313489,0.00336007,0.000193871
29958,-38.0,-48.0,0.000629765,  -40.9773E-03,   64.3671E-03,   865.603E-03,0.0333319,0.00367768,0.00019359
29963,-39.0,-48.0,0.000530248,  -32.1501E-03,   64.3675E-03,   733.163E-03,0.0351915,0.00399429,0.000176935
29964,-40.0,-48.0,0.00043852699999999997,  -24.5653E-03,   64.3674E-03,   610.374E-03,0.0369234,0.00430856,0.000151083
29969,-41.0,-48.0,0.00035495300000000003,  -18.1835E-03,   64.3668E-03,   497.728E-03,0.0385227,0.00462177,0.000125508
29972,-42.0,-48.0,0.000279839,  -12.9468E-03,   64.3654E-03,   395.681E-03,0.0399883,0.00493921,0.000112793
29973,-43.0,-48.0,0.00021344799999999998,  -8.77949E-03,   64.3633E-03,   304.655E-03,0.0413159,0.00527783,0.000133417
29978,-44.0,-48.0,0.000155988,  -5.58824E-03,   64.3598E-03,   225.018E-03,0.0425104,0.00566406,0.000206015
29979,-45.0,-48.0,0.00010760899999999999,  -3.26538E-03,   64.3548E-03,   157.108E-03,0.0435653,0.00616048,0.000377262
29984,-46.0,-48.0,6.83654e-05,  -1.68669E-03,   64.3474E-03,   101.169E-03,0.0444844,0.0068702,0.00064532
29987,-47.0,-48.0,3.82342e-05,  -718.800E-06,   64.3381E-03,   57.4265E-03,0.045277,0.00798639,0.00110549
29988,-48.0,-48.0,1.70144e-05,  -214.985E-06,   64.3263E-03,   25.9342E-03,0.0457971,0.0100367,0.00140562
29993,-49.0,-48.0,4.27727e-06,  -24.5317E-06,   64.3153E-03,   6.58302E-03,0.0480053,0.0131644,0.000868673
29994,-50.0,-48.0,0.0,   37.3222E-42,   64.3108E-03,            0.,0.0500553,0.0149356,0.00034392
29999,50.0,-49.0,0.0,      -1.01048,   64.3073E-03,            0.,0.0458324,0.0106817,-0.00277816
30002,49.0,-49.0,3.6803500000000003e-06,      -1.01048,   64.3141E-03,   6.30479E-03,0.0463609,0.00845752,-0.00336772
30003,48.0,-49.0,1.4850999999999999e-05,      -1.01033,   64.3286E-03,   24.5743E-03,0.0471242,0.00528576,-0.00306586
30008,47.0,-49.0,3.4555e-05,      -1.00987,   64.3422E-03,   55.1807E-03,0.0470324,0.00392334,-0.00176729
30009,46.0,-49.0,6.348e-05,      -1.00895,   64.3539E-03,   98.4106E-03,0.0463636,0.00322287,-0.00104247
30014,45.0,-49.0,0.000101755,      -1.00743,   64.3625E-03,   153.980E-03,0.0455243,0.00277436,-0.00054952
30017,44.0,-49.0,0.00014945100000000002,      -1.00515,   64.3686E-03,   221.697E-03,0.0444722,0.00248515,-0.000267599
30018,43.0,-49.0,0.00020647,      -1.00200,   64.3726E-03,   301.212E-03,0.0432688,0.00226336,-0.000103144
30023,42.0,-49.0,0.000272659,  -997.878E-03,   64.3752E-03,   392.182E-03,0.0419015,0.0020868,-1.63829e-05
30024,41.0,-49.0,0.000347788,  -992.679E-03,   64.3767E-03,   494.203E-03,0.0403856,0.00193056,2.79993e-05
30029,40.0,-49.0,0.00043158,  -986.332E-03,   64.3775E-03,   606.848E-03,0.0387206,0.00178709,5.23738e-05
30032,39.0,-49.0,0.00052371,  -978.779E-03,   64.3775E-03,   729.652E-03,0.0369136,0.00165052,7.21641e-05
30033,38.0,-49.0,0.0006238109999999999,  -969.979E-03,   64.3770E-03,   862.121E-03,0.0349682,0.00151823,9.88663e-05
30038,37.0,-49.0,0.00073148,  -959.912E-03,   64.3758E-03,       1.00373,0.0328901,0.00139002,0.000139669
30039,36.0,-49.0,0.000846278,  -948.576E-03,   64.3738E-03,       1.15392,0.0306843,0.00126504,0.00019996
30044,35.0,-49.0,0.000967738,  -935.988E-03,   64.3708E-03,       1.31211,0.0283569,0.00114416,0.000282312
30047,34.0,-49.0,0.00109536,  -922.184E-03,   64.3668E-03,       1.47769,0.025914,0.00102681,0.000387649
30048,33.0,-49.0,0.00122863,  -907.220E-03,   64.3619E-03,       1.65002,0.0233629,0.000913346,0.00051454
30053,32.0,-49.0,0.00136699,  -891.169E-03,   64.3563E-03,       1.82843,0.0207123,0.000802818,0.000659687
30054,31.0,-49.0,0.00150988,  -874.121E-03,   64.3500E-03,       2.01224,0.0179723,0.000694759,0.000817726
30059,30.0,-49.0,0.00165671,  -856.184E-03,   64.3437E-03,       2.20071,0.0151554,0.000587909,0.000981675
30062,29.0,-49.0,0.0018069,  -837.480E-03,   64.3375E-03,       2.39313,0.0122762,0.000481392,0.00114329
30063,28.0,-49.0,0.00195981,  -818.145E-03,   64.3321E-03,       2.58872,0.00935206,0.000374092,0.00129372
30068,27.0,-49.0,0.00211483,  -798.327E-03,   64.3279E-03,       2.78671,0.00640232,0.000265337,0.00142428
30069,26.0,-49.0,0.00227133,  -778.180E-03,   64.3253E-03,       2.98631,0.00344788,0.000154582,0.00152721
30074,25.0,-49.0,0.00242868,  -757.869E-03,   64.3244E-03,       3.18671,0.000510162,4.16962e-05,0.00159646
30077,24.0,-49.0,0.00258622,  -737.557E-03,   64.3254E-03,       3.38712,-0.00239007,-7.32746e-05,0.00162821
30078,23.0,-49.0,0.00274332,  -717.410E-03,   64.3281E-03,       3.58672,-0.005234,-0.000190072,0.00162126
30083,22.0,-49.0,0.00289934,  -697.591E-03,   64.3324E-03,       3.78471,-0.00800577,-0.000308418,0.00157706
30084,21.0,-49.0,0.00305366,  -678.256E-03,   64.3377E-03,       3.98030,-0.0106933,-0.000428068,0.00149949
30089,20.0,-49.0,0.00320563,  -659.552E-03,   64.3437E-03,       4.17271,-0.0132885,-0.000548899,0.00139437
30092,19.0,-49.0,0.00335466,  -641.616E-03,   64.3499E-03,       4.36119,-0.0157871,-0.000670921,0.00126883
30093,18.0,-49.0,0.00350013,  -624.568E-03,   64.3557E-03,       4.54498,-0.0181876,-0.000794242,0.00113062
30098,17.0,-49.0,0.00364145,  -608.518E-03,   64.3608E-03,       4.72338,-0.0204907,-0.000919006,0.000987334
30099,16.0,-49.0,0.00377806,  -593.556E-03,   64.3649E-03,       4.89569,-0.0226982,-0.0010453,0.000845873
30104,15.0,-49.0,0.0039094,  -579.755E-03,   64.3678E-03,       5.06125,-0.0248113,-0.00117306,0.000711939
30107,14.0,-49.0,0.00403494,  -567.171E-03,   64.3695E-03,       5.21941,-0.0268305,-0.00130199,0.000589773
30108,13.0,-49.0,0.00415417,  -555.839E-03,   64.3700E-03,       5.36957,-0.0287545,-0.00143153,0.000482054
30113,12.0,-49.0,0.00426662,  -545.778E-03,   64.3694E-03,       5.51113,-0.0305803,-0.0015608,0.000389968
30114,11.0,-49.0,0.00437182,  -536.983E-03,   64.3679E-03,       5.64356,-0.0323027,-0.00168862,0.000313405
30119,10.0,-49.0,0.00446936,  -529.434E-03,   64.3658E-03,       5.76632,-0.0339151,-0.00181357,0.00025124
30120,9.0,-49.0,0.00455883,  -523.090E-03,   64.3632E-03,       5.87894,-0.0354096,-0.00193401,0.000201651
30125,8.0,-49.0,0.00463989,  -517.892E-03,   64.3604E-03,       5.98097,-0.0367775,-0.00204818,0.000162439
30126,7.0,-49.0,0.00471219,  -513.762E-03,   64.3576E-03,       6.07199,-0.0380099,-0.00215425,0.00013131
30131,6.0,-49.0,0.00477546,  -510.609E-03,   64.3549E-03,       6.15165,-0.0390981,-0.00225044,0.000106094
30134,5.0,-49.0,0.00482943,  -508.322E-03,   64.3525E-03,       6.21961,-0.0400337,-0.00233503,8.49119e-05
30135,4.0,-49.0,0.00487389,  -506.779E-03,   64.3505E-03,       6.27560,-0.0408097,-0.0024065,6.6255e-05
30140,3.0,-49.0,0.00490865,  -505.847E-03,   64.3488E-03,       6.31939,-0.0414198,-0.00246352,4.90176e-05
30141,2.0,-49.0,0.00493358,  -505.382E-03,   64.3476E-03,       6.35080,-0.0418591,-0.00250504,3.24699e-05
30146,1.0,-49.0,0.00494858,  -505.232E-03,   64.3469E-03,       6.36970,-0.0421241,-0.00253026,1.61955e-05
30149,2.91425e-29,-49.0,0.00495359,  -505.241E-03,   64.3466E-03,       6.37601,-0.0422127,-0.00253873,-2.27374e-13
30150,-1.0,-49.0,0.00494858,  -505.250E-03,   64.3469E-03,       6.36970,-0.0421241,-0.00253026,-1.61955e-05
30155,-2.0,-49.0,0.00493358,  -505.100E-03,   64.3476E-03,       6.35080,-0.0418591,-0.00250504,-3.24699e-05
30156,-3.0,-49.0,0.00490865,  -504.634E-03,   64.3488E-03,       6.31939,-0.0414198,-0.00246352,-4.90176e-05
30161,-4.0,-49.0,0.00487389,  -503.702E-03,   64.3505E-03,       6.27560,-0.0408097,-0.0024065,-6.6255e-05
30164,-5.0,-49.0,0.00482943,  -502.160E-03,   64.3525E-03,       6.21961,-0.0400337,-0.00233503,-8.49119e-05
30165,-6.0,-49.0,0.00477546,  -499.873E-03,   64.3549E-03,       6.15165,-0.0390981,-0.00225044,-0.000106094
30170,-7.0,-49.0,0.00471219,  -496.719E-03,   64.3576E-03,       6.07199,-0.0380099,-0.00215425,-0.00013131
30171,-8.0,-49.0,0.00463989,  -492.590E-03,   64.3604E-03,       5.98097,-0.0367775,-0.00204818,-0.000162439
30176,-9.0,-49.0,0.00455883,  -487.392E-03,   64.3632E-03,       5.87894,-0.0354096,-0.00193401,-0.000201651
30179,-10.0,-49.0,0.00446936,  -481.048E-03,   64.3658E-03,       5.76632,-0.0339151,-0.00181357,-0.00025124
30180,-11.0,-49.0,0.00437182,  -473.499E-03,   64.3679E-03,       5.64356,-0.0323027,-0.00168862,-0.000313405
30185,-12.0,-49.0,0.00426662,  -464.704E-03,   64.3694E-03,       5.51113,-0.0305803,-0.0015608,-0.000389968
30186,-13.0,-49.0,0.00415417,  -454.642E-03,   64.3700E-03,       5.36957,-0.0287545,-0.00143153,-0.000482054
30191,-14.0,-49.0,0.00403494,  -443.311E-03,   64.3695E-03,       5.21941,-0.0268305,-0.00130199,-0.000589773
30194,-15.0,-49.0,0.0039094,  -430.727E-03,   64.3678E-03,       5.06125,-0.0248113,-0.00117306,-0.000711939
30195,-16.0,-49.0,0.00377806,  -416.926E-03,   64.3649E-03,       4.89569,-0.0226982,-0.0010453,-0.000845873
30200,-17.0,-49.0,0.00364145,  -401.964E-03,   64.3608E-03,       4.72338,-0.0204907,-0.000919006,-0.000987334
30201,-18.0,-49.0,0.00350013,  -385.913E-03,   64.3557E-03,       4.54498,-0.0181876,-0.000794242,-0.00113062
30206,-19.0,-49.0,0.00335466,  -368.866E-03,   64.3499E-03,       4.36119,-0.0157871,-0.000670921,-0.00126883
30209,-20.0,-49.0,0.00320563,  -350.929E-03,   64.3437E-03,       4.17271,-0.0132885,-0.000548899,-0.00139437
30210,-21.0,-49.0,0.00305366,  -332.225E-03,   64.3377E-03,       3.98030,-0.0106933,-0.000428068,-0.00149949
30215,-22.0,-49.0,0.00289934,  -312.890E-03,   64.3324E-03,       3.78471,-0.00800577,-0.000308418,-0.00157706
30216,-23.0,-49.0,0.00274332,  -293.072E-03,   64.3281E-03,       3.58672,-0.005234,-0.000190072,-0.00162126
30221,-24.0,-49.0,0.00258622,  -272.925E-03,   64.3254E-03,       3.38712,-0.00239007,-7.32746e-05,-0.00162821
30224,-25.0,-49.0,0.00242868,  -252.613E-03,   64.3244E-03,       3.18671,0.000510162,4.16962e-05,-0.00159646
30225,-26.0,-49.0,0.00227133,  -232.301E-03,   64.3253E-03,       2.98631,0.00344788,0.000154582,-0.00152721
30230,-27.0,-49.0,0.00211483,  -212.155E-03,   64.3279E-03,       2.78671,0.00640232,0.000265337,-0.00142428
30231,-28.0,-49.0,0.00195981,  -192.337E-03,   64.3321E-03,       2.58872,0.00935206,0.000374092,-0.00129372
30236,-29.0,-49.0,0.0018069,  -173.002E-03,   64.3375E-03,       2.39313,0.0122762,0.000481392,-0.00114329
30239,-30.0,-49.0,0.00165671,  -154.298E-03,   64.3437E-03,       2.20071,0.0151554,0.000587909,-0.000981675
30240,-31.0,-49.0,0.00150988,  -136.361E-03,   64.3500E-03,       2.01224,0.0179723,0.000694759,-0.000817726
30245,-32.0,-49.0,0.00136699,  -119.313E-03,   64.3563E-03,       1.82843,0.0207123,0.000802818,-0.000659687
30246,-33.0,-49.0,0.00122863,  -103.262E-03,   64.3619E-03,       1.65002,0.0233629,0.000913346,-0.00051454
30251,-34.0,-49.0,0.00109536,  -88.2976E-03,   64.3668E-03,       1.47769,0.025914,0.00102681,-0.000387649
30254,-35.0,-49.0,0.000967738,  -74.4940E-03,   64.3708E-03,       1.31211,0.0283569,0.00114416,-0.000282312
30255,-36.0,-49.0,0.000846278,  -61.9059E-03,   64.3738E-03,       1.15392,0.0306843,0.00126504,-0.00019996
30260,-37.0,-49.0,0.00073148,  -50.5698E-03,   64.3758E-03,       1.00373,0.0328901,0.00139002,-0.000139669
30261,-38.0,-49.0,0.0006238109999999999,  -40.5029E-03,   64.3770E-03,   862.121E-03,0.0349682,0.00151823,-9.88663e-05
30266,-39.0,-49.0,0.00052371,  -31.7033E-03,   64.3775E-03,   729.652E-03,0.0369136,0.00165052,-7.21641e-05
30269,-40.0,-49.0,0.00043158,  -24.1498E-03,   64.3775E-03,   606.848E-03,0.0387206,0.00178709,-5.23738e-05
30270,-41.0,-49.0,0.000347788,  -17.8028E-03,   64.3767E-03,   494.203E-03,0.0403856,0.00193056,-2.79993e-05
30275,-42.0,-49.0,0.000272659,  -12.6040E-03,   64.3752E-03,   392.182E-03,0.0419015,0.0020868,1.63829e-05
30276,-43.0,-49.0,0.00020647,  -8.47747E-03,   64.3726E-03,   301.212E-03,0.0432688,0.00226336,0.000103144
30281,-44.0,-49.0,0.00014945100000000002,  -5.33102E-03,   64.3686E-03,   221.697E-03,0.0444722,0.00248515,0.000267599
30284,-45.0,-49.0,0.000101755,  -3.05479E-03,   64.3625E-03,   153.980E-03,0.0455243,0.00277436,0.00054952
30285,-46.0,-49.0,6.348e-05,  -1.52753E-03,   64.3539E-03,   98.4106E-03,0.0463636,0.00322287,0.00104247
30290,-47.0,-49.0,3.4555e-05,  -608.807E-06,   64.3422E-03,   55.1807E-03,0.0470324,0.00392334,0.00176729
30291,-48.0,-49.0,1.4850999999999999e-05,  -155.115E-06,   64.3286E-03,   24.5743E-03,0.0471242,0.00528576,0.00306586
30296,-49.0,-49.0,3.6803500000000003e-06,  -2.18502E-06,   64.3141E-03,   6.30479E-03,0.0463609,0.00845752,0.00336772
30299,-50.0,-49.0,0.0,   115.426E-42,   64.3073E-03,            0.,0.0458324,0.0106817,0.00277816
30300,50.0,-50.0,0.0,      -1.01048,   64.3129E-03,            0.,0.0418089,0.00687014,-0.00486847
30305,49.0,-50.0,1.97102e-06,      -1.01052,   64.3251E-03,   4.40258E-03,0.0453491,0.00497514,-0.00509935
30306,48.0,-50.0,1.07468e-05,      -1.01045,   64.3479E-03,   20.5823E-03,0.0486832,0.0025867,-0.00385288
30311,47.0,-50.0,2.87642e-05,      -1.01008,   64.3689E-03,   50.2146E-03,0.0484185,0.00187247,-0.00204924
30314,46.0,-50.0,5.6269899999999995e-05,      -1.00925,   64.3859E-03,   92.7236E-03,0.0479489,0.00146365,-0.00124786
30315,45.0,-50.0,9.353479999999999e-05,      -1.00781,   64.3980E-03,   147.955E-03,0.0470866,0.00120568,-0.000610076
30320,44.0,-50.0,0.000140508,      -1.00562,   64.4060E-03,   215.472E-03,0.0460521,0.00105354,-0.00028496
30321,43.0,-50.0,0.00019710299999999999,      -1.00255,   64.4109E-03,   294.931E-03,0.0448118,0.000929451,-5.27482e-05
30326,42.0,-50.0,0.000263122,  -998.489E-03,   64.4133E-03,   385.910E-03,0.0434057,0.00084584,7.0228e-05
30329,41.0,-50.0,0.00033832400000000004,  -993.351E-03,   64.4143E-03,   487.996E-03,0.0418307,0.000770121,0.000156037
30330,40.0,-50.0,0.00042241,  -987.056E-03,   64.4139E-03,   600.739E-03,0.0401,0.000709473,0.000211328
30335,39.0,-50.0,0.000515037,  -979.547E-03,   64.4126E-03,   723.670E-03,0.0382171,0.000653042,0.00026125
30336,38.0,-50.0,0.000615825,  -970.783E-03,   64.4103E-03,   856.292E-03,0.0361894,0.000602004,0.000314578
30341,37.0,-50.0,0.000724354,  -960.741E-03,   64.4070E-03,   998.080E-03,0.0340221,0.000554489,0.000379609
30344,36.0,-50.0,0.000840175,  -949.419E-03,   64.4026E-03,       1.14848,0.0317216,0.000508961,0.00046245
30345,35.0,-50.0,0.000962805,  -936.832E-03,   64.3970E-03,       1.30693,0.0292943,0.000466338,0.000564258
30350,34.0,-50.0,0.00109174,  -923.015E-03,   64.3902E-03,       1.47280,0.0267477,0.00042428,0.000687022
30351,33.0,-50.0,0.00122643,  -908.021E-03,   64.3823E-03,       1.64547,0.0240906,0.000383899,0.000827496
30356,32.0,-50.0,0.00136634,  -891.923E-03,   64.3734E-03,       1.82428,0.0213334,0.000342901,0.000983093
30359,31.0,-50.0,0.00151088,  -874.811E-03,   64.3640E-03,       2.00853,0.018489,0.000301899,0.00114701
30360,30.0,-50.0,0.00165945,  -856.792E-03,   64.3546E-03,       2.19752,0.0155728,0.000259091,0.00131277
30365,29.0,-50.0,0.00181144,  -837.990E-03,   64.3457E-03,       2.39050,0.0126032,0.000214804,0.00147134
30366,28.0,-50.0,0.00196624,  -818.541E-03,   64.3379E-03,       2.58670,0.00960101,0.000168035,0.00161445
30371,27.0,-50.0,0.0021232,  -798.597E-03,   64.3318E-03,       2.78534,0.00658958,0.000119247,0.00173339
30374,26.0,-50.0,0.00228168,  -778.317E-03,   64.3280E-03,       2.98561,0.00359337,6.83191e-05,0.00182122
30375,25.0,-50.0,0.00244103,  -757.867E-03,   64.3268E-03,       3.18671,0.000636922,1.60214e-05,0.00187248
30380,24.0,-50.0,0.00260061,  -737.416E-03,   64.3281E-03,       3.38781,-0.00225667,-3.7152e-05,0.0018844
30381,23.0,-50.0,0.00275976,  -717.136E-03,   64.3320E-03,       3.58808,-0.00506723,-9.03382e-05,0.0018567
30386,22.0,-50.0,0.00291783,  -697.191E-03,   64.3381E-03,       3.78672,-0.00777876,-0.000142942,0.00179186
30389,21.0,-50.0,0.00307419,  -677.743E-03,   64.3459E-03,       3.98292,-0.0103802,-0.000194396,0.00169462
30390,20.0,-50.0,0.00322819,  -658.940E-03,   64.3547E-03,       4.17590,-0.0128656,-0.000244446,0.00157155
30395,19.0,-50.0,0.00337921,  -640.922E-03,   64.3639E-03,       4.36488,-0.0152338,-0.000293037,0.00143025
30396,18.0,-50.0,0.00352663,  -623.811E-03,   64.3729E-03,       4.54912,-0.0174873,-0.000340365,0.00127871
30401,17.0,-50.0,0.00366986,  -607.715E-03,   64.3811E-03,       4.72791,-0.0196313,-0.000386774,0.00112451
30404,16.0,-50.0,0.00380832,  -592.724E-03,   64.3882E-03,       4.90056,-0.0216719,-0.000432691,0.000974336
30405,15.0,-50.0,0.00394145,  -578.911E-03,   64.3938E-03,       5.06640,-0.0236148,-0.00047853,0.000833487
30410,14.0,-50.0,0.0040687,  -566.330E-03,   64.3980E-03,       5.22480,-0.0254645,-0.000524607,0.000705706
30411,13.0,-50.0,0.00418956,  -555.014E-03,   64.4008E-03,       5.37515,-0.0272232,-0.000571083,0.000593141
30416,12.0,-50.0,0.00430355,  -544.979E-03,   64.4021E-03,       5.51688,-0.0288908,-0.000617918,0.000496464
30419,11.0,-50.0,0.0044102,  -536.222E-03,   64.4024E-03,       5.64944,-0.0304643,-0.000664864,0.000415119
30420,10.0,-50.0,0.00450908,  -528.718E-03,   64.4018E-03,       5.77232,-0.0319387,-0.000711471,0.000347628
30425,9.0,-50.0,0.00459978,  -522.427E-03,   64.4005E-03,       5.88503,-0.0333073,-0.000757116,0.000291929
30426,8.0,-50.0,0.00468196,  -517.288E-03,   64.3988E-03,       5.98714,-0.034562,-0.000801049,0.000245686
30431,7.0,-50.0,0.00475526,  -513.223E-03,   64.3969E-03,       6.07823,-0.0356944,-0.000842442,0.000206564
30434,6.0,-50.0,0.0048194,  -510.138E-03,   64.3950E-03,       6.15794,-0.0366958,-0.00088044,0.000172431
30435,5.0,-50.0,0.00487412,  -507.924E-03,   64.3932E-03,       6.22595,-0.0375581,-0.000914211,0.000141495
30440,4.0,-50.0,0.00491919,  -506.457E-03,   64.3917E-03,       6.28198,-0.0382741,-0.000942988,0.000112372
30441,3.0,-50.0,0.00495444,  -505.603E-03,   64.3904E-03,       6.32580,-0.0388376,-0.000966103,8.40975e-05
30446,2.0,-50.0,0.00497972,  -505.218E-03,   64.3895E-03,       6.35723,-0.0392437,-0.000983014,5.60887e-05
30449,1.0,-50.0,0.00499492,  -505.150E-03,   64.3889E-03,       6.37614,-0.0394887,-0.000993323,2.80739e-05
30450,-8.864819999999999e-29,-50.0,0.005,  -505.241E-03,   64.3888E-03,       6.38246,-0.0395706,-0.000996786,-4.54747e-13
30455,-1.0,-50.0,0.00499492,  -505.332E-03,   64.3889E-03,       6.37614,-0.0394887,-0.000993323,-2.80739e-05
30456,-2.0,-50.0,0.00497972,  -505.263E-03,   64.3895E-03,       6.35723,-0.0392437,-0.000983014,-5.60887e-05
30461,-3.0,-50.0,0.00495444,  -504.878E-03,   64.3904E-03,       6.32580,-0.0388376,-0.000966103,-8.40975e-05
30464,-4.0,-50.0,0.00491919,  -504.025E-03,   64.3917E-03,       6.28198,-0.0382741,-0.000942988,-0.000112372
30465,-5.0,-50.0,0.00487412,  -502.558E-03,   64.3932E-03,       6.22595,-0.0375581,-0.000914211,-0.000141495
30470,-6.0,-50.0,0.0048194,  -500.344E-03,   64.3950E-03,       6.15794,-0.0366958,-0.00088044,-0.000172431
30471,-7.0,-50.0,0.00475526,  -497.259E-03,   64.3969E-03,       6.07823,-0.0356944,-0.000842442,-0.000206564
30476,-8.0,-50.0,0.00468196,  -493.194E-03,   64.3988E-03,       5.98714,-0.034562,-0.000801049,-0.000245686
30479,-9.0,-50.0,0.00459978,  -488.054E-03,   64.4005E-03,       5.88503,-0.0333073,-0.000757116,-0.000291929
30480,-10.0,-50.0,0.00450908,  -481.763E-03,   64.4018E-03,       5.77232,-0.0319387,-0.000711471,-0.000347628
30485,-11.0,-50.0,0.0044102,  -474.260E-03,   64.4024E-03,       5.64944,-0.0304643,-0.000664864,-0.000415119
30486,-12.0,-50.0,0.00430355,  -465.503E-03,   64.4021E-03,       5.51688,-0.0288908,-0.000617918,-0.000496464
30491,-13.0,-50.0,0.00418956,  -455.468E-03,   64.4008E-03,       5.37515,-0.0272232,-0.000571083,-0.000593141
30494,-14.0,-50.0,0.0040687,  -444.152E-03,   64.3980E-03,       5.22480,-0.0254645,-0.000524607,-0.000705706
30495,-15.0,-50.0,0.00394145,  -431.571E-03,   64.3938E-03,       5.06640,-0.0236148,-0.00047853,-0.000833487
30500,-16.0,-50.0,0.00380832,  -417.758E-03,   64.3882E-03,       4.90056,-0.0216719,-0.000432691,-0.000974336
30501,-17.0,-50.0,0.00366986,  -402.767E-03,   64.3811E-03,       4.72791,-0.0196313,-0.000386774,-0.00112451
30506,-18.0,-50.0,0.00352663,  -386.671E-03,   64.3729E-03,       4.54912,-0.0174873,-0.000340365,-0.00127871
30509,-19.0,-50.0,0.00337921,  -369.560E-03,   64.3639E-03,       4.36488,-0.0152338,-0.000293037,-0.00143025
30510,-20.0,-50.0,0.00322819,  -351.541E-03,   64.3547E-03,       4.17590,-0.0128656,-0.000244446,-0.00157155
30515,-21.0,-50.0,0.00307419,  -332.739E-03,   64.3459E-03,       3.98292,-0.0103802,-0.000194396,-0.00169462
30516,-22.0,-50.0,0.00291783,  -313.291E-03,   64.3381E-03,       3.78672,-0.00777876,-0.000142942,-0.00179186
30521,-23.0,-50.0,0.00275976,  -293.346E-03,   64.3320E-03,       3.58808,-0.00506723,-9.03382e-05,-0.0018567
30524,-24.0,-50.0,0.00260061,  -273.066E-03,   64.3281E-03,       3.38781,-0.00225667,-3.7152e-05,-0.0018844
30525,-25.0,-50.0,0.00244103,  -252.615E-03,   64.3268E-03,       3.18671,0.000636922,1.60214e-05,-0.00187248
30530,-26.0,-50.0,0.00228168,  -232.165E-03,   64.3280E-03,       2.98561,0.00359337,6.83191e-05,-0.00182122
30531,-27.0,-50.0,0.0021232,  -211.885E-03,   64.3318E-03,       2.78534,0.00658958,0.000119247,-0.00173339
30536,-28.0,-50.0,0.00196624,  -191.940E-03,   64.3379E-03,       2.58670,0.00960101,0.000168035,-0.00161445
30539,-29.0,-50.0,0.00181144,  -172.492E-03,   64.3457E-03,       2.39050,0.0126032,0.000214804,-0.00147134
30540,-30.0,-50.0,0.00165945,  -153.690E-03,   64.3546E-03,       2.19752,0.0155728,0.000259091,-0.00131277
30545,-31.0,-50.0,0.00151088,  -135.671E-03,   64.3640E-03,       2.00853,0.018489,0.000301899,-0.00114701
30546,-32.0,-50.0,0.00136634,  -118.559E-03,   64.3734E-03,       1.82428,0.0213334,0.000342901,-0.000983093
30551,-33.0,-50.0,0.00122643,  -102.461E-03,   64.3823E-03,       1.64547,0.0240906,0.000383899,-0.000827496
30554,-34.0,-50.0,0.00109174,  -87.4671E-03,   64.3902E-03,       1.47280,0.0267477,0.00042428,-0.000687022
30555,-35.0,-50.0,0.000962805,  -73.6499E-03,   64.3970E-03,       1.30693,0.0292943,0.000466338,-0.000564258
30560,-36.0,-50.0,0.000840175,  -61.0629E-03,   64.4026E-03,       1.14848,0.0317216,0.000508961,-0.00046245
30561,-37.0,-50.0,0.000724354,  -49.7407E-03,   64.4070E-03,   998.080E-03,0.0340221,0.000554489,-0.000379609
30566,-38.0,-50.0,0.000615825,  -39.6991E-03,   64.4103E-03,   856.292E-03,0.0361894,0.000602004,-0.000314578
30569,-39.0,-50.0,0.000515037,  -30.9347E-03,   64.4126E-03,   723.670E-03,0.0382171,0.000653042,-0.00026125
30570,-40.0,-50.0,0.00042241,  -23.4256E-03,   64.4139E-03,   600.739E-03,0.0401,0.000709473,-0.000211328
30575,-41.0,-50.0,0.00033832400000000004,  -17.1310E-03,   64.4143E-03,   487.996E-03,0.0418307,0.000770121,-0.000156037
30576,-42.0,-50.0,0.000263122,  -11.9925E-03,   64.4133E-03,   385.910E-03,0.0434057,0.00084584,-7.0228e-05
30581,-43.0,-50.0,0.00019710299999999999,  -7.93417E-03,   64.4109E-03,   294.931E-03,0.0448118,0.000929451,5.27482e-05
30584,-44.0,-50.0,0.000140508,  -4.86259E-03,   64.4060E-03,   215.472E-03,0.0460521,0.00105354,0.00028496
30585,-45.0,-50.0,9.353479999999999e-05,  -2.67008E-03,   64.3980E-03,   147.955E-03,0.0470866,0.00120568,0.000610076
30590,-46.0,-50.0,5.6269899999999995e-05,  -1.22958E-03,   64.3859E-03,   92.7236E-03,0.0479489,0.00146365,0.00124786
30591,-47.0,-50.0,2.87642e-05,  -405.420E-06,   64.3689E-03,   50.2146E-03,0.0484185,0.00187247,0.00204924
30596,-48.0,-50.0,1.07468e-05,  -36.3602E-06,   64.3479E-03,   20.5823E-03,0.0486832,0.0025867,0.00385288
30597,-49.0,-50.0,1.97102e-06,   35.3063E-06,   64.3251E-03,   4.40258E-03,0.0453491,0.00497514,0.00509935
30602,-50.0,-50.0,0.0,  -33.6312E-45,   64.3129E-03,            0.,0.0418089,0.00687014,0.00486847
