,X,Y,Z,          U-U1,          U-U2,          U-U3,S11,S22,S12
2,50.0,50.0,0.0,   32.2299E-45,   32.2299E-45,           -0.,-2.11063e-05,-2.11064e-05,-3.75496e-05
5,49.0,50.0,0.0,   4.45473E-42,   8.35314E-42,            0.,-0.00103982,-0.00347146,-0.00121791
6,48.0,50.0,0.0,  -2.14118E-42,   612.367E-45,           -0.,-0.00355843,-0.0118969,-0.00183612
11,47.0,50.0,0.0,  -17.1014E-42,  -28.6467E-42,           -0.,-0.00664676,-0.0222295,-0.00188207
12,46.0,50.0,0.0,  -39.2812E-42,  -84.1956E-42,           -0.,-0.00964324,-0.0322296,-0.00168171
17,45.0,50.0,0.0,  -66.4552E-42,  -164.019E-42,           -0.,-0.0122837,-0.0410204,-0.00140243
20,44.0,50.0,0.0,  -96.4388E-42,  -262.409E-42,           -0.,-0.0144963,-0.0483731,-0.00115313
21,43.0,50.0,0.0,  -127.584E-42,  -372.808E-42,           -0.,-0.0163154,-0.0544124,-0.000980242
26,42.0,50.0,0.0,  -158.847E-42,  -489.489E-42,           -0.,-0.0178118,-0.0593794,-0.000891638
27,41.0,50.0,0.0,  -189.667E-42,  -608.168E-42,           -0.,-0.0190612,-0.0635286,-0.000875866
32,40.0,50.0,0.0,  -219.806E-42,  -725.989E-42,           -0.,-0.0201277,-0.0670736,-0.000912625
35,39.0,50.0,0.0,  -249.207E-42,  -841.250E-42,           -0.,-0.0210606,-0.0701774,-0.000982154
36,38.0,50.0,0.0,  -277.894E-42,  -953.054E-42,           -0.,-0.0218947,-0.0729553,-0.00106755
41,37.0,50.0,0.0,  -305.926E-42,  -1.06101E-39,           -0.,-0.0226541,-0.0754859,-0.00115652
42,36.0,50.0,0.0,  -333.349E-42,  -1.16504E-39,           -0.,-0.0233547,-0.0778216,-0.00124072
47,35.0,50.0,0.0,  -360.200E-42,  -1.26519E-39,           -0.,-0.0240069,-0.0799967,-0.00131516
50,34.0,50.0,0.0,  -386.496E-42,  -1.36160E-39,           -0.,-0.0246177,-0.082034,-0.00137727
51,33.0,50.0,0.0,  -412.241E-42,  -1.45441E-39,           -0.,-0.0251917,-0.0839488,-0.00142611
56,32.0,50.0,0.0,  -437.422E-42,  -1.54374E-39,           -0.,-0.0257323,-0.0857519,-0.0014618
57,31.0,50.0,0.0,  -462.028E-42,  -1.62973E-39,           -0.,-0.0262418,-0.0874516,-0.00148506
62,30.0,50.0,0.0,  -486.035E-42,  -1.71248E-39,           -0.,-0.0267223,-0.0890541,-0.00149694
65,29.0,50.0,0.0,  -509.421E-42,  -1.79206E-39,           -0.,-0.0271752,-0.0905647,-0.00149861
66,28.0,50.0,0.0,  -532.168E-42,  -1.86855E-39,           -0.,-0.0276019,-0.0919881,-0.00149125
71,27.0,50.0,0.0,  -554.253E-42,  -1.94200E-39,           -0.,-0.0280038,-0.0933284,-0.00147599
72,26.0,50.0,0.0,  -575.660E-42,  -2.01247E-39,           -0.,-0.0283819,-0.0945896,-0.00145384
77,25.0,50.0,0.0,  -596.374E-42,  -2.08000E-39,           -0.,-0.0287374,-0.0957751,-0.00142573
80,24.0,50.0,0.0,  -616.382E-42,  -2.14462E-39,           -0.,-0.0290713,-0.0968885,-0.00139246
81,23.0,50.0,0.0,  -635.675E-42,  -2.20639E-39,           -0.,-0.0293844,-0.0979329,-0.00135474
86,22.0,50.0,0.0,  -654.244E-42,  -2.26533E-39,           -0.,-0.0296779,-0.0989114,-0.00131318
87,21.0,50.0,0.0,  -672.084E-42,  -2.32147E-39,           -0.,-0.0299524,-0.0998269,-0.0012683
92,20.0,50.0,0.0,  -689.189E-42,  -2.37484E-39,           -0.,-0.0302089,-0.100682,-0.00122054
95,19.0,50.0,0.0,  -705.561E-42,  -2.42548E-39,           -0.,-0.030448,-0.10148,-0.0011703
96,18.0,50.0,0.0,  -721.196E-42,  -2.47342E-39,           -0.,-0.0306707,-0.102222,-0.0011179
101,17.0,50.0,0.0,  -736.095E-42,  -2.51869E-39,           -0.,-0.0308774,-0.102912,-0.00106362
102,16.0,50.0,0.0,  -750.258E-42,  -2.56130E-39,           -0.,-0.031069,-0.103551,-0.00100769
107,15.0,50.0,0.0,  -763.687E-42,  -2.60130E-39,           -0.,-0.031246,-0.104141,-0.000950326
110,14.0,50.0,0.0,  -776.384E-42,  -2.63870E-39,           -0.,-0.0314089,-0.104684,-0.000891702
111,13.0,50.0,0.0,  -788.351E-42,  -2.67354E-39,           -0.,-0.0315584,-0.105182,-0.000831969
116,12.0,50.0,0.0,  -799.589E-42,  -2.70583E-39,           -0.,-0.0316948,-0.105637,-0.000771261
117,11.0,50.0,0.0,  -810.100E-42,  -2.73559E-39,           -0.,-0.0318187,-0.106051,-0.000709695
122,10.0,50.0,0.0,  -819.890E-42,  -2.76285E-39,           -0.,-0.0319304,-0.106423,-0.000647375
125,9.0,50.0,0.0,  -828.956E-42,  -2.78763E-39,           -0.,-0.0320304,-0.106757,-0.000584394
126,8.0,50.0,0.0,  -837.301E-42,  -2.80994E-39,           -0.,-0.0321189,-0.107052,-0.000520836
131,7.0,50.0,0.0,  -844.926E-42,  -2.82979E-39,           -0.,-0.0321963,-0.10731,-0.000456779
132,6.0,50.0,0.0,  -851.831E-42,  -2.84721E-39,           -0.,-0.0322629,-0.107532,-0.000392294
137,5.0,50.0,0.0,  -858.015E-42,  -2.86219E-39,           -0.,-0.0323188,-0.107719,-0.000327449
140,4.0,50.0,0.0,  -863.480E-42,  -2.87475E-39,           -0.,-0.0323643,-0.10787,-0.000262308
141,3.0,50.0,0.0,  -868.222E-42,  -2.88489E-39,           -0.,-0.0323996,-0.107988,-0.000196934
146,2.0,50.0,0.0,  -872.238E-42,  -2.89262E-39,           -0.,-0.0324246,-0.108071,-0.000131385
147,1.0,50.0,0.0,  -875.528E-42,  -2.89794E-39,           -0.,-0.0324396,-0.108121,-6.57213e-05
152,0.0,50.0,0.0,  -878.089E-42,  -2.90084E-39,           -0.,-0.0324446,-0.108138,-9.09495e-13
155,-1.0,50.0,0.0,  -879.912E-42,  -2.90133E-39,           -0.,-0.0324396,-0.108121,6.57213e-05
156,-2.0,50.0,0.0,  -880.996E-42,  -2.89939E-39,           -0.,-0.0324246,-0.108071,0.000131385
161,-3.0,50.0,0.0,  -881.334E-42,  -2.89501E-39,           -0.,-0.0323996,-0.107988,0.000196934
162,-4.0,50.0,0.0,  -880.918E-42,  -2.88820E-39,           -0.,-0.0323643,-0.10787,0.000262308
167,-5.0,50.0,0.0,  -879.742E-42,  -2.87892E-39,           -0.,-0.0323188,-0.107719,0.000327449
170,-6.0,50.0,0.0,  -877.797E-42,  -2.86717E-39,           -0.,-0.0322629,-0.107532,0.000392294
171,-7.0,50.0,0.0,  -875.074E-42,  -2.85293E-39,           -0.,-0.0321963,-0.10731,0.000456779
176,-8.0,50.0,0.0,  -871.563E-42,  -2.83617E-39,           -0.,-0.0321189,-0.107052,0.000520836
177,-9.0,50.0,0.0,  -867.251E-42,  -2.81686E-39,           -0.,-0.0320304,-0.106757,0.000584394
182,-10.0,50.0,0.0,  -862.128E-42,  -2.79499E-39,           -0.,-0.0319304,-0.106423,0.000647375
185,-11.0,50.0,0.0,  -856.178E-42,  -2.77053E-39,           -0.,-0.0318187,-0.106051,0.000709695
186,-12.0,50.0,0.0,  -849.390E-42,  -2.74344E-39,           -0.,-0.0316948,-0.105637,0.000771261
191,-13.0,50.0,0.0,  -841.745E-42,  -2.71368E-39,           -0.,-0.0315584,-0.105182,0.000831968
192,-14.0,50.0,0.0,  -833.225E-42,  -2.68122E-39,           -0.,-0.0314089,-0.104684,0.000891702
197,-15.0,50.0,0.0,  -823.812E-42,  -2.64601E-39,           -0.,-0.031246,-0.104141,0.000950326
200,-16.0,50.0,0.0,  -813.486E-42,  -2.60802E-39,           -0.,-0.031069,-0.103551,0.00100769
201,-17.0,50.0,0.0,  -802.221E-42,  -2.56719E-39,           -0.,-0.0308774,-0.102912,0.00106362
206,-18.0,50.0,0.0,  -789.992E-42,  -2.52348E-39,           -0.,-0.0306707,-0.102222,0.0011179
207,-19.0,50.0,0.0,  -776.768E-42,  -2.47681E-39,           -0.,-0.030448,-0.10148,0.0011703
212,-20.0,50.0,0.0,  -762.519E-42,  -2.42714E-39,           -0.,-0.0302089,-0.100682,0.00122054
215,-21.0,50.0,0.0,  -747.207E-42,  -2.37439E-39,           -0.,-0.0299524,-0.0998269,0.0012683
216,-22.0,50.0,0.0,  -730.790E-42,  -2.31849E-39,           -0.,-0.0296779,-0.0989114,0.00131318
221,-23.0,50.0,0.0,  -713.222E-42,  -2.25935E-39,           -0.,-0.0293844,-0.0979329,0.00135474
222,-24.0,50.0,0.0,  -694.448E-42,  -2.19688E-39,           -0.,-0.0290713,-0.0968885,0.00139246
227,-25.0,50.0,0.0,  -674.409E-42,  -2.13098E-39,           -0.,-0.0287374,-0.0957751,0.00142573
230,-26.0,50.0,0.0,  -653.035E-42,  -2.06152E-39,           -0.,-0.0283819,-0.0945896,0.00145384
231,-27.0,50.0,0.0,  -630.247E-42,  -1.98837E-39,           -0.,-0.0280038,-0.0933284,0.00147599
236,-28.0,50.0,0.0,  -605.956E-42,  -1.91138E-39,           -0.,-0.0276019,-0.0919881,0.00149125
237,-29.0,50.0,0.0,  -580.066E-42,  -1.83037E-39,           -0.,-0.0271752,-0.0905647,0.00149861
242,-30.0,50.0,0.0,  -552.466E-42,  -1.74516E-39,           -0.,-0.0267223,-0.0890541,0.00149694
245,-31.0,50.0,0.0,  -523.042E-42,  -1.65552E-39,           -0.,-0.0262418,-0.0874516,0.00148506
246,-32.0,50.0,0.0,  -491.675E-42,  -1.56123E-39,           -0.,-0.0257323,-0.0857519,0.0014618
251,-33.0,50.0,0.0,  -458.255E-42,  -1.46203E-39,           -0.,-0.0251917,-0.0839488,0.00142611
252,-34.0,50.0,0.0,  -422.693E-42,  -1.35771E-39,           -0.,-0.0246177,-0.082034,0.00137727
257,-35.0,50.0,0.0,  -384.949E-42,  -1.24806E-39,           -0.,-0.0240069,-0.0799967,0.00131516
260,-36.0,50.0,0.0,  -345.067E-42,  -1.13301E-39,           -0.,-0.0233547,-0.0778216,0.00124072
261,-37.0,50.0,0.0,  -303.231E-42,  -1.01266E-39,           -0.,-0.0226541,-0.0754859,0.00115652
266,-38.0,50.0,0.0,  -259.832E-42,  -887.452E-42,           -0.,-0.0218947,-0.0729553,0.00106755
267,-39.0,50.0,0.0,  -215.549E-42,  -758.369E-42,           -0.,-0.0210606,-0.0701774,0.000982154
272,-40.0,50.0,0.0,  -171.432E-42,  -627.150E-42,           -0.,-0.0201277,-0.0670736,0.000912625
275,-41.0,50.0,0.0,  -128.956E-42,  -496.587E-42,           -0.,-0.0190612,-0.0635286,0.000875866
276,-42.0,50.0,0.0,  -89.9928E-42,  -370.739E-42,           -0.,-0.0178118,-0.0593794,0.000891638
281,-43.0,50.0,0.0,  -56.6349E-42,  -254.969E-42,           -0.,-0.0163154,-0.0544124,0.000980242
282,-44.0,50.0,0.0,  -30.8033E-42,  -155.541E-42,           -0.,-0.0144963,-0.0483731,0.00115313
287,-45.0,50.0,0.0,  -13.6136E-42,  -78.5372E-42,           -0.,-0.0122837,-0.0410204,0.00140243
290,-46.0,50.0,0.0,  -4.63690E-42,  -27.8760E-42,           -0.,-0.00964324,-0.0322296,0.00168171
291,-47.0,50.0,0.0,  -1.48958E-42,  -2.79419E-42,           -0.,-0.00664676,-0.0222295,0.00188207
296,-48.0,50.0,0.0,  -451.218E-45,   3.88440E-42,           -0.,-0.00355843,-0.0118969,0.00183612
297,-49.0,50.0,0.0,   732.879E-45,   2.43265E-42,           -0.,-0.00103982,-0.00347146,0.00121791
302,-50.0,50.0,0.0,  -32.2299E-45,   32.2299E-45,           -0.,-2.11063e-05,-2.11064e-05,3.75496e-05
305,50.0,49.0,0.0,   8.35314E-42,   4.45473E-42,            0.,-0.00347146,-0.00103982,-0.00121791
306,49.0,49.0,0.0,   1.44147E-06,   1.44147E-06,  -432.832E-06,-0.00345425,-0.00345425,-0.00418513
311,48.0,49.0,0.0,   1.93259E-06,   2.75038E-06,  -1.53632E-03,-0.00373595,-0.00927052,-0.00649318
312,47.0,49.0,0.0,   1.20069E-06,   2.16353E-06,  -2.92357E-03,-0.00489382,-0.0165253,-0.00715949
317,46.0,49.0,0.0,  -258.002E-09,  -3.00263E-06,  -4.33217E-03,-0.00667153,-0.0237875,-0.00689407
320,45.0,49.0,0.0,  -1.42541E-06,  -13.8789E-06,  -5.65269E-03,-0.00851659,-0.0301861,-0.00627409
321,44.0,49.0,0.0,  -1.45860E-06,  -30.1148E-06,  -6.84755E-03,-0.0101924,-0.0354175,-0.00559816
326,43.0,49.0,0.0,   26.0789E-09,  -50.4870E-06,  -7.91681E-03,-0.0115899,-0.0395106,-0.00501151
327,42.0,49.0,0.0,   2.97966E-06,  -73.5273E-06,  -8.87545E-03,-0.0126923,-0.042628,-0.00455872
332,41.0,49.0,0.0,   7.08022E-06,  -97.9091E-06,  -9.74210E-03,-0.0135306,-0.0449793,-0.0042346
335,40.0,49.0,0.0,   11.8980E-06,  -122.610E-06,  -10.5339E-03,-0.0141522,-0.0467544,-0.00401325
336,39.0,49.0,0.0,   17.0130E-06,  -146.934E-06,  -11.2646E-03,-0.0146077,-0.0481098,-0.00386481
341,38.0,49.0,0.0,   22.0781E-06,  -170.456E-06,  -11.9448E-03,-0.0149402,-0.0491619,-0.00376322
342,37.0,49.0,0.0,   26.8404E-06,  -192.952E-06,  -12.5821E-03,-0.0151841,-0.0499945,-0.00368853
347,36.0,49.0,0.0,   31.1375E-06,  -214.330E-06,  -13.1823E-03,-0.0153649,-0.0506652,-0.00362681
350,35.0,49.0,0.0,   34.8813E-06,  -234.580E-06,  -13.7494E-03,-0.0155007,-0.0512132,-0.00356903
351,34.0,49.0,0.0,   38.0392E-06,  -253.738E-06,  -14.2866E-03,-0.0156042,-0.0516654,-0.00350973
356,33.0,49.0,0.0,   40.6169E-06,  -271.860E-06,  -14.7962E-03,-0.0156838,-0.0520402,-0.00344595
357,32.0,49.0,0.0,   42.6435E-06,  -289.008E-06,  -15.2801E-03,-0.0157453,-0.0523506,-0.00337632
362,31.0,49.0,0.0,   44.1616E-06,  -305.245E-06,  -15.7398E-03,-0.0157927,-0.0526061,-0.00330047
365,30.0,49.0,0.0,   45.2196E-06,  -320.631E-06,  -16.1765E-03,-0.0158286,-0.0528142,-0.00321861
366,29.0,49.0,0.0,   45.8669E-06,  -335.219E-06,  -16.5915E-03,-0.015855,-0.0529809,-0.00313127
371,28.0,49.0,0.0,   46.1510E-06,  -349.054E-06,  -16.9855E-03,-0.0158734,-0.0531111,-0.00303909
372,27.0,49.0,0.0,   46.1162E-06,  -362.178E-06,  -17.3595E-03,-0.0158847,-0.0532091,-0.00294278
377,26.0,49.0,0.0,   45.8024E-06,  -374.628E-06,  -17.7143E-03,-0.01589,-0.0532788,-0.00284299
380,25.0,49.0,0.0,   45.2450E-06,  -386.434E-06,  -18.0506E-03,-0.0158899,-0.0533237,-0.00274036
381,24.0,49.0,0.0,   44.4753E-06,  -397.624E-06,  -18.3690E-03,-0.0158852,-0.0533469,-0.00263543
386,23.0,49.0,0.0,   43.5204E-06,  -408.223E-06,  -18.6701E-03,-0.0158766,-0.0533514,-0.00252867
387,22.0,49.0,0.0,   42.4040E-06,  -418.252E-06,  -18.9545E-03,-0.0158644,-0.0533397,-0.0024205
392,21.0,49.0,0.0,   41.1463E-06,  -427.730E-06,  -19.2227E-03,-0.0158494,-0.0533144,-0.00231128
395,20.0,49.0,0.0,   39.7649E-06,  -436.675E-06,  -19.4753E-03,-0.015832,-0.0532776,-0.00220127
396,19.0,49.0,0.0,   38.2750E-06,  -445.102E-06,  -19.7127E-03,-0.0158127,-0.0532315,-0.00209073
401,18.0,49.0,0.0,   36.6895E-06,  -453.025E-06,  -19.9354E-03,-0.0157918,-0.053178,-0.00197985
402,17.0,49.0,0.0,   35.0197E-06,  -460.457E-06,  -20.1437E-03,-0.0157699,-0.0531187,-0.00186877
407,16.0,49.0,0.0,   33.2754E-06,  -467.410E-06,  -20.3380E-03,-0.0157473,-0.0530553,-0.00175763
410,15.0,49.0,0.0,   31.4650E-06,  -473.893E-06,  -20.5188E-03,-0.0157244,-0.0529893,-0.00164652
411,14.0,49.0,0.0,   29.5958E-06,  -479.917E-06,  -20.6863E-03,-0.0157014,-0.0529219,-0.0015355
416,13.0,49.0,0.0,   27.6745E-06,  -485.491E-06,  -20.8409E-03,-0.0156788,-0.0528544,-0.00142463
417,12.0,49.0,0.0,   25.7068E-06,  -490.621E-06,  -20.9829E-03,-0.0156568,-0.0527879,-0.00131395
422,11.0,49.0,0.0,   23.6978E-06,  -495.316E-06,  -21.1125E-03,-0.0156356,-0.0527233,-0.00120347
425,10.0,49.0,0.0,   21.6523E-06,  -499.582E-06,  -21.2300E-03,-0.0156155,-0.0526615,-0.00109321
426,9.0,49.0,0.0,   19.5743E-06,  -503.425E-06,  -21.3356E-03,-0.0155966,-0.0526034,-0.000983162
431,8.0,49.0,0.0,   17.4680E-06,  -506.849E-06,  -21.4296E-03,-0.0155793,-0.0525496,-0.000873326
432,7.0,49.0,0.0,   15.3369E-06,  -509.860E-06,  -21.5120E-03,-0.0155636,-0.0525007,-0.000763688
437,6.0,49.0,0.0,   13.1845E-06,  -512.462E-06,  -21.5832E-03,-0.0155497,-0.0524573,-0.000654232
440,5.0,49.0,0.0,   11.0141E-06,  -514.658E-06,  -21.6431E-03,-0.0155378,-0.0524198,-0.000544936
441,4.0,49.0,0.0,   8.82890E-06,  -516.450E-06,  -21.6920E-03,-0.0155278,-0.0523886,-0.000435778
446,3.0,49.0,0.0,   6.63189E-06,  -517.842E-06,  -21.7299E-03,-0.01552,-0.0523641,-0.000326734
447,2.0,49.0,0.0,   4.42611E-06,  -518.834E-06,  -21.7570E-03,-0.0155144,-0.0523464,-0.000217774
452,1.0,49.0,0.0,   2.21451E-06,  -519.430E-06,  -21.7732E-03,-0.015511,-0.0523357,-0.000108873
455,0.0,49.0,0.0,  -510.270E-18,  -519.628E-06,  -21.7786E-03,-0.0155099,-0.0523321,0.0
456,-1.0,49.0,0.0,  -2.21451E-06,  -519.430E-06,  -21.7732E-03,-0.015511,-0.0523357,0.000108873
461,-2.0,49.0,0.0,  -4.42611E-06,  -518.834E-06,  -21.7570E-03,-0.0155144,-0.0523464,0.000217774
462,-3.0,49.0,0.0,  -6.63189E-06,  -517.842E-06,  -21.7299E-03,-0.01552,-0.0523641,0.000326734
467,-4.0,49.0,0.0,  -8.82890E-06,  -516.450E-06,  -21.6920E-03,-0.0155278,-0.0523886,0.000435779
470,-5.0,49.0,0.0,  -11.0141E-06,  -514.658E-06,  -21.6431E-03,-0.0155378,-0.0524198,0.000544936
471,-6.0,49.0,0.0,  -13.1845E-06,  -512.462E-06,  -21.5832E-03,-0.0155497,-0.0524573,0.000654232
476,-7.0,49.0,0.0,  -15.3369E-06,  -509.860E-06,  -21.5120E-03,-0.0155636,-0.0525007,0.000763688
477,-8.0,49.0,0.0,  -17.4680E-06,  -506.849E-06,  -21.4296E-03,-0.0155793,-0.0525496,0.000873326
482,-9.0,49.0,0.0,  -19.5743E-06,  -503.425E-06,  -21.3356E-03,-0.0155966,-0.0526034,0.000983162
485,-10.0,49.0,0.0,  -21.6523E-06,  -499.582E-06,  -21.2300E-03,-0.0156155,-0.0526615,0.00109321
486,-11.0,49.0,0.0,  -23.6978E-06,  -495.316E-06,  -21.1125E-03,-0.0156356,-0.0527233,0.00120347
491,-12.0,49.0,0.0,  -25.7068E-06,  -490.621E-06,  -20.9829E-03,-0.0156568,-0.0527878,0.00131395
492,-13.0,49.0,0.0,  -27.6745E-06,  -485.491E-06,  -20.8409E-03,-0.0156788,-0.0528544,0.00142463
497,-14.0,49.0,0.0,  -29.5958E-06,  -479.917E-06,  -20.6863E-03,-0.0157014,-0.0529219,0.0015355
500,-15.0,49.0,0.0,  -31.4650E-06,  -473.893E-06,  -20.5188E-03,-0.0157244,-0.0529893,0.00164652
501,-16.0,49.0,0.0,  -33.2754E-06,  -467.410E-06,  -20.3380E-03,-0.0157473,-0.0530553,0.00175763
506,-17.0,49.0,0.0,  -35.0197E-06,  -460.457E-06,  -20.1437E-03,-0.0157699,-0.0531187,0.00186877
507,-18.0,49.0,0.0,  -36.6895E-06,  -453.025E-06,  -19.9354E-03,-0.0157918,-0.053178,0.00197985
512,-19.0,49.0,0.0,  -38.2750E-06,  -445.102E-06,  -19.7127E-03,-0.0158127,-0.0532315,0.00209073
515,-20.0,49.0,0.0,  -39.7649E-06,  -436.675E-06,  -19.4753E-03,-0.015832,-0.0532776,0.00220127
516,-21.0,49.0,0.0,  -41.1463E-06,  -427.730E-06,  -19.2227E-03,-0.0158494,-0.0533144,0.00231128
521,-22.0,49.0,0.0,  -42.4040E-06,  -418.252E-06,  -18.9545E-03,-0.0158644,-0.0533397,0.0024205
522,-23.0,49.0,0.0,  -43.5204E-06,  -408.223E-06,  -18.6701E-03,-0.0158766,-0.0533514,0.00252867
527,-24.0,49.0,0.0,  -44.4753E-06,  -397.624E-06,  -18.3690E-03,-0.0158852,-0.0533469,0.00263543
530,-25.0,49.0,0.0,  -45.2450E-06,  -386.434E-06,  -18.0506E-03,-0.0158899,-0.0533237,0.00274036
531,-26.0,49.0,0.0,  -45.8024E-06,  -374.628E-06,  -17.7143E-03,-0.01589,-0.0532788,0.00284299
536,-27.0,49.0,0.0,  -46.1162E-06,  -362.178E-06,  -17.3595E-03,-0.0158847,-0.0532091,0.00294278
537,-28.0,49.0,0.0,  -46.1510E-06,  -349.054E-06,  -16.9855E-03,-0.0158734,-0.0531111,0.00303909
542,-29.0,49.0,0.0,  -45.8669E-06,  -335.219E-06,  -16.5915E-03,-0.015855,-0.0529809,0.00313127
545,-30.0,49.0,0.0,  -45.2196E-06,  -320.631E-06,  -16.1765E-03,-0.0158286,-0.0528142,0.00321861
546,-31.0,49.0,0.0,  -44.1616E-06,  -305.245E-06,  -15.7398E-03,-0.0157927,-0.0526061,0.00330047
551,-32.0,49.0,0.0,  -42.6435E-06,  -289.008E-06,  -15.2801E-03,-0.0157453,-0.0523506,0.00337632
552,-33.0,49.0,0.0,  -40.6169E-06,  -271.860E-06,  -14.7962E-03,-0.0156838,-0.0520402,0.00344595
557,-34.0,49.0,0.0,  -38.0392E-06,  -253.738E-06,  -14.2866E-03,-0.0156042,-0.0516654,0.00350973
560,-35.0,49.0,0.0,  -34.8813E-06,  -234.580E-06,  -13.7494E-03,-0.0155007,-0.0512132,0.00356903
561,-36.0,49.0,0.0,  -31.1375E-06,  -214.330E-06,  -13.1823E-03,-0.0153649,-0.0506652,0.00362681
566,-37.0,49.0,0.0,  -26.8404E-06,  -192.952E-06,  -12.5821E-03,-0.0151841,-0.0499945,0.00368853
567,-38.0,49.0,0.0,  -22.0781E-06,  -170.456E-06,  -11.9448E-03,-0.0149402,-0.0491619,0.00376322
572,-39.0,49.0,0.0,  -17.0130E-06,  -146.934E-06,  -11.2646E-03,-0.0146077,-0.0481098,0.00386481
575,-40.0,49.0,0.0,  -11.8980E-06,  -122.610E-06,  -10.5339E-03,-0.0141522,-0.0467544,0.00401325
576,-41.0,49.0,0.0,  -7.08022E-06,  -97.9091E-06,  -9.74210E-03,-0.0135306,-0.0449793,0.0042346
581,-42.0,49.0,0.0,  -2.97966E-06,  -73.5273E-06,  -8.87545E-03,-0.0126923,-0.042628,0.00455872
582,-43.0,49.0,0.0,  -26.0789E-09,  -50.4870E-06,  -7.91681E-03,-0.0115899,-0.0395106,0.00501151
587,-44.0,49.0,0.0,   1.45860E-06,  -30.1148E-06,  -6.84755E-03,-0.0101924,-0.0354175,0.00559816
590,-45.0,49.0,0.0,   1.42541E-06,  -13.8789E-06,  -5.65269E-03,-0.00851659,-0.0301861,0.00627409
591,-46.0,49.0,0.0,   258.002E-09,  -3.00263E-06,  -4.33217E-03,-0.00667153,-0.0237875,0.00689407
596,-47.0,49.0,0.0,  -1.20069E-06,   2.16353E-06,  -2.92357E-03,-0.00489382,-0.0165253,0.00715949
597,-48.0,49.0,0.0,  -1.93259E-06,   2.75038E-06,  -1.53632E-03,-0.00373595,-0.00927052,0.00649318
602,-49.0,49.0,0.0,  -1.44147E-06,   1.44147E-06,  -432.832E-06,-0.00345425,-0.00345425,0.00418513
605,-50.0,49.0,0.0,  -8.35314E-42,   4.45473E-42,            0.,-0.00347146,-0.00103982,0.00121791
606,50.0,48.0,0.0,   612.367E-45,  -2.14118E-42,           -0.,-0.0118969,-0.00355843,-0.00183612
611,49.0,48.0,0.0,   2.75038E-06,   1.93259E-06,  -1.53632E-03,-0.00927052,-0.00373595,-0.00649318
612,48.0,48.0,0.0,   10.9583E-06,   10.9583E-06,  -5.36408E-03,-0.00499165,-0.00499165,-0.00999819
617,47.0,48.0,0.0,   22.0991E-06,   26.3088E-06,  -10.1692E-03,-0.00268826,-0.00726364,-0.0112919
620,46.0,48.0,0.0,   33.5177E-06,   42.8306E-06,  -15.1144E-03,-0.00200003,-0.00984241,-0.0112219
621,45.0,48.0,0.0,   44.3398E-06,   55.6359E-06,  -19.7804E-03,-0.00220223,-0.0121409,-0.0104697
626,44.0,48.0,0.0,   54.7382E-06,   62.2980E-06,  -24.0070E-03,-0.00273458,-0.0138174,-0.00949046
627,43.0,48.0,0.0,   65.0630E-06,   62.6991E-06,  -27.7714E-03,-0.00328345,-0.0147841,-0.00853575
632,42.0,48.0,0.0,   75.4557E-06,   58.1157E-06,  -31.1157E-03,-0.00368342,-0.015082,-0.00771332
635,41.0,48.0,0.0,   85.8041E-06,   50.2911E-06,  -34.1032E-03,-0.00387937,-0.0148207,-0.00705052
636,40.0,48.0,0.0,   95.8421E-06,   40.8518E-06,  -36.7971E-03,-0.00387567,-0.0141259,-0.00653236
641,39.0,48.0,0.0,   105.264E-06,   31.0477E-06,  -39.2515E-03,-0.0037047,-0.0131148,-0.00612962
642,38.0,48.0,0.0,   113.803E-06,   21.7085E-06,  -41.5092E-03,-0.00340707,-0.0118842,-0.00581135
647,37.0,48.0,0.0,   121.269E-06,   13.3090E-06,  -43.6026E-03,-0.0030205,-0.0105088,-0.00555153
650,36.0,48.0,0.0,   127.554E-06,   6.06375E-06,  -45.5560E-03,-0.00257611,-0.00904373,-0.00533028
651,35.0,48.0,0.0,   132.625E-06,   17.4069E-09,  -47.3873E-03,-0.00209742,-0.00752792,-0.00513358
656,34.0,48.0,0.0,   136.502E-06,  -4.88543E-06,  -49.1101E-03,-0.00160138,-0.00598883,-0.004952
657,33.0,48.0,0.0,   139.247E-06,  -8.75173E-06,  -50.7346E-03,-0.00109974,-0.00444554,-0.00477948
662,32.0,48.0,0.0,   140.944E-06,  -11.7091E-06,  -52.2690E-03,-0.000600399,-0.00291145,-0.00461231
665,31.0,48.0,0.0,   141.689E-06,  -13.8876E-06,  -53.7198E-03,-0.00010858,-0.00139612,-0.00444831
666,30.0,48.0,0.0,   141.580E-06,  -15.4100E-06,  -55.0922E-03,0.000372349,9.34754e-05,-0.00428625
671,29.0,48.0,0.0,   140.713E-06,  -16.3869E-06,  -56.3909E-03,0.00084024,0.00155208,-0.00412555
672,28.0,48.0,0.0,   139.181E-06,  -16.9159E-06,  -57.6197E-03,0.00129374,0.00297562,-0.00396594
677,27.0,48.0,0.0,   137.065E-06,  -17.0814E-06,  -58.7821E-03,0.00173203,0.00436087,-0.00380737
680,26.0,48.0,0.0,   134.440E-06,  -16.9553E-06,  -59.8813E-03,0.00215458,0.00570521,-0.00364989
681,25.0,48.0,0.0,   131.373E-06,  -16.5991E-06,  -60.9199E-03,0.0025611,0.00700646,-0.0034936
686,24.0,48.0,0.0,   127.922E-06,  -16.0646E-06,  -61.9006E-03,0.00295143,0.00826281,-0.00333858
687,23.0,48.0,0.0,   124.137E-06,  -15.3952E-06,  -62.8258E-03,0.00332547,0.00947277,-0.00318494
692,22.0,48.0,0.0,   120.064E-06,  -14.6277E-06,  -63.6974E-03,0.00368318,0.0106351,-0.00303275
695,21.0,48.0,0.0,   115.739E-06,  -13.7926E-06,  -64.5177E-03,0.00402455,0.0117486,-0.00288207
696,20.0,48.0,0.0,   111.196E-06,  -12.9154E-06,  -65.2884E-03,0.0043496,0.0128126,-0.00273292
701,19.0,48.0,0.0,   106.463E-06,  -12.0172E-06,  -66.0113E-03,0.00465835,0.0138264,-0.00258532
702,18.0,48.0,0.0,   101.565E-06,  -11.1153E-06,  -66.6879E-03,0.00495084,0.0147892,-0.00243925
707,17.0,48.0,0.0,   96.5230E-06,  -10.2241E-06,  -67.3199E-03,0.00522712,0.0157007,-0.0022947
710,16.0,48.0,0.0,   91.3543E-06,  -9.35500E-06,  -67.9086E-03,0.00548723,0.0165605,-0.00215161
711,15.0,48.0,0.0,   86.0751E-06,  -8.51725E-06,  -68.4553E-03,0.00573122,0.0173685,-0.00200994
716,14.0,48.0,0.0,   80.6987E-06,  -7.71819E-06,  -68.9612E-03,0.00595913,0.0181242,-0.00186962
717,13.0,48.0,0.0,   75.2371E-06,  -6.96351E-06,  -69.4274E-03,0.00617104,0.0188278,-0.00173058
722,12.0,48.0,0.0,   69.7006E-06,  -6.25756E-06,  -69.8551E-03,0.00636698,0.019479,-0.00159275
725,11.0,48.0,0.0,   64.0982E-06,  -5.60356E-06,  -70.2451E-03,0.00654702,0.0200779,-0.00145604
726,10.0,48.0,0.0,   58.4380E-06,  -5.00383E-06,  -70.5983E-03,0.0067112,0.0206244,-0.00132036
731,9.0,48.0,0.0,   52.7274E-06,  -4.45996E-06,  -70.9155E-03,0.00685957,0.0211186,-0.00118562
732,8.0,48.0,0.0,   46.9728E-06,  -3.97295E-06,  -71.1974E-03,0.00699219,0.0215605,-0.00105174
737,7.0,48.0,0.0,   41.1803E-06,  -3.54335E-06,  -71.4446E-03,0.00710909,0.0219502,-0.000918611
740,6.0,48.0,0.0,   35.3554E-06,  -3.17142E-06,  -71.6578E-03,0.00721032,0.0222878,-0.000786149
741,5.0,48.0,0.0,   29.5033E-06,  -2.85717E-06,  -71.8373E-03,0.00729591,0.0225733,-0.000654255
746,4.0,48.0,0.0,   23.6289E-06,  -2.60046E-06,  -71.9837E-03,0.00736589,0.0228068,-0.000522836
747,3.0,48.0,0.0,   17.7368E-06,  -2.40110E-06,  -72.0972E-03,0.0074203,0.0229884,-0.000391795
752,2.0,48.0,0.0,   11.8318E-06,  -2.25889E-06,  -72.1781E-03,0.00745914,0.023118,-0.000261039
755,1.0,48.0,0.0,   5.91804E-06,  -2.17365E-06,  -72.2265E-03,0.00748244,0.0231958,-0.000130472
756,0.0,48.0,0.0,   10.7486E-15,  -2.14525E-06,  -72.2427E-03,0.00749021,0.0232217,-9.09495e-13
761,-1.0,48.0,0.0,  -5.91804E-06,  -2.17365E-06,  -72.2265E-03,0.00748244,0.0231958,0.000130472
762,-2.0,48.0,0.0,  -11.8318E-06,  -2.25889E-06,  -72.1781E-03,0.00745914,0.023118,0.000261039
767,-3.0,48.0,0.0,  -17.7368E-06,  -2.40110E-06,  -72.0972E-03,0.0074203,0.0229884,0.000391795
770,-4.0,48.0,0.0,  -23.6289E-06,  -2.60046E-06,  -71.9837E-03,0.00736589,0.0228068,0.000522836
771,-5.0,48.0,0.0,  -29.5033E-06,  -2.85717E-06,  -71.8373E-03,0.00729591,0.0225733,0.000654255
776,-6.0,48.0,0.0,  -35.3554E-06,  -3.17142E-06,  -71.6578E-03,0.00721032,0.0222878,0.000786149
777,-7.0,48.0,0.0,  -41.1803E-06,  -3.54335E-06,  -71.4446E-03,0.00710909,0.0219502,0.000918611
782,-8.0,48.0,0.0,  -46.9728E-06,  -3.97295E-06,  -71.1974E-03,0.00699219,0.0215605,0.00105174
785,-9.0,48.0,0.0,  -52.7274E-06,  -4.45996E-06,  -70.9155E-03,0.00685957,0.0211186,0.00118562
786,-10.0,48.0,0.0,  -58.4380E-06,  -5.00383E-06,  -70.5983E-03,0.0067112,0.0206244,0.00132036
791,-11.0,48.0,0.0,  -64.0982E-06,  -5.60356E-06,  -70.2451E-03,0.00654702,0.0200779,0.00145604
792,-12.0,48.0,0.0,  -69.7006E-06,  -6.25756E-06,  -69.8551E-03,0.00636698,0.019479,0.00159275
797,-13.0,48.0,0.0,  -75.2371E-06,  -6.96351E-06,  -69.4274E-03,0.00617104,0.0188278,0.00173058
800,-14.0,48.0,0.0,  -80.6987E-06,  -7.71819E-06,  -68.9612E-03,0.00595913,0.0181242,0.00186962
801,-15.0,48.0,0.0,  -86.0751E-06,  -8.51725E-06,  -68.4553E-03,0.00573121,0.0173685,0.00200994
806,-16.0,48.0,0.0,  -91.3543E-06,  -9.35500E-06,  -67.9086E-03,0.00548723,0.0165606,0.00215161
807,-17.0,48.0,0.0,  -96.5230E-06,  -10.2241E-06,  -67.3199E-03,0.00522712,0.0157007,0.0022947
812,-18.0,48.0,0.0,  -101.565E-06,  -11.1153E-06,  -66.6879E-03,0.00495084,0.0147892,0.00243925
815,-19.0,48.0,0.0,  -106.463E-06,  -12.0172E-06,  -66.0113E-03,0.00465835,0.0138264,0.00258532
816,-20.0,48.0,0.0,  -111.196E-06,  -12.9154E-06,  -65.2884E-03,0.0043496,0.0128126,0.00273292
821,-21.0,48.0,0.0,  -115.739E-06,  -13.7926E-06,  -64.5177E-03,0.00402455,0.0117486,0.00288207
822,-22.0,48.0,0.0,  -120.064E-06,  -14.6277E-06,  -63.6974E-03,0.00368318,0.0106351,0.00303275
827,-23.0,48.0,0.0,  -124.137E-06,  -15.3952E-06,  -62.8258E-03,0.00332547,0.00947277,0.00318494
830,-24.0,48.0,0.0,  -127.922E-06,  -16.0646E-06,  -61.9006E-03,0.00295143,0.00826281,0.00333858
831,-25.0,48.0,0.0,  -131.373E-06,  -16.5991E-06,  -60.9199E-03,0.0025611,0.00700646,0.0034936
836,-26.0,48.0,0.0,  -134.440E-06,  -16.9553E-06,  -59.8813E-03,0.00215458,0.00570521,0.00364989
837,-27.0,48.0,0.0,  -137.065E-06,  -17.0814E-06,  -58.7821E-03,0.00173203,0.00436087,0.00380737
842,-28.0,48.0,0.0,  -139.181E-06,  -16.9159E-06,  -57.6197E-03,0.00129374,0.00297562,0.00396594
845,-29.0,48.0,0.0,  -140.713E-06,  -16.3869E-06,  -56.3909E-03,0.00084024,0.00155208,0.00412555
846,-30.0,48.0,0.0,  -141.580E-06,  -15.4100E-06,  -55.0922E-03,0.000372349,9.34759e-05,0.00428625
851,-31.0,48.0,0.0,  -141.689E-06,  -13.8876E-06,  -53.7198E-03,-0.00010858,-0.00139612,0.00444831
852,-32.0,48.0,0.0,  -140.944E-06,  -11.7091E-06,  -52.2690E-03,-0.000600399,-0.00291145,0.00461231
857,-33.0,48.0,0.0,  -139.247E-06,  -8.75173E-06,  -50.7346E-03,-0.00109974,-0.00444554,0.00477948
860,-34.0,48.0,0.0,  -136.502E-06,  -4.88543E-06,  -49.1101E-03,-0.00160138,-0.00598883,0.004952
861,-35.0,48.0,0.0,  -132.625E-06,   17.4069E-09,  -47.3873E-03,-0.00209742,-0.00752792,0.00513358
866,-36.0,48.0,0.0,  -127.554E-06,   6.06375E-06,  -45.5560E-03,-0.00257611,-0.00904372,0.00533028
867,-37.0,48.0,0.0,  -121.269E-06,   13.3090E-06,  -43.6026E-03,-0.0030205,-0.0105088,0.00555153
872,-38.0,48.0,0.0,  -113.803E-06,   21.7085E-06,  -41.5092E-03,-0.00340707,-0.0118842,0.00581135
875,-39.0,48.0,0.0,  -105.264E-06,   31.0477E-06,  -39.2515E-03,-0.0037047,-0.0131148,0.00612962
876,-40.0,48.0,0.0,  -95.8421E-06,   40.8518E-06,  -36.7971E-03,-0.00387567,-0.0141259,0.00653236
881,-41.0,48.0,0.0,  -85.8041E-06,   50.2911E-06,  -34.1032E-03,-0.00387937,-0.0148207,0.00705052
882,-42.0,48.0,0.0,  -75.4557E-06,   58.1157E-06,  -31.1157E-03,-0.00368342,-0.015082,0.00771332
887,-43.0,48.0,0.0,  -65.0630E-06,   62.6991E-06,  -27.7714E-03,-0.00328345,-0.0147841,0.00853575
890,-44.0,48.0,0.0,  -54.7382E-06,   62.2980E-06,  -24.0070E-03,-0.00273458,-0.0138174,0.00949046
891,-45.0,48.0,0.0,  -44.3398E-06,   55.6359E-06,  -19.7804E-03,-0.00220223,-0.0121409,0.0104697
896,-46.0,48.0,0.0,  -33.5177E-06,   42.8306E-06,  -15.1144E-03,-0.00200003,-0.00984241,0.0112219
897,-47.0,48.0,0.0,  -22.0991E-06,   26.3088E-06,  -10.1692E-03,-0.00268826,-0.00726364,0.0112919
902,-48.0,48.0,0.0,  -10.9583E-06,   10.9583E-06,  -5.36408E-03,-0.00499165,-0.00499165,0.00999819
905,-49.0,48.0,0.0,  -2.75038E-06,   1.93259E-06,  -1.53632E-03,-0.00927052,-0.00373595,0.00649318
906,-50.0,48.0,0.0,  -612.367E-45,  -2.14118E-42,           -0.,-0.0118969,-0.00355843,0.00183612
911,50.0,47.0,0.0,  -28.6467E-42,  -17.1014E-42,           -0.,-0.0222295,-0.00664676,-0.00188207
912,49.0,47.0,0.0,   2.16353E-06,   1.20069E-06,  -2.92357E-03,-0.0165253,-0.00489382,-0.00715949
917,48.0,47.0,0.0,   26.3088E-06,   22.0991E-06,  -10.1692E-03,-0.00726364,-0.00268826,-0.0112919
920,47.0,47.0,0.0,   64.7942E-06,   64.7942E-06,  -19.2879E-03,-0.00162583,-0.00162583,-0.0129908
921,46.0,47.0,0.0,   106.435E-06,   122.627E-06,  -28.7706E-03,0.00145094,-0.000977981,-0.0131947
926,45.0,47.0,0.0,   144.567E-06,   185.923E-06,  -37.7884E-03,0.00281853,-0.000417215,-0.01257
927,44.0,47.0,0.0,   176.976E-06,   246.879E-06,  -45.9790E-03,0.00323609,0.000268156,-0.011579
932,43.0,47.0,0.0,   203.796E-06,   301.268E-06,  -53.2562E-03,0.00323637,0.00118852,-0.0105173
935,42.0,47.0,0.0,   225.914E-06,   347.968E-06,  -59.6754E-03,0.00313902,0.00237179,-0.00953516
936,41.0,47.0,0.0,   244.210E-06,   387.766E-06,  -65.3497E-03,0.00311283,0.00380214,-0.0086932
941,40.0,47.0,0.0,   259.324E-06,   422.230E-06,  -70.4033E-03,0.00322303,0.00543702,-0.00799813
942,39.0,47.0,0.0,   271.676E-06,   452.989E-06,  -74.9483E-03,0.00347642,0.00722557,-0.00743231
947,38.0,47.0,0.0,   281.537E-06,   481.381E-06,  -79.0771E-03,0.00385177,0.00911784,-0.00696953
948,37.0,47.0,0.0,   289.103E-06,   508.355E-06,  -82.8621E-03,0.00431849,0.0110707,-0.00658429
953,36.0,47.0,0.0,   294.543E-06,   534.504E-06,  -86.3584E-03,0.00484678,0.0130493,-0.0062552
954,35.0,47.0,0.0,   298.019E-06,   560.152E-06,  -89.6075E-03,0.00541163,0.0150275,-0.00596593
959,34.0,47.0,0.0,   299.697E-06,   585.435E-06,  -92.6406E-03,0.0059939,0.0169858,-0.00570467
962,33.0,47.0,0.0,   299.745E-06,   610.373E-06,  -95.4818E-03,0.00657975,0.0189107,-0.00546321
963,32.0,47.0,0.0,   298.327E-06,   634.923E-06,  -98.1496E-03,0.00715965,0.0207924,-0.00523601
968,31.0,47.0,0.0,   295.606E-06,   659.012E-06,  -100.659E-03,0.00772726,0.0226245,-0.00501936
969,30.0,47.0,0.0,   291.734E-06,   682.554E-06,  -103.022E-03,0.00827855,0.0244024,-0.00481086
974,29.0,47.0,0.0,   286.853E-06,   705.472E-06,  -105.248E-03,0.00881107,0.026123,-0.00460888
977,28.0,47.0,0.0,   281.090E-06,   727.694E-06,  -107.346E-03,0.00932342,0.0277842,-0.00441239
978,27.0,47.0,0.0,   274.563E-06,   749.160E-06,  -109.324E-03,0.0098149,0.0293849,-0.00422065
983,26.0,47.0,0.0,   267.374E-06,   769.824E-06,  -111.189E-03,0.0102853,0.030924,-0.00403317
984,25.0,47.0,0.0,   259.615E-06,   789.648E-06,  -112.945E-03,0.0107345,0.032401,-0.00384958
989,24.0,47.0,0.0,   251.365E-06,   808.609E-06,  -114.598E-03,0.0111629,0.0338158,-0.00366961
992,23.0,47.0,0.0,   242.693E-06,   826.688E-06,  -116.154E-03,0.0115706,0.0351684,-0.00349301
993,22.0,47.0,0.0,   233.660E-06,   843.876E-06,  -117.616E-03,0.011958,0.0364587,-0.00331959
998,21.0,47.0,0.0,   224.318E-06,   860.171E-06,  -118.989E-03,0.0123256,0.037687,-0.00314918
999,20.0,47.0,0.0,   214.710E-06,   875.573E-06,  -120.276E-03,0.0126735,0.0388537,-0.0029816
1004,19.0,47.0,0.0,   204.875E-06,   890.091E-06,  -121.481E-03,0.0130022,0.0399592,-0.00281669
1007,18.0,47.0,0.0,   194.846E-06,   903.732E-06,  -122.607E-03,0.013312,0.0410037,-0.00265431
1008,17.0,47.0,0.0,   184.651E-06,   916.510E-06,  -123.656E-03,0.0136033,0.041988,-0.00249429
1013,16.0,47.0,0.0,   174.314E-06,   928.438E-06,  -124.632E-03,0.0138764,0.0429123,-0.00233649
1014,15.0,47.0,0.0,   163.854E-06,   939.532E-06,  -125.537E-03,0.0141315,0.0437773,-0.00218077
1019,14.0,47.0,0.0,   153.289E-06,   949.808E-06,  -126.373E-03,0.0143689,0.0445835,-0.00202697
1022,13.0,47.0,0.0,   142.635E-06,   959.283E-06,  -127.143E-03,0.0145888,0.0453314,-0.00187495
1023,12.0,47.0,0.0,   131.904E-06,   967.974E-06,  -127.848E-03,0.0147916,0.0460215,-0.00172458
1028,11.0,47.0,0.0,   121.106E-06,   975.898E-06,  -128.490E-03,0.0149774,0.0466543,-0.00157571
1029,10.0,47.0,0.0,   110.251E-06,   983.072E-06,  -129.072E-03,0.0151464,0.0472303,-0.00142821
1034,9.0,47.0,0.0,   99.3483E-06,   989.510E-06,  -129.593E-03,0.0152987,0.04775,-0.00128194
1037,8.0,47.0,0.0,   88.4037E-06,   995.227E-06,  -130.056E-03,0.0154346,0.0482137,-0.00113677
1038,7.0,47.0,0.0,   77.4240E-06,   1.00024E-03,  -130.462E-03,0.0155542,0.0486219,-0.000992578
1043,6.0,47.0,0.0,   66.4148E-06,   1.00455E-03,  -130.812E-03,0.0156576,0.048975,-0.000849229
1044,5.0,47.0,0.0,   55.3812E-06,   1.00819E-03,  -131.106E-03,0.0157449,0.0492732,-0.0007066
1049,4.0,47.0,0.0,   44.3278E-06,   1.01115E-03,  -131.346E-03,0.0158162,0.0495167,-0.000564568
1052,3.0,47.0,0.0,   33.2590E-06,   1.01344E-03,  -131.532E-03,0.0158716,0.049706,-0.000423012
1053,2.0,47.0,0.0,   22.1789E-06,   1.01507E-03,  -131.664E-03,0.0159111,0.049841,-0.000281811
1058,1.0,47.0,0.0,   11.0913E-06,   1.01605E-03,  -131.744E-03,0.0159348,0.049922,-0.000140846
1059,0.0,47.0,0.0,   8.54709E-15,   1.01638E-03,  -131.770E-03,0.0159427,0.049949,9.09495e-13
1064,-1.0,47.0,0.0,  -11.0913E-06,   1.01605E-03,  -131.744E-03,0.0159348,0.049922,0.000140846
1067,-2.0,47.0,0.0,  -22.1789E-06,   1.01507E-03,  -131.664E-03,0.0159111,0.049841,0.000281811
1068,-3.0,47.0,0.0,  -33.2590E-06,   1.01344E-03,  -131.532E-03,0.0158716,0.049706,0.000423012
1073,-4.0,47.0,0.0,  -44.3278E-06,   1.01115E-03,  -131.346E-03,0.0158162,0.0495168,0.000564568
1074,-5.0,47.0,0.0,  -55.3812E-06,   1.00819E-03,  -131.106E-03,0.0157449,0.0492732,0.0007066
1079,-6.0,47.0,0.0,  -66.4148E-06,   1.00455E-03,  -130.812E-03,0.0156576,0.048975,0.000849229
1082,-7.0,47.0,0.0,  -77.4240E-06,   1.00024E-03,  -130.462E-03,0.0155542,0.0486219,0.000992578
1083,-8.0,47.0,0.0,  -88.4037E-06,   995.227E-06,  -130.056E-03,0.0154346,0.0482137,0.00113677
1088,-9.0,47.0,0.0,  -99.3483E-06,   989.510E-06,  -129.593E-03,0.0152987,0.04775,0.00128194
1089,-10.0,47.0,0.0,  -110.251E-06,   983.072E-06,  -129.072E-03,0.0151464,0.0472303,0.00142821
1094,-11.0,47.0,0.0,  -121.106E-06,   975.898E-06,  -128.490E-03,0.0149774,0.0466543,0.00157571
1097,-12.0,47.0,0.0,  -131.904E-06,   967.974E-06,  -127.848E-03,0.0147916,0.0460215,0.00172458
1098,-13.0,47.0,0.0,  -142.635E-06,   959.283E-06,  -127.143E-03,0.0145888,0.0453314,0.00187495
1103,-14.0,47.0,0.0,  -153.289E-06,   949.808E-06,  -126.373E-03,0.0143689,0.0445835,0.00202697
1104,-15.0,47.0,0.0,  -163.854E-06,   939.532E-06,  -125.537E-03,0.0141315,0.0437773,0.00218077
1109,-16.0,47.0,0.0,  -174.314E-06,   928.438E-06,  -124.632E-03,0.0138764,0.0429123,0.00233649
1112,-17.0,47.0,0.0,  -184.651E-06,   916.510E-06,  -123.656E-03,0.0136033,0.041988,0.00249429
1113,-18.0,47.0,0.0,  -194.846E-06,   903.732E-06,  -122.607E-03,0.013312,0.0410037,0.00265431
1118,-19.0,47.0,0.0,  -204.875E-06,   890.091E-06,  -121.481E-03,0.0130022,0.0399592,0.00281669
1119,-20.0,47.0,0.0,  -214.710E-06,   875.573E-06,  -120.276E-03,0.0126735,0.0388537,0.0029816
1124,-21.0,47.0,0.0,  -224.318E-06,   860.171E-06,  -118.989E-03,0.0123256,0.037687,0.00314918
1127,-22.0,47.0,0.0,  -233.660E-06,   843.876E-06,  -117.616E-03,0.011958,0.0364587,0.00331959
1128,-23.0,47.0,0.0,  -242.693E-06,   826.688E-06,  -116.154E-03,0.0115706,0.0351684,0.00349301
1133,-24.0,47.0,0.0,  -251.365E-06,   808.609E-06,  -114.598E-03,0.0111629,0.0338158,0.00366961
1134,-25.0,47.0,0.0,  -259.615E-06,   789.648E-06,  -112.945E-03,0.0107345,0.032401,0.00384958
1139,-26.0,47.0,0.0,  -267.374E-06,   769.824E-06,  -111.189E-03,0.0102853,0.030924,0.00403317
1142,-27.0,47.0,0.0,  -274.563E-06,   749.160E-06,  -109.324E-03,0.0098149,0.0293849,0.00422065
1143,-28.0,47.0,0.0,  -281.090E-06,   727.694E-06,  -107.346E-03,0.00932342,0.0277842,0.00441239
1148,-29.0,47.0,0.0,  -286.853E-06,   705.472E-06,  -105.248E-03,0.00881107,0.026123,0.00460888
1149,-30.0,47.0,0.0,  -291.734E-06,   682.554E-06,  -103.022E-03,0.00827855,0.0244024,0.00481086
1154,-31.0,47.0,0.0,  -295.606E-06,   659.012E-06,  -100.659E-03,0.00772726,0.0226245,0.00501936
1157,-32.0,47.0,0.0,  -298.327E-06,   634.923E-06,  -98.1496E-03,0.00715965,0.0207924,0.00523601
1158,-33.0,47.0,0.0,  -299.745E-06,   610.373E-06,  -95.4818E-03,0.00657975,0.0189107,0.00546321
1163,-34.0,47.0,0.0,  -299.697E-06,   585.435E-06,  -92.6406E-03,0.0059939,0.0169858,0.00570467
1164,-35.0,47.0,0.0,  -298.019E-06,   560.152E-06,  -89.6075E-03,0.00541163,0.0150275,0.00596593
1169,-36.0,47.0,0.0,  -294.543E-06,   534.504E-06,  -86.3584E-03,0.00484678,0.0130493,0.0062552
1172,-37.0,47.0,0.0,  -289.103E-06,   508.355E-06,  -82.8621E-03,0.00431849,0.0110707,0.00658429
1173,-38.0,47.0,0.0,  -281.537E-06,   481.381E-06,  -79.0771E-03,0.00385177,0.00911784,0.00696953
1178,-39.0,47.0,0.0,  -271.676E-06,   452.989E-06,  -74.9483E-03,0.00347642,0.00722557,0.00743231
1179,-40.0,47.0,0.0,  -259.324E-06,   422.230E-06,  -70.4033E-03,0.00322303,0.00543702,0.00799813
1184,-41.0,47.0,0.0,  -244.210E-06,   387.766E-06,  -65.3497E-03,0.00311283,0.00380214,0.0086932
1187,-42.0,47.0,0.0,  -225.914E-06,   347.968E-06,  -59.6754E-03,0.00313902,0.00237179,0.00953516
1188,-43.0,47.0,0.0,  -203.796E-06,   301.268E-06,  -53.2562E-03,0.00323637,0.00118852,0.0105173
1193,-44.0,47.0,0.0,  -176.976E-06,   246.879E-06,  -45.9790E-03,0.00323609,0.000268156,0.011579
1194,-45.0,47.0,0.0,  -144.567E-06,   185.923E-06,  -37.7884E-03,0.00281853,-0.000417215,0.01257
1199,-46.0,47.0,0.0,  -106.435E-06,   122.627E-06,  -28.7706E-03,0.00145094,-0.000977981,0.0131947
1202,-47.0,47.0,0.0,  -64.7942E-06,   64.7942E-06,  -19.2879E-03,-0.00162583,-0.00162583,0.0129908
1203,-48.0,47.0,0.0,  -26.3088E-06,   22.0991E-06,  -10.1692E-03,-0.00726364,-0.00268826,0.0112919
1208,-49.0,47.0,0.0,  -2.16353E-06,   1.20069E-06,  -2.92357E-03,-0.0165253,-0.00489382,0.00715949
1209,-50.0,47.0,0.0,   28.6467E-42,  -17.1014E-42,           -0.,-0.0222295,-0.00664676,0.00188207
1214,50.0,46.0,0.0,  -84.1956E-42,  -39.2812E-42,           -0.,-0.0322296,-0.00964324,-0.00168171
1217,49.0,46.0,0.0,  -3.00263E-06,  -258.002E-09,  -4.33217E-03,-0.0237875,-0.00667153,-0.00689407
1218,48.0,46.0,0.0,   42.8306E-06,   33.5177E-06,  -15.1144E-03,-0.00984241,-0.00200003,-0.0112219
1223,47.0,46.0,0.0,   122.627E-06,   106.435E-06,  -28.7706E-03,-0.000977981,0.00145094,-0.0131947
1224,46.0,46.0,0.0,   211.093E-06,   211.093E-06,  -43.0773E-03,0.00424688,0.00424688,-0.0136884
1229,45.0,46.0,0.0,   291.676E-06,   333.611E-06,  -56.7791E-03,0.0070035,0.00668073,-0.0133353
1232,44.0,46.0,0.0,   357.736E-06,   460.525E-06,  -69.2803E-03,0.00821789,0.00887677,-0.0125489
1233,43.0,46.0,0.0,   408.797E-06,   582.444E-06,  -80.3998E-03,0.00859399,0.010927,-0.0116057
1238,42.0,46.0,0.0,   446.986E-06,   694.587E-06,  -90.1853E-03,0.00860368,0.0129013,-0.0106651
1239,41.0,46.0,0.0,   474.964E-06,   795.696E-06,  -98.7893E-03,0.00852783,0.0148479,-0.00980773
1244,40.0,46.0,0.0,   495.053E-06,   886.568E-06,  -106.394E-03,0.00851077,0.0167949,-0.00906151
1247,39.0,46.0,0.0,   509.022E-06,   968.852E-06,  -113.175E-03,0.00860825,0.0187519,-0.0084262
1248,38.0,46.0,0.0,   518.143E-06,   1.04431E-03,  -119.279E-03,0.00882622,0.0207167,-0.00788763
1253,37.0,46.0,0.0,   523.322E-06,   1.11445E-03,  -124.825E-03,0.00914715,0.0226798,-0.00742767
1254,36.0,46.0,0.0,   525.216E-06,   1.18040E-03,  -129.908E-03,0.00954566,0.0246294,-0.00702876
1259,35.0,46.0,0.0,   524.324E-06,   1.24297E-03,  -134.598E-03,0.00999684,0.0265539,-0.00667615
1262,34.0,46.0,0.0,   521.038E-06,   1.30265E-03,  -138.950E-03,0.0104796,0.0284431,-0.0063583
1263,33.0,46.0,0.0,   515.681E-06,   1.35977E-03,  -143.003E-03,0.0109778,0.0302892,-0.00606661
1268,32.0,46.0,0.0,   508.528E-06,   1.41451E-03,  -146.792E-03,0.0114794,0.0320859,-0.00579485
1269,31.0,46.0,0.0,   499.818E-06,   1.46695E-03,  -150.340E-03,0.0119761,0.0338291,-0.0055386
1274,30.0,46.0,0.0,   489.761E-06,   1.51717E-03,  -153.669E-03,0.0124623,0.0355156,-0.0052947
1277,29.0,46.0,0.0,   478.540E-06,   1.56518E-03,  -156.796E-03,0.0129345,0.0371436,-0.00506093
1278,28.0,46.0,0.0,   466.318E-06,   1.61102E-03,  -159.734E-03,0.0133904,0.0387118,-0.00483566
1283,27.0,46.0,0.0,   453.238E-06,   1.65470E-03,  -162.497E-03,0.0138285,0.0402196,-0.0046177
1284,26.0,46.0,0.0,   439.426E-06,   1.69624E-03,  -165.094E-03,0.0142484,0.0416665,-0.00440617
1289,25.0,46.0,0.0,   424.990E-06,   1.73568E-03,  -167.536E-03,0.0146496,0.0430527,-0.00420035
1292,24.0,46.0,0.0,   410.025E-06,   1.77305E-03,  -169.830E-03,0.0150323,0.0443784,-0.0039997
1293,23.0,46.0,0.0,   394.613E-06,   1.80840E-03,  -171.985E-03,0.0153964,0.0456437,-0.00380374
1298,22.0,46.0,0.0,   378.825E-06,   1.84175E-03,  -174.007E-03,0.0157423,0.0468493,-0.00361208
1299,21.0,46.0,0.0,   362.721E-06,   1.87317E-03,  -175.902E-03,0.0160703,0.0479955,-0.00342438
1304,20.0,46.0,0.0,   346.354E-06,   1.90269E-03,  -177.676E-03,0.0163807,0.049083,-0.00324032
1307,19.0,46.0,0.0,   329.767E-06,   1.93037E-03,  -179.335E-03,0.0166738,0.0501123,-0.00305964
1308,18.0,46.0,0.0,   312.998E-06,   1.95626E-03,  -180.883E-03,0.0169499,0.051084,-0.00288207
1313,17.0,46.0,0.0,   296.079E-06,   1.98041E-03,  -182.324E-03,0.0172094,0.0519989,-0.00270739
1314,16.0,46.0,0.0,   279.035E-06,   2.00287E-03,  -183.663E-03,0.0174524,0.0528574,-0.00253537
1319,15.0,46.0,0.0,   261.890E-06,   2.02369E-03,  -184.903E-03,0.0176795,0.0536602,-0.00236581
1322,14.0,46.0,0.0,   244.662E-06,   2.04291E-03,  -186.049E-03,0.0178907,0.054408,-0.0021985
1323,13.0,46.0,0.0,   227.366E-06,   2.06059E-03,  -187.102E-03,0.0180863,0.0551013,-0.00203327
1328,12.0,46.0,0.0,   210.015E-06,   2.07677E-03,  -188.066E-03,0.0182665,0.0557408,-0.00186992
1329,11.0,46.0,0.0,   192.620E-06,   2.09149E-03,  -188.944E-03,0.0184317,0.0563269,-0.0017083
1334,10.0,46.0,0.0,   175.189E-06,   2.10480E-03,  -189.737E-03,0.0185818,0.0568601,-0.00154823
1337,9.0,46.0,0.0,   157.730E-06,   2.11672E-03,  -190.449E-03,0.0187172,0.0573411,-0.00138955
1338,8.0,46.0,0.0,   140.248E-06,   2.12729E-03,  -191.081E-03,0.0188379,0.0577701,-0.00123211
1343,7.0,46.0,0.0,   122.748E-06,   2.13654E-03,  -191.634E-03,0.0189441,0.0581477,-0.00107576
1344,6.0,46.0,0.0,   105.234E-06,   2.14450E-03,  -192.111E-03,0.0190359,0.0584741,-0.000920353
1349,5.0,46.0,0.0,   87.7097E-06,   2.15120E-03,  -192.512E-03,0.0191134,0.0587498,-0.00076575
1352,4.0,46.0,0.0,   70.1767E-06,   2.15665E-03,  -192.839E-03,0.0191767,0.058975,-0.00061181
1353,3.0,46.0,0.0,   52.6375E-06,   2.16087E-03,  -193.092E-03,0.0192259,0.0591499,-0.000458399
1358,2.0,46.0,0.0,   35.0939E-06,   2.16388E-03,  -193.272E-03,0.019261,0.0592747,-0.000305381
1359,1.0,46.0,0.0,   17.5476E-06,   2.16568E-03,  -193.380E-03,0.019282,0.0593495,-0.000152625
1364,0.0,46.0,0.0,   9.35029E-15,   2.16628E-03,  -193.416E-03,0.019289,0.0593744,0.0
1367,-1.0,46.0,0.0,  -17.5476E-06,   2.16568E-03,  -193.380E-03,0.019282,0.0593495,0.000152625
1368,-2.0,46.0,0.0,  -35.0939E-06,   2.16388E-03,  -193.272E-03,0.019261,0.0592747,0.000305381
1373,-3.0,46.0,0.0,  -52.6375E-06,   2.16087E-03,  -193.092E-03,0.0192259,0.0591499,0.000458399
1374,-4.0,46.0,0.0,  -70.1767E-06,   2.15665E-03,  -192.839E-03,0.0191767,0.058975,0.00061181
1379,-5.0,46.0,0.0,  -87.7097E-06,   2.15120E-03,  -192.512E-03,0.0191134,0.0587498,0.00076575
1382,-6.0,46.0,0.0,  -105.234E-06,   2.14450E-03,  -192.111E-03,0.0190359,0.0584741,0.000920353
1383,-7.0,46.0,0.0,  -122.748E-06,   2.13654E-03,  -191.634E-03,0.0189441,0.0581477,0.00107576
1388,-8.0,46.0,0.0,  -140.248E-06,   2.12729E-03,  -191.081E-03,0.0188379,0.0577701,0.00123211
1389,-9.0,46.0,0.0,  -157.730E-06,   2.11672E-03,  -190.449E-03,0.0187172,0.0573411,0.00138955
1394,-10.0,46.0,0.0,  -175.189E-06,   2.10480E-03,  -189.737E-03,0.0185818,0.0568601,0.00154823
1397,-11.0,46.0,0.0,  -192.620E-06,   2.09149E-03,  -188.944E-03,0.0184317,0.0563269,0.0017083
1398,-12.0,46.0,0.0,  -210.015E-06,   2.07677E-03,  -188.066E-03,0.0182665,0.0557408,0.00186992
1403,-13.0,46.0,0.0,  -227.366E-06,   2.06059E-03,  -187.102E-03,0.0180863,0.0551013,0.00203327
1404,-14.0,46.0,0.0,  -244.662E-06,   2.04291E-03,  -186.049E-03,0.0178907,0.054408,0.0021985
1409,-15.0,46.0,0.0,  -261.890E-06,   2.02369E-03,  -184.903E-03,0.0176795,0.0536602,0.00236581
1412,-16.0,46.0,0.0,  -279.035E-06,   2.00287E-03,  -183.663E-03,0.0174524,0.0528574,0.00253537
1413,-17.0,46.0,0.0,  -296.079E-06,   1.98041E-03,  -182.324E-03,0.0172094,0.0519988,0.00270739
1418,-18.0,46.0,0.0,  -312.998E-06,   1.95626E-03,  -180.883E-03,0.0169499,0.051084,0.00288207
1419,-19.0,46.0,0.0,  -329.767E-06,   1.93037E-03,  -179.335E-03,0.0166738,0.0501123,0.00305964
1424,-20.0,46.0,0.0,  -346.354E-06,   1.90269E-03,  -177.676E-03,0.0163807,0.049083,0.00324032
1427,-21.0,46.0,0.0,  -362.721E-06,   1.87317E-03,  -175.902E-03,0.0160703,0.0479955,0.00342438
1428,-22.0,46.0,0.0,  -378.825E-06,   1.84175E-03,  -174.007E-03,0.0157423,0.0468493,0.00361208
1433,-23.0,46.0,0.0,  -394.613E-06,   1.80840E-03,  -171.985E-03,0.0153964,0.0456437,0.00380374
1434,-24.0,46.0,0.0,  -410.025E-06,   1.77305E-03,  -169.830E-03,0.0150323,0.0443784,0.0039997
1439,-25.0,46.0,0.0,  -424.990E-06,   1.73568E-03,  -167.536E-03,0.0146496,0.0430527,0.00420035
1442,-26.0,46.0,0.0,  -439.426E-06,   1.69624E-03,  -165.094E-03,0.0142484,0.0416665,0.00440617
1443,-27.0,46.0,0.0,  -453.238E-06,   1.65470E-03,  -162.497E-03,0.0138285,0.0402196,0.0046177
1448,-28.0,46.0,0.0,  -466.318E-06,   1.61102E-03,  -159.734E-03,0.0133903,0.0387118,0.00483566
1449,-29.0,46.0,0.0,  -478.540E-06,   1.56518E-03,  -156.796E-03,0.0129345,0.0371436,0.00506093
1454,-30.0,46.0,0.0,  -489.761E-06,   1.51717E-03,  -153.669E-03,0.0124623,0.0355156,0.0052947
1457,-31.0,46.0,0.0,  -499.818E-06,   1.46695E-03,  -150.340E-03,0.0119761,0.0338291,0.0055386
1458,-32.0,46.0,0.0,  -508.528E-06,   1.41451E-03,  -146.792E-03,0.0114794,0.0320859,0.00579485
1463,-33.0,46.0,0.0,  -515.681E-06,   1.35977E-03,  -143.003E-03,0.0109778,0.0302892,0.00606661
1464,-34.0,46.0,0.0,  -521.038E-06,   1.30265E-03,  -138.950E-03,0.0104796,0.0284431,0.0063583
1469,-35.0,46.0,0.0,  -524.324E-06,   1.24297E-03,  -134.598E-03,0.00999684,0.0265539,0.00667615
1472,-36.0,46.0,0.0,  -525.216E-06,   1.18040E-03,  -129.908E-03,0.00954566,0.0246294,0.00702876
1473,-37.0,46.0,0.0,  -523.322E-06,   1.11445E-03,  -124.825E-03,0.00914715,0.0226798,0.00742767
1478,-38.0,46.0,0.0,  -518.143E-06,   1.04431E-03,  -119.279E-03,0.00882622,0.0207167,0.00788763
1479,-39.0,46.0,0.0,  -509.022E-06,   968.852E-06,  -113.175E-03,0.00860825,0.0187519,0.0084262
1484,-40.0,46.0,0.0,  -495.053E-06,   886.568E-06,  -106.394E-03,0.00851077,0.0167948,0.00906151
1487,-41.0,46.0,0.0,  -474.964E-06,   795.696E-06,  -98.7893E-03,0.00852783,0.0148479,0.00980773
1488,-42.0,46.0,0.0,  -446.986E-06,   694.587E-06,  -90.1853E-03,0.00860368,0.0129013,0.0106651
1493,-43.0,46.0,0.0,  -408.797E-06,   582.444E-06,  -80.3998E-03,0.00859399,0.010927,0.0116057
1494,-44.0,46.0,0.0,  -357.736E-06,   460.525E-06,  -69.2803E-03,0.00821789,0.00887677,0.0125489
1499,-45.0,46.0,0.0,  -291.676E-06,   333.611E-06,  -56.7791E-03,0.0070035,0.00668073,0.0133353
1502,-46.0,46.0,0.0,  -211.093E-06,   211.093E-06,  -43.0773E-03,0.00424688,0.00424688,0.0136884
1503,-47.0,46.0,0.0,  -122.627E-06,   106.435E-06,  -28.7706E-03,-0.000977981,0.00145094,0.0131947
1508,-48.0,46.0,0.0,  -42.8306E-06,   33.5177E-06,  -15.1144E-03,-0.00984241,-0.00200003,0.0112219
1509,-49.0,46.0,0.0,   3.00263E-06,  -258.002E-09,  -4.33217E-03,-0.0237875,-0.00667153,0.00689407
1514,-50.0,46.0,0.0,   84.1956E-42,  -39.2812E-42,           -0.,-0.0322296,-0.00964324,0.00168171
1517,50.0,45.0,0.0,  -164.019E-42,  -66.4552E-42,           -0.,-0.0410204,-0.0122837,-0.00140243
1518,49.0,45.0,0.0,  -13.8789E-06,  -1.42541E-06,  -5.65269E-03,-0.0301861,-0.00851659,-0.00627409
1523,48.0,45.0,0.0,   55.6359E-06,   44.3398E-06,  -19.7804E-03,-0.0121409,-0.00220223,-0.0104697
1524,47.0,45.0,0.0,   185.923E-06,   144.567E-06,  -37.7884E-03,-0.000417215,0.00281853,-0.01257
1529,46.0,45.0,0.0,   333.611E-06,   291.676E-06,  -56.7791E-03,0.00668073,0.0070035,-0.0133353
1532,45.0,45.0,0.0,   468.924E-06,   468.924E-06,  -75.0861E-03,0.0105933,0.0105933,-0.0133097
1533,44.0,45.0,0.0,   578.914E-06,   658.481E-06,  -91.8839E-03,0.0124521,0.0137024,-0.0128383
1538,43.0,45.0,0.0,   661.777E-06,   846.418E-06,  -106.883E-03,0.013104,0.0164165,-0.0121503
1539,42.0,45.0,0.0,   720.944E-06,   1.02422E-03,  -120.105E-03,0.0131423,0.0188245,-0.0113876
1544,41.0,45.0,0.0,   761.297E-06,   1.18812E-03,  -131.722E-03,0.0129454,0.0210137,-0.0106353
1547,40.0,45.0,0.0,   787.378E-06,   1.33756E-03,  -141.962E-03,0.0127287,0.0230561,-0.00993618
1548,39.0,45.0,0.0,   802.797E-06,   1.47371E-03,  -151.052E-03,0.0125958,0.0250045,-0.00930679
1553,38.0,45.0,0.0,   810.220E-06,   1.59843E-03,  -159.193E-03,0.0125818,0.0268914,-0.00874801
1554,37.0,45.0,0.0,   811.552E-06,   1.71357E-03,  -166.550E-03,0.0126848,0.0287344,-0.00825304
1559,36.0,45.0,0.0,   808.144E-06,   1.82076E-03,  -173.255E-03,0.0128859,0.0305404,-0.00781207
1562,35.0,45.0,0.0,   800.965E-06,   1.92124E-03,  -179.411E-03,0.0131617,0.0323104,-0.00741523
1563,34.0,45.0,0.0,   790.723E-06,   2.01595E-03,  -185.096E-03,0.0134899,0.0340421,-0.00705375
1568,33.0,45.0,0.0,   777.957E-06,   2.10554E-03,  -190.370E-03,0.0138517,0.0357324,-0.00672047
1569,32.0,45.0,0.0,   763.085E-06,   2.19049E-03,  -195.282E-03,0.0142327,0.0373778,-0.00640976
1574,31.0,45.0,0.0,   746.444E-06,   2.27111E-03,  -199.868E-03,0.014622,0.0389755,-0.00611732
1577,30.0,45.0,0.0,   728.309E-06,   2.34764E-03,  -204.159E-03,0.015012,0.0405231,-0.0058399
1578,29.0,45.0,0.0,   708.914E-06,   2.42028E-03,  -208.179E-03,0.0153973,0.0420189,-0.00557504
1583,28.0,45.0,0.0,   688.455E-06,   2.48916E-03,  -211.949E-03,0.0157741,0.0434618,-0.00532087
1584,27.0,45.0,0.0,   667.100E-06,   2.55442E-03,  -215.487E-03,0.0161402,0.0448509,-0.00507595
1589,26.0,45.0,0.0,   644.994E-06,   2.61617E-03,  -218.808E-03,0.0164938,0.0461857,-0.00483913
1592,25.0,45.0,0.0,   622.261E-06,   2.67452E-03,  -221.925E-03,0.0168341,0.047466,-0.0046095
1593,24.0,45.0,0.0,   599.007E-06,   2.72959E-03,  -224.850E-03,0.0171603,0.0486919,-0.00438631
1598,23.0,45.0,0.0,   575.324E-06,   2.78148E-03,  -227.594E-03,0.0174723,0.0498633,-0.00416892
1599,22.0,45.0,0.0,   551.290E-06,   2.83029E-03,  -230.165E-03,0.0177699,0.0509805,-0.0039568
1604,21.0,45.0,0.0,   526.970E-06,   2.87612E-03,  -232.573E-03,0.0180529,0.0520439,-0.00374948
1607,20.0,45.0,0.0,   502.422E-06,   2.91908E-03,  -234.825E-03,0.0183216,0.0530537,-0.00354655
1608,19.0,45.0,0.0,   477.692E-06,   2.95927E-03,  -236.928E-03,0.018576,0.0540103,-0.00334764
1613,18.0,45.0,0.0,   452.821E-06,   2.99677E-03,  -238.890E-03,0.0188162,0.0549142,-0.00315242
1614,17.0,45.0,0.0,   427.841E-06,   3.03169E-03,  -240.715E-03,0.0190424,0.0557659,-0.00296058
1619,16.0,45.0,0.0,   402.779E-06,   3.06411E-03,  -242.409E-03,0.0192547,0.0565657,-0.00277185
1622,15.0,45.0,0.0,   377.658E-06,   3.09411E-03,  -243.978E-03,0.0194533,0.0573142,-0.00258596
1623,14.0,45.0,0.0,   352.496E-06,   3.12178E-03,  -245.425E-03,0.0196384,0.0580117,-0.00240267
1628,13.0,45.0,0.0,   327.307E-06,   3.14720E-03,  -246.756E-03,0.01981,0.0586589,-0.00222176
1629,12.0,45.0,0.0,   302.103E-06,   3.17043E-03,  -247.973E-03,0.0199684,0.0592561,-0.00204301
1634,11.0,45.0,0.0,   276.892E-06,   3.19154E-03,  -249.081E-03,0.0201136,0.0598037,-0.00186621
1637,10.0,45.0,0.0,   251.681E-06,   3.21061E-03,  -250.082E-03,0.0202458,0.0603022,-0.00169118
1638,9.0,45.0,0.0,   226.474E-06,   3.22767E-03,  -250.980E-03,0.0203651,0.060752,-0.00151772
1643,8.0,45.0,0.0,   201.275E-06,   3.24280E-03,  -251.776E-03,0.0204715,0.0611534,-0.00134566
1644,7.0,45.0,0.0,   176.085E-06,   3.25604E-03,  -252.474E-03,0.0205653,0.0615067,-0.00117483
1649,6.0,45.0,0.0,   150.906E-06,   3.26742E-03,  -253.075E-03,0.0206463,0.0618123,-0.00100506
1652,5.0,45.0,0.0,   125.737E-06,   3.27699E-03,  -253.580E-03,0.0207148,0.0620705,-0.000836196
1653,4.0,45.0,0.0,   100.577E-06,   3.28478E-03,  -253.992E-03,0.0207708,0.0622813,-0.000668072
1658,3.0,45.0,0.0,   75.4251E-06,   3.29081E-03,  -254.311E-03,0.0208142,0.0624452,-0.00050054
1659,2.0,45.0,0.0,   50.2797E-06,   3.29510E-03,  -254.538E-03,0.0208453,0.0625621,-0.000333449
1664,1.0,45.0,0.0,   25.1387E-06,   3.29767E-03,  -254.674E-03,0.0208639,0.0626322,-0.000166652
1667,0.0,45.0,0.0,  -5.01295E-15,   3.29852E-03,  -254.719E-03,0.0208701,0.0626555,0.0
1668,-1.0,45.0,0.0,  -25.1387E-06,   3.29767E-03,  -254.674E-03,0.0208639,0.0626322,0.000166652
1673,-2.0,45.0,0.0,  -50.2797E-06,   3.29510E-03,  -254.538E-03,0.0208453,0.0625621,0.000333449
1674,-3.0,45.0,0.0,  -75.4251E-06,   3.29081E-03,  -254.311E-03,0.0208142,0.0624452,0.00050054
1679,-4.0,45.0,0.0,  -100.577E-06,   3.28478E-03,  -253.992E-03,0.0207708,0.0622813,0.000668072
1682,-5.0,45.0,0.0,  -125.737E-06,   3.27699E-03,  -253.580E-03,0.0207148,0.0620705,0.000836196
1683,-6.0,45.0,0.0,  -150.906E-06,   3.26742E-03,  -253.075E-03,0.0206463,0.0618123,0.00100506
1688,-7.0,45.0,0.0,  -176.085E-06,   3.25604E-03,  -252.474E-03,0.0205653,0.0615067,0.00117483
1689,-8.0,45.0,0.0,  -201.275E-06,   3.24280E-03,  -251.776E-03,0.0204715,0.0611534,0.00134566
1694,-9.0,45.0,0.0,  -226.474E-06,   3.22767E-03,  -250.980E-03,0.0203651,0.060752,0.00151772
1697,-10.0,45.0,0.0,  -251.681E-06,   3.21061E-03,  -250.082E-03,0.0202458,0.0603022,0.00169118
1698,-11.0,45.0,0.0,  -276.892E-06,   3.19154E-03,  -249.081E-03,0.0201136,0.0598037,0.00186621
1703,-12.0,45.0,0.0,  -302.103E-06,   3.17043E-03,  -247.973E-03,0.0199684,0.0592561,0.00204301
1704,-13.0,45.0,0.0,  -327.307E-06,   3.14720E-03,  -246.756E-03,0.01981,0.0586589,0.00222176
1709,-14.0,45.0,0.0,  -352.496E-06,   3.12178E-03,  -245.425E-03,0.0196384,0.0580117,0.00240267
1712,-15.0,45.0,0.0,  -377.658E-06,   3.09411E-03,  -243.978E-03,0.0194533,0.0573142,0.00258596
1713,-16.0,45.0,0.0,  -402.779E-06,   3.06411E-03,  -242.409E-03,0.0192547,0.0565657,0.00277185
1718,-17.0,45.0,0.0,  -427.841E-06,   3.03169E-03,  -240.715E-03,0.0190424,0.0557659,0.00296058
1719,-18.0,45.0,0.0,  -452.821E-06,   2.99677E-03,  -238.890E-03,0.0188162,0.0549142,0.00315242
1724,-19.0,45.0,0.0,  -477.692E-06,   2.95927E-03,  -236.928E-03,0.018576,0.0540103,0.00334764
1727,-20.0,45.0,0.0,  -502.422E-06,   2.91908E-03,  -234.825E-03,0.0183216,0.0530537,0.00354655
1728,-21.0,45.0,0.0,  -526.970E-06,   2.87612E-03,  -232.573E-03,0.0180529,0.0520439,0.00374948
1733,-22.0,45.0,0.0,  -551.290E-06,   2.83029E-03,  -230.165E-03,0.0177699,0.0509805,0.0039568
1734,-23.0,45.0,0.0,  -575.324E-06,   2.78148E-03,  -227.594E-03,0.0174723,0.0498633,0.00416892
1739,-24.0,45.0,0.0,  -599.007E-06,   2.72959E-03,  -224.850E-03,0.0171603,0.0486919,0.00438631
1742,-25.0,45.0,0.0,  -622.261E-06,   2.67452E-03,  -221.925E-03,0.0168341,0.047466,0.0046095
1743,-26.0,45.0,0.0,  -644.994E-06,   2.61617E-03,  -218.808E-03,0.0164938,0.0461857,0.00483913
1748,-27.0,45.0,0.0,  -667.100E-06,   2.55442E-03,  -215.487E-03,0.0161402,0.0448509,0.00507595
1749,-28.0,45.0,0.0,  -688.455E-06,   2.48916E-03,  -211.949E-03,0.0157741,0.0434618,0.00532087
1754,-29.0,45.0,0.0,  -708.914E-06,   2.42028E-03,  -208.179E-03,0.0153973,0.0420189,0.00557504
1757,-30.0,45.0,0.0,  -728.309E-06,   2.34764E-03,  -204.159E-03,0.015012,0.0405231,0.0058399
1758,-31.0,45.0,0.0,  -746.444E-06,   2.27111E-03,  -199.868E-03,0.014622,0.0389755,0.00611732
1763,-32.0,45.0,0.0,  -763.085E-06,   2.19049E-03,  -195.282E-03,0.0142327,0.0373778,0.00640976
1764,-33.0,45.0,0.0,  -777.957E-06,   2.10554E-03,  -190.370E-03,0.0138517,0.0357324,0.00672047
1769,-34.0,45.0,0.0,  -790.723E-06,   2.01595E-03,  -185.096E-03,0.0134899,0.0340421,0.00705375
1772,-35.0,45.0,0.0,  -800.965E-06,   1.92124E-03,  -179.411E-03,0.0131617,0.0323104,0.00741523
1773,-36.0,45.0,0.0,  -808.144E-06,   1.82076E-03,  -173.255E-03,0.0128859,0.0305404,0.00781207
1778,-37.0,45.0,0.0,  -811.552E-06,   1.71357E-03,  -166.550E-03,0.0126848,0.0287344,0.00825304
1779,-38.0,45.0,0.0,  -810.220E-06,   1.59843E-03,  -159.193E-03,0.0125818,0.0268914,0.00874801
1784,-39.0,45.0,0.0,  -802.797E-06,   1.47371E-03,  -151.052E-03,0.0125958,0.0250045,0.00930679
1787,-40.0,45.0,0.0,  -787.378E-06,   1.33756E-03,  -141.962E-03,0.0127287,0.0230561,0.00993617
1788,-41.0,45.0,0.0,  -761.297E-06,   1.18812E-03,  -131.722E-03,0.0129454,0.0210137,0.0106353
1793,-42.0,45.0,0.0,  -720.944E-06,   1.02422E-03,  -120.105E-03,0.0131423,0.0188245,0.0113876
1794,-43.0,45.0,0.0,  -661.777E-06,   846.418E-06,  -106.883E-03,0.013104,0.0164165,0.0121503
1799,-44.0,45.0,0.0,  -578.914E-06,   658.481E-06,  -91.8839E-03,0.0124521,0.0137024,0.0128383
1802,-45.0,45.0,0.0,  -468.924E-06,   468.924E-06,  -75.0861E-03,0.0105933,0.0105933,0.0133097
1803,-46.0,45.0,0.0,  -333.611E-06,   291.676E-06,  -56.7791E-03,0.00668073,0.0070035,0.0133353
1808,-47.0,45.0,0.0,  -185.923E-06,   144.567E-06,  -37.7884E-03,-0.000417215,0.00281853,0.01257
1809,-48.0,45.0,0.0,  -55.6359E-06,   44.3398E-06,  -19.7804E-03,-0.0121409,-0.00220223,0.0104697
1814,-49.0,45.0,0.0,   13.8789E-06,  -1.42541E-06,  -5.65269E-03,-0.0301861,-0.00851659,0.00627409
1817,-50.0,45.0,0.0,   164.019E-42,  -66.4552E-42,           -0.,-0.0410204,-0.0122837,0.00140243
1818,50.0,44.0,0.0,  -262.409E-42,  -96.4388E-42,           -0.,-0.0483731,-0.0144963,-0.00115313
1823,49.0,44.0,0.0,  -30.1148E-06,  -1.45860E-06,  -6.84755E-03,-0.0354175,-0.0101924,-0.00559816
1824,48.0,44.0,0.0,   62.2980E-06,   54.7382E-06,  -24.0070E-03,-0.0138174,-0.00273458,-0.00949046
1829,47.0,44.0,0.0,   246.879E-06,   176.976E-06,  -45.9790E-03,0.000268156,0.00323609,-0.011579
1832,46.0,44.0,0.0,   460.525E-06,   357.736E-06,  -69.2803E-03,0.00887677,0.00821789,-0.0125489
1833,45.0,44.0,0.0,   658.481E-06,   578.914E-06,  -91.8839E-03,0.0137024,0.0124521,-0.0128383
1838,44.0,44.0,0.0,   820.157E-06,   820.157E-06,  -112.757E-03,0.0160603,0.0160603,-0.0127078
1839,43.0,44.0,0.0,   941.580E-06,   1.06446E-03,  -131.502E-03,0.0169236,0.0191387,-0.0123286
1844,42.0,44.0,0.0,   1.02708E-03,   1.30033E-03,  -148.098E-03,0.0169753,0.0217864,-0.0118125
1847,41.0,44.0,0.0,   1.08369E-03,   1.52159E-03,  -162.722E-03,0.0166648,0.0241067,-0.0112364
1848,40.0,44.0,0.0,   1.11833E-03,   1.72600E-03,  -175.625E-03,0.0162618,0.0261926,-0.0106495
1853,39.0,44.0,0.0,   1.13668E-03,   1.91384E-03,  -187.074E-03,0.0159097,0.0281186,-0.010081
1854,38.0,44.0,0.0,   1.14304E-03,   2.08658E-03,  -197.309E-03,0.0156698,0.0299377,-0.00954571
1859,37.0,44.0,0.0,   1.14056E-03,   2.24609E-03,  -206.535E-03,0.015556,0.0316842,-0.00904876
1862,36.0,44.0,0.0,   1.13143E-03,   2.39419E-03,  -214.918E-03,0.0155575,0.0333779,-0.00858982
1863,35.0,44.0,0.0,   1.11723E-03,   2.53245E-03,  -222.590E-03,0.015654,0.0350286,-0.00816572
1868,34.0,44.0,0.0,   1.09910E-03,   2.66209E-03,  -229.653E-03,0.0158232,0.0366402,-0.0077722
1869,33.0,44.0,0.0,   1.07785E-03,   2.78409E-03,  -236.189E-03,0.0160449,0.0382132,-0.00740494
1874,32.0,44.0,0.0,   1.05409E-03,   2.89915E-03,  -242.259E-03,0.0163025,0.0397463,-0.00706002
1877,31.0,44.0,0.0,   1.02830E-03,   3.00784E-03,  -247.914E-03,0.0165829,0.0412377,-0.00673409
1878,30.0,44.0,0.0,   1.00083E-03,   3.11057E-03,  -253.194E-03,0.0168764,0.0426856,-0.0064244
1883,29.0,44.0,0.0,   971.999E-06,   3.20768E-03,  -258.132E-03,0.0171757,0.0440882,-0.00612869
1884,28.0,44.0,0.0,   942.033E-06,   3.29946E-03,  -262.756E-03,0.0174756,0.0454443,-0.00584514
1889,27.0,44.0,0.0,   911.138E-06,   3.38614E-03,  -267.088E-03,0.0177725,0.0467528,-0.00557226
1892,26.0,44.0,0.0,   879.481E-06,   3.46793E-03,  -271.150E-03,0.0180636,0.0480127,-0.00530884
1893,25.0,44.0,0.0,   847.204E-06,   3.54504E-03,  -274.958E-03,0.0183471,0.0492237,-0.00505385
1898,24.0,44.0,0.0,   814.427E-06,   3.61765E-03,  -278.527E-03,0.0186217,0.0503851,-0.00480643
1899,23.0,44.0,0.0,   781.252E-06,   3.68594E-03,  -281.872E-03,0.0188866,0.051497,-0.00456585
1904,22.0,44.0,0.0,   747.764E-06,   3.75007E-03,  -285.005E-03,0.019141,0.0525591,-0.00433146
1905,21.0,44.0,0.0,   714.034E-06,   3.81020E-03,  -287.936E-03,0.0193845,0.0535714,-0.00410272
1910,20.0,44.0,0.0,   680.125E-06,   3.86648E-03,  -290.676E-03,0.0196169,0.0545341,-0.00387913
1911,19.0,44.0,0.0,   646.084E-06,   3.91906E-03,  -293.233E-03,0.0198379,0.0554472,-0.00366024
1916,18.0,44.0,0.0,   611.955E-06,   3.96808E-03,  -295.616E-03,0.0200475,0.056311,-0.00344565
1919,17.0,44.0,0.0,   577.771E-06,   4.01367E-03,  -297.833E-03,0.0202456,0.0571257,-0.003235
1920,16.0,44.0,0.0,   543.560E-06,   4.05597E-03,  -299.890E-03,0.0204321,0.0578916,-0.00302795
1925,15.0,44.0,0.0,   509.343E-06,   4.09508E-03,  -301.793E-03,0.020607,0.0586089,-0.00282419
1926,14.0,44.0,0.0,   475.137E-06,   4.13113E-03,  -303.549E-03,0.0207705,0.0592781,-0.00262343
1931,13.0,44.0,0.0,   440.955E-06,   4.16422E-03,  -305.162E-03,0.0209224,0.0598993,-0.00242541
1934,12.0,44.0,0.0,   406.806E-06,   4.19445E-03,  -306.638E-03,0.0210628,0.0604729,-0.00222987
1935,11.0,44.0,0.0,   372.697E-06,   4.22191E-03,  -307.980E-03,0.0211919,0.0609993,-0.00203658
1940,10.0,44.0,0.0,   338.631E-06,   4.24669E-03,  -309.193E-03,0.0213095,0.0614787,-0.0018453
1941,9.0,44.0,0.0,   304.610E-06,   4.26887E-03,  -310.281E-03,0.0214158,0.0619115,-0.00165583
1946,8.0,44.0,0.0,   270.633E-06,   4.28853E-03,  -311.245E-03,0.0215107,0.0622978,-0.00146795
1949,7.0,44.0,0.0,   236.699E-06,   4.30572E-03,  -312.090E-03,0.0215944,0.0626381,-0.00128147
1950,6.0,44.0,0.0,   202.805E-06,   4.32050E-03,  -312.817E-03,0.0216669,0.0629324,-0.0010962
1955,5.0,44.0,0.0,   168.946E-06,   4.33292E-03,  -313.428E-03,0.0217282,0.0631812,-0.000911957
1956,4.0,44.0,0.0,   135.119E-06,   4.34303E-03,  -313.926E-03,0.0217783,0.0633844,-0.00072856
1961,3.0,44.0,0.0,   101.316E-06,   4.35085E-03,  -314.312E-03,0.0218172,0.0635423,-0.000545836
1964,2.0,44.0,0.0,   67.5331E-06,   4.35642E-03,  -314.587E-03,0.021845,0.063655,-0.000363614
1965,1.0,44.0,0.0,   33.7632E-06,   4.35976E-03,  -314.752E-03,0.0218617,0.0637226,-0.000181724
1970,0.0,44.0,0.0,  -1.53994E-15,   4.36087E-03,  -314.807E-03,0.0218672,0.0637451,-1.81899e-12
1971,-1.0,44.0,0.0,  -33.7632E-06,   4.35976E-03,  -314.752E-03,0.0218617,0.0637226,0.000181724
1976,-2.0,44.0,0.0,  -67.5331E-06,   4.35642E-03,  -314.587E-03,0.021845,0.063655,0.000363614
1979,-3.0,44.0,0.0,  -101.316E-06,   4.35085E-03,  -314.312E-03,0.0218172,0.0635423,0.000545836
1980,-4.0,44.0,0.0,  -135.119E-06,   4.34303E-03,  -313.926E-03,0.0217783,0.0633844,0.00072856
1985,-5.0,44.0,0.0,  -168.946E-06,   4.33292E-03,  -313.428E-03,0.0217282,0.0631812,0.000911957
1986,-6.0,44.0,0.0,  -202.805E-06,   4.32050E-03,  -312.817E-03,0.0216669,0.0629324,0.0010962
1991,-7.0,44.0,0.0,  -236.699E-06,   4.30572E-03,  -312.090E-03,0.0215944,0.0626381,0.00128147
1994,-8.0,44.0,0.0,  -270.633E-06,   4.28853E-03,  -311.245E-03,0.0215107,0.0622978,0.00146795
1995,-9.0,44.0,0.0,  -304.610E-06,   4.26887E-03,  -310.281E-03,0.0214158,0.0619115,0.00165583
2000,-10.0,44.0,0.0,  -338.631E-06,   4.24669E-03,  -309.193E-03,0.0213095,0.0614787,0.0018453
2001,-11.0,44.0,0.0,  -372.697E-06,   4.22191E-03,  -307.980E-03,0.0211919,0.0609993,0.00203658
2006,-12.0,44.0,0.0,  -406.806E-06,   4.19445E-03,  -306.638E-03,0.0210628,0.0604729,0.00222987
2009,-13.0,44.0,0.0,  -440.955E-06,   4.16422E-03,  -305.162E-03,0.0209224,0.0598993,0.00242541
2010,-14.0,44.0,0.0,  -475.137E-06,   4.13113E-03,  -303.549E-03,0.0207705,0.0592781,0.00262343
2015,-15.0,44.0,0.0,  -509.343E-06,   4.09508E-03,  -301.793E-03,0.020607,0.0586089,0.00282419
2016,-16.0,44.0,0.0,  -543.560E-06,   4.05597E-03,  -299.890E-03,0.0204321,0.0578916,0.00302795
2021,-17.0,44.0,0.0,  -577.771E-06,   4.01367E-03,  -297.833E-03,0.0202456,0.0571257,0.003235
2024,-18.0,44.0,0.0,  -611.955E-06,   3.96808E-03,  -295.616E-03,0.0200475,0.056311,0.00344565
2025,-19.0,44.0,0.0,  -646.084E-06,   3.91906E-03,  -293.233E-03,0.0198379,0.0554472,0.00366024
2030,-20.0,44.0,0.0,  -680.125E-06,   3.86648E-03,  -290.676E-03,0.0196169,0.0545341,0.00387913
2031,-21.0,44.0,0.0,  -714.034E-06,   3.81020E-03,  -287.936E-03,0.0193845,0.0535714,0.00410272
2036,-22.0,44.0,0.0,  -747.764E-06,   3.75007E-03,  -285.005E-03,0.019141,0.0525591,0.00433146
2039,-23.0,44.0,0.0,  -781.252E-06,   3.68594E-03,  -281.872E-03,0.0188866,0.051497,0.00456585
2040,-24.0,44.0,0.0,  -814.427E-06,   3.61765E-03,  -278.527E-03,0.0186217,0.0503851,0.00480643
2045,-25.0,44.0,0.0,  -847.204E-06,   3.54504E-03,  -274.958E-03,0.0183471,0.0492236,0.00505385
2046,-26.0,44.0,0.0,  -879.481E-06,   3.46793E-03,  -271.150E-03,0.0180636,0.0480127,0.00530884
2051,-27.0,44.0,0.0,  -911.138E-06,   3.38614E-03,  -267.088E-03,0.0177725,0.0467528,0.00557226
2054,-28.0,44.0,0.0,  -942.033E-06,   3.29946E-03,  -262.756E-03,0.0174756,0.0454443,0.00584514
2055,-29.0,44.0,0.0,  -971.999E-06,   3.20768E-03,  -258.132E-03,0.0171757,0.0440882,0.00612869
2060,-30.0,44.0,0.0,  -1.00083E-03,   3.11057E-03,  -253.194E-03,0.0168764,0.0426856,0.0064244
2061,-31.0,44.0,0.0,  -1.02830E-03,   3.00784E-03,  -247.914E-03,0.0165829,0.0412377,0.00673409
2066,-32.0,44.0,0.0,  -1.05409E-03,   2.89915E-03,  -242.259E-03,0.0163025,0.0397463,0.00706002
2069,-33.0,44.0,0.0,  -1.07785E-03,   2.78409E-03,  -236.189E-03,0.0160449,0.0382132,0.00740494
2070,-34.0,44.0,0.0,  -1.09910E-03,   2.66209E-03,  -229.653E-03,0.0158232,0.0366402,0.0077722
2075,-35.0,44.0,0.0,  -1.11723E-03,   2.53245E-03,  -222.590E-03,0.015654,0.0350286,0.00816572
2076,-36.0,44.0,0.0,  -1.13143E-03,   2.39419E-03,  -214.918E-03,0.0155575,0.0333779,0.00858982
2081,-37.0,44.0,0.0,  -1.14056E-03,   2.24609E-03,  -206.535E-03,0.015556,0.0316842,0.00904876
2084,-38.0,44.0,0.0,  -1.14304E-03,   2.08658E-03,  -197.309E-03,0.0156698,0.0299377,0.00954571
2085,-39.0,44.0,0.0,  -1.13668E-03,   1.91384E-03,  -187.074E-03,0.0159097,0.0281186,0.010081
2090,-40.0,44.0,0.0,  -1.11833E-03,   1.72600E-03,  -175.625E-03,0.0162618,0.0261926,0.0106495
2091,-41.0,44.0,0.0,  -1.08369E-03,   1.52159E-03,  -162.722E-03,0.0166648,0.0241067,0.0112364
2096,-42.0,44.0,0.0,  -1.02708E-03,   1.30033E-03,  -148.098E-03,0.0169753,0.0217864,0.0118125
2099,-43.0,44.0,0.0,  -941.580E-06,   1.06446E-03,  -131.502E-03,0.0169236,0.0191387,0.0123286
2100,-44.0,44.0,0.0,  -820.157E-06,   820.157E-06,  -112.757E-03,0.0160603,0.0160603,0.0127078
2105,-45.0,44.0,0.0,  -658.481E-06,   578.914E-06,  -91.8839E-03,0.0137024,0.0124521,0.0128383
2106,-46.0,44.0,0.0,  -460.525E-06,   357.736E-06,  -69.2803E-03,0.00887677,0.00821789,0.0125489
2111,-47.0,44.0,0.0,  -246.879E-06,   176.976E-06,  -45.9790E-03,0.000268156,0.00323609,0.011579
2114,-48.0,44.0,0.0,  -62.2980E-06,   54.7382E-06,  -24.0070E-03,-0.0138174,-0.00273458,0.00949046
2115,-49.0,44.0,0.0,   30.1148E-06,  -1.45860E-06,  -6.84755E-03,-0.0354175,-0.0101924,0.00559816
2120,-50.0,44.0,0.0,   262.409E-42,  -96.4388E-42,           -0.,-0.0483731,-0.0144963,0.00115313
2121,50.0,43.0,0.0,  -372.808E-42,  -127.584E-42,           -0.,-0.0544124,-0.0163154,-0.000980242
2126,49.0,43.0,0.0,  -50.4870E-06,   26.0788E-09,  -7.91681E-03,-0.0395106,-0.0115899,-0.00501151
2129,48.0,43.0,0.0,   62.6991E-06,   65.0630E-06,  -27.7714E-03,-0.0147841,-0.00328345,-0.00853575
2130,47.0,43.0,0.0,   301.268E-06,   203.796E-06,  -53.2562E-03,0.00118852,0.00323637,-0.0105173
2135,46.0,43.0,0.0,   582.444E-06,   408.797E-06,  -80.3998E-03,0.010927,0.00859399,-0.0116057
2136,45.0,43.0,0.0,   846.418E-06,   661.777E-06,  -106.883E-03,0.0164165,0.013104,-0.0121503
2141,44.0,43.0,0.0,   1.06446E-03,   941.580E-06,  -131.502E-03,0.0191387,0.0169236,-0.0123286
2144,43.0,43.0,0.0,   1.22971E-03,   1.22971E-03,  -153.760E-03,0.0201648,0.0201648,-0.0122523
2145,42.0,43.0,0.0,   1.34671E-03,   1.51277E-03,  -173.592E-03,0.0202391,0.0229324,-0.0119979
2150,41.0,43.0,0.0,   1.42420E-03,   1.78264E-03,  -191.155E-03,0.0198547,0.0253311,-0.011627
2151,40.0,43.0,0.0,   1.47120E-03,   2.03547E-03,  -206.711E-03,0.0193159,0.0274569,-0.0111876
2156,39.0,43.0,0.0,   1.49544E-03,   2.27030E-03,  -220.544E-03,0.0187937,0.0293896,-0.0107159
2159,38.0,43.0,0.0,   1.50292E-03,   2.48786E-03,  -232.923E-03,0.0183701,0.0311894,-0.0102366
2160,37.0,43.0,0.0,   1.49809E-03,   2.68966E-03,  -244.080E-03,0.0180733,0.0328978,-0.00976543
2165,36.0,43.0,0.0,   1.48416E-03,   2.87740E-03,  -254.208E-03,0.0179012,0.0345412,-0.00931092
2166,35.0,43.0,0.0,   1.46342E-03,   3.05268E-03,  -263.464E-03,0.017838,0.036135,-0.00887702
2171,34.0,43.0,0.0,   1.43752E-03,   3.21688E-03,  -271.972E-03,0.0178631,0.0376868,-0.00846468
2174,33.0,43.0,0.0,   1.40763E-03,   3.37113E-03,  -279.829E-03,0.0179562,0.0392,-0.00807326
2175,32.0,43.0,0.0,   1.37463E-03,   3.51632E-03,  -287.115E-03,0.0180998,0.0406751,-0.00770128
2180,31.0,43.0,0.0,   1.33918E-03,   3.65318E-03,  -293.892E-03,0.0182792,0.0421113,-0.007347
2181,30.0,43.0,0.0,   1.30176E-03,   3.78227E-03,  -300.210E-03,0.0184831,0.0435073,-0.00700865
2186,29.0,43.0,0.0,   1.26276E-03,   3.90407E-03,  -306.110E-03,0.0187029,0.0448617,-0.00668457
2189,28.0,43.0,0.0,   1.22250E-03,   4.01897E-03,  -311.628E-03,0.0189319,0.0461731,-0.00637329
2190,27.0,43.0,0.0,   1.18122E-03,   4.12732E-03,  -316.793E-03,0.0191652,0.0474403,-0.0060735
2195,26.0,43.0,0.0,   1.13914E-03,   4.22942E-03,  -321.630E-03,0.0193992,0.0486624,-0.00578407
2196,25.0,43.0,0.0,   1.09640E-03,   4.32556E-03,  -326.161E-03,0.0196312,0.0498384,-0.005504
2201,24.0,43.0,0.0,   1.05317E-03,   4.41598E-03,  -330.405E-03,0.0198593,0.050968,-0.0052324
2204,23.0,43.0,0.0,   1.00955E-03,   4.50094E-03,  -334.379E-03,0.0200818,0.0520505,-0.00496852
2205,22.0,43.0,0.0,   965.646E-06,   4.58065E-03,  -338.098E-03,0.0202976,0.0530857,-0.00471165
2210,21.0,43.0,0.0,   921.535E-06,   4.65533E-03,  -341.575E-03,0.020506,0.0540734,-0.0044612
2211,20.0,43.0,0.0,   877.284E-06,   4.72518E-03,  -344.824E-03,0.0207063,0.0550135,-0.00421661
2216,19.0,43.0,0.0,   832.951E-06,   4.79040E-03,  -347.855E-03,0.020898,0.055906,-0.00397738
2219,18.0,43.0,0.0,   788.579E-06,   4.85117E-03,  -350.679E-03,0.0210807,0.0567509,-0.00374306
2220,17.0,43.0,0.0,   744.205E-06,   4.90767E-03,  -353.304E-03,0.0212542,0.0575484,-0.00351323
2225,16.0,43.0,0.0,   699.857E-06,   4.96005E-03,  -355.738E-03,0.0214182,0.0582986,-0.00328751
2226,15.0,43.0,0.0,   655.558E-06,   5.00848E-03,  -357.991E-03,0.0215726,0.0590017,-0.00306554
2231,14.0,43.0,0.0,   611.324E-06,   5.05309E-03,  -360.068E-03,0.0217172,0.0596578,-0.00284699
2234,13.0,43.0,0.0,   567.167E-06,   5.09404E-03,  -361.976E-03,0.0218521,0.0602673,-0.00263156
2235,12.0,43.0,0.0,   523.094E-06,   5.13143E-03,  -363.720E-03,0.021977,0.0608303,-0.00241895
2240,11.0,43.0,0.0,   479.110E-06,   5.16540E-03,  -365.307E-03,0.022092,0.0613471,-0.0022089
2241,10.0,43.0,0.0,   435.214E-06,   5.19604E-03,  -366.741E-03,0.0221971,0.061818,-0.00200113
2246,9.0,43.0,0.0,   391.406E-06,   5.22347E-03,  -368.025E-03,0.0222922,0.0622431,-0.00179542
2249,8.0,43.0,0.0,   347.682E-06,   5.24776E-03,  -369.165E-03,0.0223772,0.0626228,-0.00159151
2250,7.0,43.0,0.0,   304.037E-06,   5.26901E-03,  -370.162E-03,0.0224523,0.0629573,-0.00138919
2255,6.0,43.0,0.0,   260.462E-06,   5.28727E-03,  -371.021E-03,0.0225174,0.0632467,-0.00118824
2256,5.0,43.0,0.0,   216.951E-06,   5.30263E-03,  -371.743E-03,0.0225724,0.0634913,-0.000988455
2261,4.0,43.0,0.0,   173.494E-06,   5.31512E-03,  -372.331E-03,0.0226175,0.0636912,-0.000789626
2264,3.0,43.0,0.0,   130.081E-06,   5.32479E-03,  -372.787E-03,0.0226525,0.0638465,-0.000591559
2265,2.0,43.0,0.0,   86.7020E-06,   5.33167E-03,  -373.112E-03,0.0226775,0.0639574,-0.000394059
2270,1.0,43.0,0.0,   43.3453E-06,   5.33579E-03,  -373.306E-03,0.0226925,0.0640239,-0.000196936
2271,0.0,43.0,0.0,   440.758E-18,   5.33716E-03,  -373.371E-03,0.0226975,0.064046,1.81899e-12
2276,-1.0,43.0,0.0,  -43.3453E-06,   5.33579E-03,  -373.306E-03,0.0226925,0.0640239,0.000196936
2279,-2.0,43.0,0.0,  -86.7020E-06,   5.33167E-03,  -373.112E-03,0.0226775,0.0639574,0.000394059
2280,-3.0,43.0,0.0,  -130.081E-06,   5.32479E-03,  -372.787E-03,0.0226525,0.0638465,0.000591559
2285,-4.0,43.0,0.0,  -173.494E-06,   5.31512E-03,  -372.331E-03,0.0226175,0.0636912,0.000789626
2286,-5.0,43.0,0.0,  -216.951E-06,   5.30263E-03,  -371.743E-03,0.0225724,0.0634913,0.000988455
2291,-6.0,43.0,0.0,  -260.462E-06,   5.28727E-03,  -371.021E-03,0.0225174,0.0632467,0.00118824
2294,-7.0,43.0,0.0,  -304.037E-06,   5.26901E-03,  -370.162E-03,0.0224523,0.0629573,0.00138919
2295,-8.0,43.0,0.0,  -347.682E-06,   5.24776E-03,  -369.165E-03,0.0223772,0.0626228,0.00159151
2300,-9.0,43.0,0.0,  -391.406E-06,   5.22347E-03,  -368.025E-03,0.0222922,0.0622431,0.00179541
2301,-10.0,43.0,0.0,  -435.214E-06,   5.19604E-03,  -366.741E-03,0.0221971,0.061818,0.00200113
2306,-11.0,43.0,0.0,  -479.110E-06,   5.16540E-03,  -365.307E-03,0.022092,0.0613471,0.0022089
2309,-12.0,43.0,0.0,  -523.094E-06,   5.13143E-03,  -363.720E-03,0.021977,0.0608303,0.00241895
2310,-13.0,43.0,0.0,  -567.167E-06,   5.09404E-03,  -361.976E-03,0.0218521,0.0602673,0.00263156
2315,-14.0,43.0,0.0,  -611.324E-06,   5.05309E-03,  -360.068E-03,0.0217172,0.0596578,0.00284699
2316,-15.0,43.0,0.0,  -655.558E-06,   5.00848E-03,  -357.991E-03,0.0215726,0.0590017,0.00306554
2321,-16.0,43.0,0.0,  -699.857E-06,   4.96005E-03,  -355.738E-03,0.0214182,0.0582986,0.00328751
2324,-17.0,43.0,0.0,  -744.205E-06,   4.90767E-03,  -353.304E-03,0.0212542,0.0575484,0.00351323
2325,-18.0,43.0,0.0,  -788.579E-06,   4.85117E-03,  -350.679E-03,0.0210807,0.0567509,0.00374306
2330,-19.0,43.0,0.0,  -832.951E-06,   4.79040E-03,  -347.855E-03,0.020898,0.055906,0.00397738
2331,-20.0,43.0,0.0,  -877.284E-06,   4.72518E-03,  -344.824E-03,0.0207063,0.0550135,0.00421661
2336,-21.0,43.0,0.0,  -921.535E-06,   4.65533E-03,  -341.575E-03,0.020506,0.0540734,0.0044612
2339,-22.0,43.0,0.0,  -965.646E-06,   4.58065E-03,  -338.098E-03,0.0202976,0.0530857,0.00471165
2340,-23.0,43.0,0.0,  -1.00955E-03,   4.50094E-03,  -334.379E-03,0.0200818,0.0520505,0.00496852
2345,-24.0,43.0,0.0,  -1.05317E-03,   4.41598E-03,  -330.405E-03,0.0198593,0.050968,0.0052324
2346,-25.0,43.0,0.0,  -1.09640E-03,   4.32556E-03,  -326.161E-03,0.0196312,0.0498384,0.005504
2351,-26.0,43.0,0.0,  -1.13914E-03,   4.22942E-03,  -321.630E-03,0.0193992,0.0486624,0.00578407
2354,-27.0,43.0,0.0,  -1.18122E-03,   4.12732E-03,  -316.793E-03,0.0191652,0.0474403,0.0060735
2355,-28.0,43.0,0.0,  -1.22250E-03,   4.01897E-03,  -311.628E-03,0.0189319,0.0461731,0.00637329
2360,-29.0,43.0,0.0,  -1.26276E-03,   3.90407E-03,  -306.110E-03,0.0187029,0.0448617,0.00668457
2361,-30.0,43.0,0.0,  -1.30176E-03,   3.78227E-03,  -300.210E-03,0.0184831,0.0435073,0.00700865
2366,-31.0,43.0,0.0,  -1.33918E-03,   3.65318E-03,  -293.892E-03,0.0182792,0.0421113,0.007347
2369,-32.0,43.0,0.0,  -1.37463E-03,   3.51632E-03,  -287.115E-03,0.0180998,0.0406751,0.00770128
2370,-33.0,43.0,0.0,  -1.40763E-03,   3.37113E-03,  -279.829E-03,0.0179562,0.0392,0.00807326
2375,-34.0,43.0,0.0,  -1.43752E-03,   3.21688E-03,  -271.972E-03,0.0178631,0.0376868,0.00846468
2376,-35.0,43.0,0.0,  -1.46342E-03,   3.05268E-03,  -263.464E-03,0.017838,0.036135,0.00887702
2381,-36.0,43.0,0.0,  -1.48416E-03,   2.87740E-03,  -254.208E-03,0.0179012,0.0345412,0.00931092
2384,-37.0,43.0,0.0,  -1.49809E-03,   2.68966E-03,  -244.080E-03,0.0180733,0.0328978,0.00976543
2385,-38.0,43.0,0.0,  -1.50292E-03,   2.48786E-03,  -232.923E-03,0.0183701,0.0311894,0.0102366
2390,-39.0,43.0,0.0,  -1.49544E-03,   2.27030E-03,  -220.544E-03,0.0187937,0.0293896,0.0107159
2391,-40.0,43.0,0.0,  -1.47120E-03,   2.03547E-03,  -206.711E-03,0.0193159,0.0274569,0.0111876
2396,-41.0,43.0,0.0,  -1.42420E-03,   1.78264E-03,  -191.155E-03,0.0198547,0.0253311,0.011627
2399,-42.0,43.0,0.0,  -1.34671E-03,   1.51277E-03,  -173.592E-03,0.0202391,0.0229324,0.0119979
2400,-43.0,43.0,0.0,  -1.22971E-03,   1.22971E-03,  -153.760E-03,0.0201648,0.0201648,0.0122523
2405,-44.0,43.0,0.0,  -1.06446E-03,   941.580E-06,  -131.502E-03,0.0191387,0.0169236,0.0123286
2406,-45.0,43.0,0.0,  -846.418E-06,   661.777E-06,  -106.883E-03,0.0164165,0.013104,0.0121503
2411,-46.0,43.0,0.0,  -582.444E-06,   408.797E-06,  -80.3998E-03,0.010927,0.00859399,0.0116057
2414,-47.0,43.0,0.0,  -301.268E-06,   203.796E-06,  -53.2562E-03,0.00118852,0.00323637,0.0105173
2415,-48.0,43.0,0.0,  -62.6991E-06,   65.0630E-06,  -27.7714E-03,-0.0147841,-0.00328345,0.00853575
2420,-49.0,43.0,0.0,   50.4870E-06,   26.0789E-09,  -7.91681E-03,-0.0395106,-0.0115899,0.00501151
2421,-50.0,43.0,0.0,   372.808E-42,  -127.584E-42,           -0.,-0.0544124,-0.0163154,0.000980242
2426,50.0,42.0,0.0,  -489.489E-42,  -158.847E-42,           -0.,-0.0593794,-0.0178118,-0.000891638
2429,49.0,42.0,0.0,  -73.5273E-06,   2.97966E-06,  -8.87545E-03,-0.042628,-0.0126923,-0.00455872
2430,48.0,42.0,0.0,   58.1157E-06,   75.4557E-06,  -31.1157E-03,-0.015082,-0.00368342,-0.00771332
2435,47.0,42.0,0.0,   347.968E-06,   225.914E-06,  -59.6754E-03,0.00237179,0.00313902,-0.00953516
2436,46.0,42.0,0.0,   694.587E-06,   446.986E-06,  -90.1853E-03,0.0129013,0.00860368,-0.0106651
2441,45.0,42.0,0.0,   1.02422E-03,   720.944E-06,  -120.105E-03,0.0188245,0.0131423,-0.0113876
2444,44.0,42.0,0.0,   1.30033E-03,   1.02708E-03,  -148.098E-03,0.0217864,0.0169753,-0.0118125
2445,43.0,42.0,0.0,   1.51277E-03,   1.34671E-03,  -173.592E-03,0.0229324,0.0202391,-0.0119979
2450,42.0,42.0,0.0,   1.66561E-03,   1.66561E-03,  -196.468E-03,0.0230417,0.0230417,-0.0119856
2451,41.0,42.0,0.0,   1.76857E-03,   1.97434E-03,  -216.861E-03,0.0226276,0.0254814,-0.0118187
2456,40.0,42.0,0.0,   1.83233E-03,   2.26767E-03,  -235.022E-03,0.0220108,0.0276462,-0.0115386
2459,39.0,42.0,0.0,   1.86633E-03,   2.54340E-03,  -251.240E-03,0.0213775,0.0296102,-0.0111829
2460,38.0,42.0,0.0,   1.87816E-03,   2.80129E-03,  -265.793E-03,0.0208237,0.0314309,-0.0107819
2465,37.0,42.0,0.0,   1.87358E-03,   3.04217E-03,  -278.933E-03,0.0203888,0.0331498,-0.0103585
2466,36.0,42.0,0.0,   1.85684E-03,   3.26734E-03,  -290.869E-03,0.020079,0.0347948,-0.00992868
2471,35.0,42.0,0.0,   1.83103E-03,   3.47820E-03,  -301.777E-03,0.0198841,0.0363832,-0.00950253
2474,34.0,42.0,0.0,   1.79838E-03,   3.67605E-03,  -311.798E-03,0.0197865,0.0379249,-0.00908611
2475,33.0,42.0,0.0,   1.76052E-03,   3.86204E-03,  -321.047E-03,0.0197675,0.039425,-0.00868261
2480,32.0,42.0,0.0,   1.71865E-03,   4.03713E-03,  -329.613E-03,0.0198096,0.0408853,-0.00829335
2481,31.0,42.0,0.0,   1.67365E-03,   4.20212E-03,  -337.573E-03,0.0198977,0.0423061,-0.00791857
2486,30.0,42.0,0.0,   1.62620E-03,   4.35767E-03,  -344.986E-03,0.0200198,0.0436868,-0.00755785
2489,29.0,42.0,0.0,   1.57681E-03,   4.50435E-03,  -351.903E-03,0.0201662,0.0450263,-0.00721045
2490,28.0,42.0,0.0,   1.52589E-03,   4.64264E-03,  -358.365E-03,0.0203293,0.0463236,-0.00687552
2495,27.0,42.0,0.0,   1.47377E-03,   4.77297E-03,  -364.409E-03,0.0205035,0.0475775,-0.00655212
2496,26.0,42.0,0.0,   1.42070E-03,   4.89572E-03,  -370.064E-03,0.0206841,0.0487872,-0.00623938
2501,25.0,42.0,0.0,   1.36690E-03,   5.01123E-03,  -375.357E-03,0.0208679,0.0499518,-0.00593644
2504,24.0,42.0,0.0,   1.31254E-03,   5.11983E-03,  -380.311E-03,0.0210522,0.0510708,-0.00564252
2505,23.0,42.0,0.0,   1.25777E-03,   5.22182E-03,  -384.947E-03,0.021235,0.0521437,-0.00535688
2510,22.0,42.0,0.0,   1.20269E-03,   5.31748E-03,  -389.284E-03,0.0214147,0.05317,-0.00507885
2511,21.0,42.0,0.0,   1.14742E-03,   5.40707E-03,  -393.337E-03,0.02159,0.0541497,-0.00480783
2516,20.0,42.0,0.0,   1.09203E-03,   5.49085E-03,  -397.122E-03,0.0217601,0.0550824,-0.00454323
2519,19.0,42.0,0.0,   1.03658E-03,   5.56905E-03,  -400.651E-03,0.0219241,0.0559681,-0.00428455
2520,18.0,42.0,0.0,   981.122E-06,   5.64190E-03,  -403.937E-03,0.0220815,0.0568069,-0.00403128
2525,17.0,42.0,0.0,   925.706E-06,   5.70962E-03,  -406.991E-03,0.0222318,0.0575988,-0.00378299
2526,16.0,42.0,0.0,   870.361E-06,   5.77239E-03,  -409.823E-03,0.0223746,0.0583438,-0.00353926
2531,15.0,42.0,0.0,   815.111E-06,   5.83041E-03,  -412.442E-03,0.0225096,0.0590422,-0.00329969
2534,14.0,42.0,0.0,   759.973E-06,   5.88386E-03,  -414.856E-03,0.0226365,0.0596942,-0.00306394
2535,13.0,42.0,0.0,   704.960E-06,   5.93290E-03,  -417.073E-03,0.0227552,0.0602998,-0.00283164
2540,12.0,42.0,0.0,   650.078E-06,   5.97769E-03,  -419.100E-03,0.0228655,0.0608594,-0.00260249
2541,11.0,42.0,0.0,   595.330E-06,   6.01837E-03,  -420.943E-03,0.0229673,0.0613731,-0.00237618
2546,10.0,42.0,0.0,   540.716E-06,   6.05507E-03,  -422.608E-03,0.0230604,0.0618412,-0.00215243
2549,9.0,42.0,0.0,   486.230E-06,   6.08792E-03,  -424.100E-03,0.0231449,0.062264,-0.00193095
2550,8.0,42.0,0.0,   431.867E-06,   6.11701E-03,  -425.422E-03,0.0232206,0.0626415,-0.00171148
2555,7.0,42.0,0.0,   377.618E-06,   6.14245E-03,  -426.580E-03,0.0232875,0.0629741,-0.00149379
2556,6.0,42.0,0.0,   323.472E-06,   6.16432E-03,  -427.577E-03,0.0233455,0.063262,-0.00127761
2561,5.0,42.0,0.0,   269.416E-06,   6.18271E-03,  -428.415E-03,0.0233947,0.0635052,-0.00106274
2564,4.0,42.0,0.0,   215.438E-06,   6.19766E-03,  -429.098E-03,0.023435,0.063704,-0.000848923
2565,3.0,42.0,0.0,   161.522E-06,   6.20924E-03,  -429.627E-03,0.0234663,0.0638585,-0.000635958
2570,2.0,42.0,0.0,   107.655E-06,   6.21748E-03,  -430.003E-03,0.0234887,0.0639687,-0.000423623
2571,1.0,42.0,0.0,   53.8192E-06,   6.22241E-03,  -430.229E-03,0.0235021,0.0640349,-0.000211707
2576,0.0,42.0,0.0,   105.482E-18,   6.22406E-03,  -430.304E-03,0.0235066,0.0640569,0.0
2579,-1.0,42.0,0.0,  -53.8192E-06,   6.22241E-03,  -430.229E-03,0.0235021,0.0640349,0.000211707
2580,-2.0,42.0,0.0,  -107.655E-06,   6.21748E-03,  -430.003E-03,0.0234887,0.0639687,0.000423623
2585,-3.0,42.0,0.0,  -161.522E-06,   6.20924E-03,  -429.627E-03,0.0234663,0.0638585,0.000635958
2586,-4.0,42.0,0.0,  -215.438E-06,   6.19766E-03,  -429.098E-03,0.023435,0.063704,0.000848923
2591,-5.0,42.0,0.0,  -269.416E-06,   6.18271E-03,  -428.415E-03,0.0233947,0.0635052,0.00106274
2594,-6.0,42.0,0.0,  -323.472E-06,   6.16432E-03,  -427.577E-03,0.0233455,0.063262,0.00127761
2595,-7.0,42.0,0.0,  -377.618E-06,   6.14245E-03,  -426.580E-03,0.0232875,0.0629741,0.00149379
2600,-8.0,42.0,0.0,  -431.867E-06,   6.11701E-03,  -425.422E-03,0.0232206,0.0626415,0.00171148
2601,-9.0,42.0,0.0,  -486.230E-06,   6.08792E-03,  -424.100E-03,0.0231449,0.062264,0.00193095
2606,-10.0,42.0,0.0,  -540.716E-06,   6.05507E-03,  -422.608E-03,0.0230604,0.0618412,0.00215243
2609,-11.0,42.0,0.0,  -595.330E-06,   6.01837E-03,  -420.943E-03,0.0229673,0.0613731,0.00237618
2610,-12.0,42.0,0.0,  -650.078E-06,   5.97769E-03,  -419.100E-03,0.0228655,0.0608594,0.00260249
2615,-13.0,42.0,0.0,  -704.960E-06,   5.93290E-03,  -417.073E-03,0.0227552,0.0602998,0.00283164
2616,-14.0,42.0,0.0,  -759.973E-06,   5.88386E-03,  -414.856E-03,0.0226365,0.0596942,0.00306394
2621,-15.0,42.0,0.0,  -815.111E-06,   5.83041E-03,  -412.442E-03,0.0225096,0.0590422,0.00329969
2624,-16.0,42.0,0.0,  -870.361E-06,   5.77239E-03,  -409.823E-03,0.0223746,0.0583438,0.00353926
2625,-17.0,42.0,0.0,  -925.706E-06,   5.70962E-03,  -406.991E-03,0.0222318,0.0575988,0.00378299
2630,-18.0,42.0,0.0,  -981.122E-06,   5.64190E-03,  -403.937E-03,0.0220815,0.0568069,0.00403128
2631,-19.0,42.0,0.0,  -1.03658E-03,   5.56905E-03,  -400.651E-03,0.0219241,0.0559681,0.00428455
2636,-20.0,42.0,0.0,  -1.09203E-03,   5.49085E-03,  -397.122E-03,0.0217601,0.0550824,0.00454323
2639,-21.0,42.0,0.0,  -1.14742E-03,   5.40707E-03,  -393.337E-03,0.02159,0.0541497,0.00480783
2640,-22.0,42.0,0.0,  -1.20269E-03,   5.31748E-03,  -389.284E-03,0.0214147,0.05317,0.00507885
2645,-23.0,42.0,0.0,  -1.25777E-03,   5.22182E-03,  -384.947E-03,0.021235,0.0521437,0.00535688
2646,-24.0,42.0,0.0,  -1.31254E-03,   5.11983E-03,  -380.311E-03,0.0210522,0.0510708,0.00564252
2651,-25.0,42.0,0.0,  -1.36690E-03,   5.01123E-03,  -375.357E-03,0.0208679,0.0499518,0.00593644
2654,-26.0,42.0,0.0,  -1.42070E-03,   4.89572E-03,  -370.064E-03,0.0206841,0.0487872,0.00623938
2655,-27.0,42.0,0.0,  -1.47377E-03,   4.77297E-03,  -364.409E-03,0.0205035,0.0475775,0.00655212
2660,-28.0,42.0,0.0,  -1.52589E-03,   4.64264E-03,  -358.365E-03,0.0203293,0.0463236,0.00687552
2661,-29.0,42.0,0.0,  -1.57681E-03,   4.50435E-03,  -351.903E-03,0.0201662,0.0450263,0.00721045
2666,-30.0,42.0,0.0,  -1.62620E-03,   4.35767E-03,  -344.986E-03,0.0200198,0.0436868,0.00755784
2669,-31.0,42.0,0.0,  -1.67365E-03,   4.20212E-03,  -337.573E-03,0.0198977,0.0423061,0.00791857
2670,-32.0,42.0,0.0,  -1.71865E-03,   4.03713E-03,  -329.613E-03,0.0198096,0.0408853,0.00829335
2675,-33.0,42.0,0.0,  -1.76052E-03,   3.86204E-03,  -321.047E-03,0.0197675,0.039425,0.00868261
2676,-34.0,42.0,0.0,  -1.79838E-03,   3.67605E-03,  -311.798E-03,0.0197865,0.037925,0.00908611
2681,-35.0,42.0,0.0,  -1.83103E-03,   3.47820E-03,  -301.777E-03,0.0198841,0.0363832,0.00950253
2684,-36.0,42.0,0.0,  -1.85684E-03,   3.26734E-03,  -290.869E-03,0.020079,0.0347948,0.00992868
2685,-37.0,42.0,0.0,  -1.87358E-03,   3.04217E-03,  -278.933E-03,0.0203888,0.0331498,0.0103585
2690,-38.0,42.0,0.0,  -1.87816E-03,   2.80129E-03,  -265.793E-03,0.0208237,0.0314309,0.0107819
2691,-39.0,42.0,0.0,  -1.86633E-03,   2.54340E-03,  -251.240E-03,0.0213775,0.0296102,0.0111829
2696,-40.0,42.0,0.0,  -1.83233E-03,   2.26767E-03,  -235.022E-03,0.0220108,0.0276462,0.0115386
2699,-41.0,42.0,0.0,  -1.76857E-03,   1.97434E-03,  -216.861E-03,0.0226276,0.0254814,0.0118187
2700,-42.0,42.0,0.0,  -1.66561E-03,   1.66561E-03,  -196.468E-03,0.0230417,0.0230417,0.0119856
2705,-43.0,42.0,0.0,  -1.51277E-03,   1.34671E-03,  -173.592E-03,0.0229324,0.0202391,0.0119979
2706,-44.0,42.0,0.0,  -1.30033E-03,   1.02708E-03,  -148.098E-03,0.0217864,0.0169753,0.0118125
2711,-45.0,42.0,0.0,  -1.02422E-03,   720.944E-06,  -120.105E-03,0.0188245,0.0131423,0.0113876
2714,-46.0,42.0,0.0,  -694.587E-06,   446.986E-06,  -90.1853E-03,0.0129013,0.00860368,0.0106651
2715,-47.0,42.0,0.0,  -347.968E-06,   225.914E-06,  -59.6754E-03,0.00237179,0.00313902,0.00953516
2720,-48.0,42.0,0.0,  -58.1157E-06,   75.4557E-06,  -31.1157E-03,-0.015082,-0.00368342,0.00771332
2721,-49.0,42.0,0.0,   73.5273E-06,   2.97966E-06,  -8.87545E-03,-0.042628,-0.0126923,0.00455872
2726,-50.0,42.0,0.0,   489.489E-42,  -158.847E-42,           -0.,-0.0593794,-0.0178118,0.000891638
2729,50.0,41.0,0.0,  -608.168E-42,  -189.667E-42,           -0.,-0.0635286,-0.0190612,-0.000875866
2730,49.0,41.0,0.0,  -97.9091E-06,   7.08022E-06,  -9.74210E-03,-0.0449793,-0.0135306,-0.0042346
2735,48.0,41.0,0.0,   50.2911E-06,   85.8041E-06,  -34.1032E-03,-0.0148207,-0.00387937,-0.00705052
2736,47.0,41.0,0.0,   387.766E-06,   244.210E-06,  -65.3497E-03,0.00380214,0.00311283,-0.0086932
2741,46.0,41.0,0.0,   795.696E-06,   474.964E-06,  -98.7893E-03,0.0148479,0.00852783,-0.00980773
2744,45.0,41.0,0.0,   1.18812E-03,   761.297E-06,  -131.722E-03,0.0210137,0.0129454,-0.0106353
2745,44.0,41.0,0.0,   1.52159E-03,   1.08369E-03,  -162.722E-03,0.0241067,0.0166648,-0.0112364
2750,43.0,41.0,0.0,   1.78264E-03,   1.42420E-03,  -191.155E-03,0.0253311,0.0198547,-0.011627
2751,42.0,41.0,0.0,   1.97434E-03,   1.76857E-03,  -216.861E-03,0.0254814,0.0226276,-0.0118187
2756,41.0,41.0,0.0,   2.10674E-03,   2.10674E-03,  -239.942E-03,0.0250729,0.0250729,-0.0118358
2759,40.0,41.0,0.0,   2.19152E-03,   2.43244E-03,  -260.628E-03,0.0244278,0.0272655,-0.0117099
2760,39.0,41.0,0.0,   2.23944E-03,   2.74237E-03,  -279.199E-03,0.0237371,0.029268,-0.0114758
2765,38.0,41.0,0.0,   2.25939E-03,   3.03526E-03,  -295.933E-03,0.0231039,0.0311294,-0.0111654
2766,37.0,41.0,0.0,   2.25831E-03,   3.31111E-03,  -311.085E-03,0.0225751,0.0328862,-0.0108055
2771,36.0,41.0,0.0,   2.24147E-03,   3.57064E-03,  -324.876E-03,0.0221644,0.034564,-0.0104169
2774,35.0,41.0,0.0,   2.21277E-03,   3.81482E-03,  -337.493E-03,0.0218671,0.0361794,-0.0100144
2775,34.0,41.0,0.0,   2.17509E-03,   4.04472E-03,  -349.089E-03,0.0216696,0.0377426,-0.00960852
2780,33.0,41.0,0.0,   2.13055E-03,   4.26134E-03,  -359.790E-03,0.0215558,0.0392595,-0.00920582
2781,32.0,41.0,0.0,   2.08074E-03,   4.46558E-03,  -369.699E-03,0.0215093,0.0407329,-0.00881041
2786,31.0,41.0,0.0,   2.02684E-03,   4.65824E-03,  -378.902E-03,0.021516,0.0421639,-0.00842462
2789,30.0,41.0,0.0,   1.96974E-03,   4.83999E-03,  -387.467E-03,0.0215635,0.0435524,-0.00804958
2790,29.0,41.0,0.0,   1.91014E-03,   5.01145E-03,  -395.454E-03,0.021642,0.0448981,-0.00768568
2795,28.0,41.0,0.0,   1.84858E-03,   5.17314E-03,  -402.911E-03,0.0217434,0.0462002,-0.00733285
2796,27.0,41.0,0.0,   1.78547E-03,   5.32555E-03,  -409.879E-03,0.0218613,0.047458,-0.00699075
2801,26.0,41.0,0.0,   1.72118E-03,   5.46910E-03,  -416.396E-03,0.021991,0.0486708,-0.00665887
2804,25.0,41.0,0.0,   1.65596E-03,   5.60419E-03,  -422.492E-03,0.0221282,0.049838,-0.00633667
2805,24.0,41.0,0.0,   1.59004E-03,   5.73121E-03,  -428.195E-03,0.0222701,0.0509591,-0.00602352
2810,23.0,41.0,0.0,   1.52361E-03,   5.85049E-03,  -433.529E-03,0.0224142,0.0520337,-0.00571884
2811,22.0,41.0,0.0,   1.45681E-03,   5.96237E-03,  -438.516E-03,0.0225584,0.0530615,-0.00542204
2816,21.0,41.0,0.0,   1.38977E-03,   6.06715E-03,  -443.174E-03,0.0227012,0.0540423,-0.00513255
2819,20.0,41.0,0.0,   1.32259E-03,   6.16513E-03,  -447.522E-03,0.0228415,0.054976,-0.00484983
2820,19.0,41.0,0.0,   1.25535E-03,   6.25659E-03,  -451.575E-03,0.0229782,0.0558627,-0.00457338
2825,18.0,41.0,0.0,   1.18811E-03,   6.34179E-03,  -455.348E-03,0.0231105,0.0567022,-0.0043027
2826,17.0,41.0,0.0,   1.12092E-03,   6.42098E-03,  -458.853E-03,0.0232377,0.0574947,-0.00403735
2831,16.0,41.0,0.0,   1.05383E-03,   6.49440E-03,  -462.102E-03,0.0233594,0.0582402,-0.0037769
2834,15.0,41.0,0.0,   986.869E-06,   6.56226E-03,  -465.105E-03,0.023475,0.0589391,-0.00352094
2835,14.0,41.0,0.0,   920.052E-06,   6.62477E-03,  -467.874E-03,0.0235842,0.0595914,-0.00326909
2840,13.0,41.0,0.0,   853.396E-06,   6.68213E-03,  -470.415E-03,0.0236867,0.0601974,-0.00302099
2841,12.0,41.0,0.0,   786.910E-06,   6.73452E-03,  -472.739E-03,0.0237824,0.0607572,-0.0027763
2846,11.0,41.0,0.0,   720.596E-06,   6.78210E-03,  -474.851E-03,0.0238708,0.0612711,-0.00253468
2849,10.0,41.0,0.0,   654.454E-06,   6.82503E-03,  -476.758E-03,0.0239521,0.0617394,-0.00229584
2850,9.0,41.0,0.0,   588.478E-06,   6.86345E-03,  -478.467E-03,0.0240259,0.0621623,-0.00205947
2855,8.0,41.0,0.0,   522.659E-06,   6.89748E-03,  -479.982E-03,0.0240921,0.06254,-0.00182529
2856,7.0,41.0,0.0,   456.986E-06,   6.92724E-03,  -481.308E-03,0.0241508,0.0628726,-0.00159304
2861,6.0,41.0,0.0,   391.444E-06,   6.95283E-03,  -482.449E-03,0.0242017,0.0631605,-0.00136244
2862,5.0,41.0,0.0,   326.019E-06,   6.97433E-03,  -483.409E-03,0.0242449,0.0634038,-0.00113325
2867,4.0,41.0,0.0,   260.693E-06,   6.99183E-03,  -484.191E-03,0.0242804,0.0636027,-0.000905224
2868,3.0,41.0,0.0,   195.448E-06,   7.00537E-03,  -484.796E-03,0.0243079,0.0637572,-0.000678118
2873,2.0,41.0,0.0,   130.264E-06,   7.01501E-03,  -485.227E-03,0.0243277,0.0638674,-0.000451699
2876,1.0,41.0,0.0,   65.1218E-06,   7.02078E-03,  -485.485E-03,0.0243395,0.0639336,-0.000225736
2877,0.0,41.0,0.0,  -326.236E-18,   7.02270E-03,  -485.571E-03,0.0243434,0.0639556,0.0
2882,-1.0,41.0,0.0,  -65.1218E-06,   7.02078E-03,  -485.485E-03,0.0243395,0.0639336,0.000225736
2883,-2.0,41.0,0.0,  -130.264E-06,   7.01501E-03,  -485.227E-03,0.0243277,0.0638675,0.000451699
2888,-3.0,41.0,0.0,  -195.448E-06,   7.00537E-03,  -484.796E-03,0.0243079,0.0637572,0.000678118
2891,-4.0,41.0,0.0,  -260.693E-06,   6.99183E-03,  -484.191E-03,0.0242804,0.0636027,0.000905224
2892,-5.0,41.0,0.0,  -326.019E-06,   6.97433E-03,  -483.409E-03,0.0242449,0.0634038,0.00113325
2897,-6.0,41.0,0.0,  -391.444E-06,   6.95283E-03,  -482.449E-03,0.0242017,0.0631605,0.00136244
2898,-7.0,41.0,0.0,  -456.986E-06,   6.92724E-03,  -481.308E-03,0.0241508,0.0628726,0.00159304
2903,-8.0,41.0,0.0,  -522.659E-06,   6.89748E-03,  -479.982E-03,0.0240921,0.06254,0.00182529
2906,-9.0,41.0,0.0,  -588.478E-06,   6.86345E-03,  -478.467E-03,0.0240259,0.0621623,0.00205947
2907,-10.0,41.0,0.0,  -654.454E-06,   6.82503E-03,  -476.758E-03,0.0239521,0.0617394,0.00229584
2912,-11.0,41.0,0.0,  -720.596E-06,   6.78210E-03,  -474.851E-03,0.0238708,0.0612711,0.00253468
2913,-12.0,41.0,0.0,  -786.910E-06,   6.73452E-03,  -472.739E-03,0.0237824,0.0607572,0.0027763
2918,-13.0,41.0,0.0,  -853.396E-06,   6.68213E-03,  -470.415E-03,0.0236867,0.0601974,0.00302099
2921,-14.0,41.0,0.0,  -920.052E-06,   6.62477E-03,  -467.874E-03,0.0235842,0.0595914,0.00326909
2922,-15.0,41.0,0.0,  -986.869E-06,   6.56226E-03,  -465.105E-03,0.023475,0.0589391,0.00352094
2927,-16.0,41.0,0.0,  -1.05383E-03,   6.49440E-03,  -462.102E-03,0.0233594,0.0582402,0.0037769
2928,-17.0,41.0,0.0,  -1.12092E-03,   6.42098E-03,  -458.853E-03,0.0232377,0.0574947,0.00403735
2933,-18.0,41.0,0.0,  -1.18811E-03,   6.34179E-03,  -455.348E-03,0.0231105,0.0567022,0.0043027
2936,-19.0,41.0,0.0,  -1.25535E-03,   6.25659E-03,  -451.575E-03,0.0229782,0.0558627,0.00457338
2937,-20.0,41.0,0.0,  -1.32259E-03,   6.16513E-03,  -447.522E-03,0.0228415,0.054976,0.00484983
2942,-21.0,41.0,0.0,  -1.38977E-03,   6.06715E-03,  -443.174E-03,0.0227012,0.0540423,0.00513255
2943,-22.0,41.0,0.0,  -1.45681E-03,   5.96237E-03,  -438.516E-03,0.0225584,0.0530615,0.00542204
2948,-23.0,41.0,0.0,  -1.52361E-03,   5.85049E-03,  -433.529E-03,0.0224141,0.0520337,0.00571884
2951,-24.0,41.0,0.0,  -1.59004E-03,   5.73121E-03,  -428.195E-03,0.0222701,0.0509591,0.00602352
2952,-25.0,41.0,0.0,  -1.65596E-03,   5.60419E-03,  -422.492E-03,0.0221282,0.049838,0.00633667
2957,-26.0,41.0,0.0,  -1.72118E-03,   5.46910E-03,  -416.396E-03,0.021991,0.0486708,0.00665887
2958,-27.0,41.0,0.0,  -1.78547E-03,   5.32555E-03,  -409.879E-03,0.0218613,0.047458,0.00699075
2963,-28.0,41.0,0.0,  -1.84858E-03,   5.17314E-03,  -402.911E-03,0.0217434,0.0462002,0.00733285
2966,-29.0,41.0,0.0,  -1.91014E-03,   5.01145E-03,  -395.454E-03,0.021642,0.0448981,0.00768568
2967,-30.0,41.0,0.0,  -1.96974E-03,   4.83999E-03,  -387.467E-03,0.0215635,0.0435524,0.00804958
2972,-31.0,41.0,0.0,  -2.02684E-03,   4.65824E-03,  -378.902E-03,0.021516,0.0421639,0.00842462
2973,-32.0,41.0,0.0,  -2.08074E-03,   4.46558E-03,  -369.699E-03,0.0215093,0.0407329,0.00881041
2978,-33.0,41.0,0.0,  -2.13055E-03,   4.26134E-03,  -359.790E-03,0.0215558,0.0392595,0.00920582
2981,-34.0,41.0,0.0,  -2.17509E-03,   4.04472E-03,  -349.089E-03,0.0216696,0.0377426,0.00960852
2982,-35.0,41.0,0.0,  -2.21277E-03,   3.81482E-03,  -337.493E-03,0.0218671,0.0361794,0.0100144
2987,-36.0,41.0,0.0,  -2.24147E-03,   3.57064E-03,  -324.876E-03,0.0221644,0.034564,0.0104169
2988,-37.0,41.0,0.0,  -2.25831E-03,   3.31111E-03,  -311.085E-03,0.0225751,0.0328862,0.0108055
2993,-38.0,41.0,0.0,  -2.25939E-03,   3.03526E-03,  -295.933E-03,0.0231039,0.0311294,0.0111654
2996,-39.0,41.0,0.0,  -2.23944E-03,   2.74237E-03,  -279.199E-03,0.0237371,0.029268,0.0114758
2997,-40.0,41.0,0.0,  -2.19152E-03,   2.43244E-03,  -260.628E-03,0.0244278,0.0272655,0.0117099
3002,-41.0,41.0,0.0,  -2.10674E-03,   2.10674E-03,  -239.942E-03,0.0250729,0.0250729,0.0118358
3003,-42.0,41.0,0.0,  -1.97434E-03,   1.76857E-03,  -216.861E-03,0.0254814,0.0226276,0.0118187
3008,-43.0,41.0,0.0,  -1.78264E-03,   1.42420E-03,  -191.155E-03,0.0253311,0.0198547,0.011627
3011,-44.0,41.0,0.0,  -1.52159E-03,   1.08369E-03,  -162.722E-03,0.0241067,0.0166648,0.0112364
3012,-45.0,41.0,0.0,  -1.18812E-03,   761.297E-06,  -131.722E-03,0.0210137,0.0129454,0.0106353
3017,-46.0,41.0,0.0,  -795.696E-06,   474.964E-06,  -98.7893E-03,0.0148479,0.00852783,0.00980773
3018,-47.0,41.0,0.0,  -387.766E-06,   244.210E-06,  -65.3497E-03,0.00380214,0.00311283,0.0086932
3023,-48.0,41.0,0.0,  -50.2911E-06,   85.8041E-06,  -34.1032E-03,-0.0148207,-0.00387937,0.00705052
3026,-49.0,41.0,0.0,   97.9091E-06,   7.08022E-06,  -9.74210E-03,-0.0449793,-0.0135306,0.0042346
3027,-50.0,41.0,0.0,   608.168E-42,  -189.667E-42,           -0.,-0.0635286,-0.0190612,0.000875866
3032,50.0,40.0,0.0,  -725.989E-42,  -219.806E-42,           -0.,-0.0670736,-0.0201277,-0.000912625
3033,49.0,40.0,0.0,  -122.610E-06,   11.8980E-06,  -10.5339E-03,-0.0467544,-0.0141522,-0.00401325
3038,48.0,40.0,0.0,   40.8518E-06,   95.8421E-06,  -36.7971E-03,-0.0141259,-0.00387567,-0.00653236
3041,47.0,40.0,0.0,   422.230E-06,   259.324E-06,  -70.4033E-03,0.00543702,0.00322303,-0.00799813
3042,46.0,40.0,0.0,   886.568E-06,   495.053E-06,  -106.394E-03,0.0167949,0.00851077,-0.00906151
3047,45.0,40.0,0.0,   1.33756E-03,   787.378E-06,  -141.962E-03,0.0230561,0.0127287,-0.00993617
3048,44.0,40.0,0.0,   1.72600E-03,   1.11833E-03,  -175.625E-03,0.0261926,0.0162618,-0.0106495
3053,43.0,40.0,0.0,   2.03547E-03,   1.47120E-03,  -206.711E-03,0.0274569,0.0193159,-0.0111876
3056,42.0,40.0,0.0,   2.26767E-03,   1.83233E-03,  -235.022E-03,0.0276462,0.0220108,-0.0115386
3057,41.0,40.0,0.0,   2.43244E-03,   2.19152E-03,  -260.628E-03,0.0272655,0.0244278,-0.0117099
3062,40.0,40.0,0.0,   2.54190E-03,   2.54190E-03,  -283.733E-03,0.0266284,0.0266284,-0.0117225
3063,39.0,40.0,0.0,   2.60762E-03,   2.87928E-03,  -304.598E-03,0.0259222,0.0286614,-0.0116057
3068,38.0,40.0,0.0,   2.63946E-03,   3.20146E-03,  -323.489E-03,0.0252512,0.0305648,-0.0113896
3071,37.0,40.0,0.0,   2.64536E-03,   3.50760E-03,  -340.658E-03,0.0246669,0.0323675,-0.0111023
3072,36.0,40.0,0.0,   2.63147E-03,   3.79771E-03,  -356.328E-03,0.0241882,0.0340902,-0.0107667
3077,35.0,40.0,0.0,   2.60248E-03,   4.07225E-03,  -370.690E-03,0.0238156,0.0357471,-0.010401
3078,34.0,40.0,0.0,   2.56192E-03,   4.33187E-03,  -383.905E-03,0.0235398,0.0373473,-0.0100185
3083,33.0,40.0,0.0,   2.51244E-03,   4.57734E-03,  -396.108E-03,0.0233479,0.0388965,-0.00962875
3086,32.0,40.0,0.0,   2.45606E-03,   4.80938E-03,  -407.411E-03,0.0232257,0.0403978,-0.00923827
3087,31.0,40.0,0.0,   2.39430E-03,   5.02869E-03,  -417.908E-03,0.0231604,0.0418527,-0.00885136
3092,30.0,40.0,0.0,   2.32832E-03,   5.23591E-03,  -427.676E-03,0.0231404,0.0432618,-0.0084707
3093,29.0,40.0,0.0,   2.25904E-03,   5.43161E-03,  -436.780E-03,0.0231561,0.0446252,-0.0080979
3098,28.0,40.0,0.0,   2.18715E-03,   5.61632E-03,  -445.277E-03,0.0231994,0.0459427,-0.0077338
3101,27.0,40.0,0.0,   2.11322E-03,   5.79056E-03,  -453.215E-03,0.0232638,0.0472138,-0.00737876
3102,26.0,40.0,0.0,   2.03770E-03,   5.95476E-03,  -460.634E-03,0.023344,0.0484382,-0.0070328
3107,25.0,40.0,0.0,   1.96095E-03,   6.10937E-03,  -467.572E-03,0.023436,0.0496156,-0.00669573
3108,24.0,40.0,0.0,   1.88325E-03,   6.25479E-03,  -474.059E-03,0.0235361,0.0507456,-0.00636724
3113,23.0,40.0,0.0,   1.80486E-03,   6.39140E-03,  -480.124E-03,0.0236417,0.0518281,-0.00604694
3116,22.0,40.0,0.0,   1.72596E-03,   6.51957E-03,  -485.791E-03,0.0237506,0.0528629,-0.00573439
3117,21.0,40.0,0.0,   1.64671E-03,   6.63964E-03,  -491.084E-03,0.0238609,0.0538499,-0.00542914
3122,20.0,40.0,0.0,   1.56725E-03,   6.75194E-03,  -496.022E-03,0.0239711,0.0547891,-0.00513073
3123,19.0,40.0,0.0,   1.48768E-03,   6.85679E-03,  -500.624E-03,0.0240802,0.0556806,-0.00483871
3128,18.0,40.0,0.0,   1.40807E-03,   6.95448E-03,  -504.906E-03,0.024187,0.0565245,-0.00455263
3131,17.0,40.0,0.0,   1.32851E-03,   7.04529E-03,  -508.883E-03,0.0242907,0.0573208,-0.00427205
3132,16.0,40.0,0.0,   1.24904E-03,   7.12950E-03,  -512.569E-03,0.0243908,0.0580699,-0.00399656
3137,15.0,40.0,0.0,   1.16971E-03,   7.20734E-03,  -515.975E-03,0.0244866,0.0587718,-0.00372577
3138,14.0,40.0,0.0,   1.09053E-03,   7.27906E-03,  -519.114E-03,0.0245777,0.0594268,-0.00345928
3143,13.0,40.0,0.0,   1.01154E-03,   7.34487E-03,  -521.995E-03,0.0246636,0.0600351,-0.00319674
3146,12.0,40.0,0.0,   932.742E-06,   7.40499E-03,  -524.628E-03,0.0247442,0.0605971,-0.00293779
3147,11.0,40.0,0.0,   854.145E-06,   7.45960E-03,  -527.022E-03,0.024819,0.0611129,-0.00268209
3152,10.0,40.0,0.0,   775.746E-06,   7.50887E-03,  -529.183E-03,0.0248879,0.0615828,-0.00242932
3153,9.0,40.0,0.0,   697.542E-06,   7.55296E-03,  -531.118E-03,0.0249507,0.0620071,-0.00217918
3158,8.0,40.0,0.0,   619.524E-06,   7.59203E-03,  -532.834E-03,0.0250072,0.062386,-0.00193136
3161,7.0,40.0,0.0,   541.678E-06,   7.62619E-03,  -534.336E-03,0.0250574,0.0627197,-0.00168558
3162,6.0,40.0,0.0,   463.988E-06,   7.65557E-03,  -535.629E-03,0.025101,0.0630085,-0.00144157
3167,5.0,40.0,0.0,   386.437E-06,   7.68026E-03,  -536.716E-03,0.0251381,0.0632525,-0.00119906
3168,4.0,40.0,0.0,   309.003E-06,   7.70035E-03,  -537.601E-03,0.0251685,0.0634519,-0.000957778
3173,3.0,40.0,0.0,   231.667E-06,   7.71590E-03,  -538.286E-03,0.0251922,0.0636069,-0.000717481
3176,2.0,40.0,0.0,   154.403E-06,   7.72697E-03,  -538.774E-03,0.0252091,0.0637175,-0.000477916
3177,1.0,40.0,0.0,   77.1892E-06,   7.73360E-03,  -539.066E-03,0.0252193,0.0637838,-0.000238837
3182,0.0,40.0,0.0,   3.28684E-15,   7.73580E-03,  -539.164E-03,0.0252227,0.0638059,0.0
3183,-1.0,40.0,0.0,  -77.1892E-06,   7.73360E-03,  -539.066E-03,0.0252193,0.0637838,0.000238837
3188,-2.0,40.0,0.0,  -154.403E-06,   7.72697E-03,  -538.774E-03,0.0252091,0.0637175,0.000477916
3191,-3.0,40.0,0.0,  -231.667E-06,   7.71590E-03,  -538.286E-03,0.0251922,0.0636069,0.000717481
3192,-4.0,40.0,0.0,  -309.003E-06,   7.70035E-03,  -537.601E-03,0.0251685,0.0634519,0.000957778
3197,-5.0,40.0,0.0,  -386.437E-06,   7.68026E-03,  -536.716E-03,0.0251381,0.0632525,0.00119906
3198,-6.0,40.0,0.0,  -463.988E-06,   7.65557E-03,  -535.629E-03,0.025101,0.0630085,0.00144157
3203,-7.0,40.0,0.0,  -541.678E-06,   7.62619E-03,  -534.336E-03,0.0250574,0.0627197,0.00168558
3206,-8.0,40.0,0.0,  -619.524E-06,   7.59203E-03,  -532.834E-03,0.0250072,0.062386,0.00193136
3207,-9.0,40.0,0.0,  -697.542E-06,   7.55296E-03,  -531.118E-03,0.0249507,0.0620071,0.00217918
3212,-10.0,40.0,0.0,  -775.746E-06,   7.50887E-03,  -529.183E-03,0.0248879,0.0615828,0.00242932
3213,-11.0,40.0,0.0,  -854.145E-06,   7.45960E-03,  -527.022E-03,0.024819,0.0611129,0.00268209
3218,-12.0,40.0,0.0,  -932.742E-06,   7.40499E-03,  -524.628E-03,0.0247442,0.0605971,0.00293779
3221,-13.0,40.0,0.0,  -1.01154E-03,   7.34487E-03,  -521.995E-03,0.0246637,0.0600351,0.00319674
3222,-14.0,40.0,0.0,  -1.09053E-03,   7.27906E-03,  -519.114E-03,0.0245777,0.0594268,0.00345928
3227,-15.0,40.0,0.0,  -1.16971E-03,   7.20734E-03,  -515.975E-03,0.0244866,0.0587718,0.00372577
3228,-16.0,40.0,0.0,  -1.24904E-03,   7.12950E-03,  -512.569E-03,0.0243908,0.0580699,0.00399656
3233,-17.0,40.0,0.0,  -1.32851E-03,   7.04529E-03,  -508.883E-03,0.0242907,0.0573208,0.00427205
3236,-18.0,40.0,0.0,  -1.40807E-03,   6.95448E-03,  -504.906E-03,0.024187,0.0565245,0.00455263
3237,-19.0,40.0,0.0,  -1.48768E-03,   6.85679E-03,  -500.624E-03,0.0240802,0.0556806,0.00483871
3242,-20.0,40.0,0.0,  -1.56725E-03,   6.75194E-03,  -496.022E-03,0.0239711,0.0547891,0.00513073
3243,-21.0,40.0,0.0,  -1.64671E-03,   6.63964E-03,  -491.084E-03,0.0238609,0.0538499,0.00542914
3248,-22.0,40.0,0.0,  -1.72596E-03,   6.51957E-03,  -485.791E-03,0.0237506,0.0528629,0.00573439
3251,-23.0,40.0,0.0,  -1.80486E-03,   6.39140E-03,  -480.124E-03,0.0236417,0.0518281,0.00604694
3252,-24.0,40.0,0.0,  -1.88325E-03,   6.25479E-03,  -474.059E-03,0.0235361,0.0507456,0.00636724
3257,-25.0,40.0,0.0,  -1.96095E-03,   6.10937E-03,  -467.572E-03,0.023436,0.0496156,0.00669573
3258,-26.0,40.0,0.0,  -2.03770E-03,   5.95476E-03,  -460.634E-03,0.023344,0.0484382,0.0070328
3263,-27.0,40.0,0.0,  -2.11322E-03,   5.79056E-03,  -453.215E-03,0.0232638,0.0472138,0.00737876
3266,-28.0,40.0,0.0,  -2.18715E-03,   5.61632E-03,  -445.277E-03,0.0231994,0.0459427,0.0077338
3267,-29.0,40.0,0.0,  -2.25904E-03,   5.43161E-03,  -436.780E-03,0.0231561,0.0446252,0.0080979
3272,-30.0,40.0,0.0,  -2.32832E-03,   5.23591E-03,  -427.676E-03,0.0231404,0.0432618,0.0084707
3273,-31.0,40.0,0.0,  -2.39430E-03,   5.02869E-03,  -417.908E-03,0.0231604,0.0418527,0.00885136
3278,-32.0,40.0,0.0,  -2.45606E-03,   4.80938E-03,  -407.411E-03,0.0232257,0.0403978,0.00923827
3281,-33.0,40.0,0.0,  -2.51244E-03,   4.57734E-03,  -396.108E-03,0.0233479,0.0388965,0.00962875
3282,-34.0,40.0,0.0,  -2.56192E-03,   4.33187E-03,  -383.905E-03,0.0235398,0.0373473,0.0100185
3287,-35.0,40.0,0.0,  -2.60248E-03,   4.07225E-03,  -370.690E-03,0.0238156,0.0357471,0.010401
3288,-36.0,40.0,0.0,  -2.63147E-03,   3.79771E-03,  -356.328E-03,0.0241882,0.0340902,0.0107667
3293,-37.0,40.0,0.0,  -2.64536E-03,   3.50760E-03,  -340.658E-03,0.0246669,0.0323675,0.0111023
3296,-38.0,40.0,0.0,  -2.63946E-03,   3.20146E-03,  -323.489E-03,0.0252512,0.0305648,0.0113896
3297,-39.0,40.0,0.0,  -2.60762E-03,   2.87928E-03,  -304.598E-03,0.0259222,0.0286614,0.0116057
3302,-40.0,40.0,0.0,  -2.54190E-03,   2.54190E-03,  -283.733E-03,0.0266284,0.0266284,0.0117225
3303,-41.0,40.0,0.0,  -2.43244E-03,   2.19152E-03,  -260.628E-03,0.0272655,0.0244278,0.0117099
3308,-42.0,40.0,0.0,  -2.26767E-03,   1.83233E-03,  -235.022E-03,0.0276462,0.0220108,0.0115386
3311,-43.0,40.0,0.0,  -2.03547E-03,   1.47120E-03,  -206.711E-03,0.0274569,0.0193159,0.0111876
3312,-44.0,40.0,0.0,  -1.72600E-03,   1.11833E-03,  -175.625E-03,0.0261926,0.0162618,0.0106495
3317,-45.0,40.0,0.0,  -1.33756E-03,   787.378E-06,  -141.962E-03,0.0230561,0.0127287,0.00993617
3318,-46.0,40.0,0.0,  -886.568E-06,   495.053E-06,  -106.394E-03,0.0167948,0.00851077,0.00906151
3323,-47.0,40.0,0.0,  -422.230E-06,   259.324E-06,  -70.4033E-03,0.00543702,0.00322303,0.00799813
3326,-48.0,40.0,0.0,  -40.8518E-06,   95.8421E-06,  -36.7971E-03,-0.0141259,-0.00387567,0.00653236
3327,-49.0,40.0,0.0,   122.610E-06,   11.8980E-06,  -10.5339E-03,-0.0467544,-0.0141522,0.00401325
3332,-50.0,40.0,0.0,   725.989E-42,  -219.806E-42,           -0.,-0.0670736,-0.0201277,0.000912625
3333,50.0,39.0,0.0,  -841.250E-42,  -249.207E-42,           -0.,-0.0701774,-0.0210606,-0.000982154
3338,49.0,39.0,0.0,  -146.934E-06,   17.0130E-06,  -11.2646E-03,-0.0481098,-0.0146077,-0.00386481
3341,48.0,39.0,0.0,   31.0477E-06,   105.264E-06,  -39.2515E-03,-0.0131148,-0.0037047,-0.00612962
3342,47.0,39.0,0.0,   452.989E-06,   271.676E-06,  -74.9483E-03,0.00722557,0.00347642,-0.00743231
3347,46.0,39.0,0.0,   968.852E-06,   509.022E-06,  -113.175E-03,0.0187519,0.00860825,-0.0084262
3348,45.0,39.0,0.0,   1.47371E-03,   802.797E-06,  -151.052E-03,0.0250045,0.0125958,-0.00930679
3353,44.0,39.0,0.0,   1.91384E-03,   1.13668E-03,  -187.074E-03,0.0281186,0.0159097,-0.010081
3356,43.0,39.0,0.0,   2.27030E-03,   1.49544E-03,  -220.544E-03,0.0293896,0.0187937,-0.0107159
3357,42.0,39.0,0.0,   2.54340E-03,   1.86633E-03,  -251.240E-03,0.0296102,0.0213775,-0.0111829
3362,41.0,39.0,0.0,   2.74237E-03,   2.23944E-03,  -279.199E-03,0.029268,0.0237371,-0.0114758
3363,40.0,39.0,0.0,   2.87928E-03,   2.60762E-03,  -304.598E-03,0.0286614,0.0259222,-0.0116057
3368,39.0,39.0,0.0,   2.96607E-03,   2.96607E-03,  -327.672E-03,0.0279685,0.0279685,-0.011595
3371,38.0,39.0,0.0,   3.01324E-03,   3.31185E-03,  -348.671E-03,0.0272909,0.0299031,-0.0114705
3372,37.0,39.0,0.0,   3.02945E-03,   3.64333E-03,  -367.835E-03,0.0266811,0.0317461,-0.0112588
3377,36.0,39.0,0.0,   3.02159E-03,   3.95982E-03,  -385.382E-03,0.0261615,0.0335123,-0.0109832
3378,35.0,39.0,0.0,   2.99504E-03,   4.26118E-03,  -401.504E-03,0.0257369,0.0352122,-0.0106634
3383,34.0,39.0,0.0,   2.95397E-03,   4.54763E-03,  -416.363E-03,0.0254022,0.036853,-0.0103144
3386,33.0,39.0,0.0,   2.90155E-03,   4.81957E-03,  -430.101E-03,0.0251477,0.0384391,-0.00994789
3387,32.0,39.0,0.0,   2.84025E-03,   5.07749E-03,  -442.835E-03,0.0249621,0.0399736,-0.00957223
3392,31.0,39.0,0.0,   2.77197E-03,   5.32189E-03,  -454.664E-03,0.0248342,0.041458,-0.0091934
3393,30.0,39.0,0.0,   2.69816E-03,   5.55331E-03,  -465.673E-03,0.0247537,0.0428931,-0.00881553
3398,29.0,39.0,0.0,   2.61999E-03,   5.77224E-03,  -475.935E-03,0.0247118,0.0442795,-0.00844139
3401,28.0,39.0,0.0,   2.53836E-03,   5.97919E-03,  -485.511E-03,0.0247007,0.0456171,-0.00807277
3402,27.0,39.0,0.0,   2.45400E-03,   6.17461E-03,  -494.455E-03,0.0247142,0.046906,-0.00771079
3407,26.0,39.0,0.0,   2.36749E-03,   6.35897E-03,  -502.813E-03,0.024747,0.0481462,-0.00735605
3408,25.0,39.0,0.0,   2.27930E-03,   6.53270E-03,  -510.625E-03,0.0247946,0.0493375,-0.00700885
3413,24.0,39.0,0.0,   2.18980E-03,   6.69622E-03,  -517.929E-03,0.0248537,0.0504799,-0.00666921
3416,23.0,39.0,0.0,   2.09932E-03,   6.84994E-03,  -524.755E-03,0.0249212,0.0515733,-0.00633703
3417,22.0,39.0,0.0,   2.00811E-03,   6.99423E-03,  -531.132E-03,0.0249947,0.0526179,-0.00601209
3422,21.0,39.0,0.0,   1.91637E-03,   7.12946E-03,  -537.085E-03,0.0250723,0.0536136,-0.0056941
3423,20.0,39.0,0.0,   1.82427E-03,   7.25601E-03,  -542.638E-03,0.0251522,0.0545606,-0.00538272
3428,19.0,39.0,0.0,   1.73196E-03,   7.37420E-03,  -547.812E-03,0.0252332,0.055459,-0.0050776
3431,18.0,39.0,0.0,   1.63955E-03,   7.48436E-03,  -552.624E-03,0.0253141,0.056309,-0.00477836
3432,17.0,39.0,0.0,   1.54712E-03,   7.58679E-03,  -557.093E-03,0.0253939,0.0571108,-0.00448463
3437,16.0,39.0,0.0,   1.45474E-03,   7.68180E-03,  -561.233E-03,0.0254719,0.0578648,-0.00419601
3438,15.0,39.0,0.0,   1.36248E-03,   7.76965E-03,  -565.059E-03,0.0255474,0.0585711,-0.00391215
3443,14.0,39.0,0.0,   1.27037E-03,   7.85061E-03,  -568.584E-03,0.0256198,0.05923,-0.00363267
3446,13.0,39.0,0.0,   1.17844E-03,   7.92491E-03,  -571.819E-03,0.0256886,0.0598418,-0.00335723
3447,12.0,39.0,0.0,   1.08671E-03,   7.99280E-03,  -574.775E-03,0.0257536,0.0604068,-0.00308547
3452,11.0,39.0,0.0,   995.193E-06,   8.05447E-03,  -577.461E-03,0.0258143,0.0609253,-0.00281706
3453,10.0,39.0,0.0,   903.891E-06,   8.11013E-03,  -579.886E-03,0.0258704,0.0613976,-0.00255168
3458,9.0,39.0,0.0,   812.801E-06,   8.15995E-03,  -582.058E-03,0.0259218,0.0618239,-0.00228902
3461,8.0,39.0,0.0,   721.914E-06,   8.20409E-03,  -583.983E-03,0.0259683,0.0622046,-0.00202876
3462,7.0,39.0,0.0,   631.219E-06,   8.24270E-03,  -585.668E-03,0.0260096,0.0625399,-0.00177063
3467,6.0,39.0,0.0,   540.699E-06,   8.27590E-03,  -587.118E-03,0.0260456,0.06283,-0.00151434
3468,5.0,39.0,0.0,   450.335E-06,   8.30380E-03,  -588.337E-03,0.0260763,0.0630751,-0.0012596
3473,4.0,39.0,0.0,   360.103E-06,   8.32651E-03,  -589.330E-03,0.0261015,0.0632753,-0.00100615
3476,3.0,39.0,0.0,   269.980E-06,   8.34409E-03,  -590.098E-03,0.0261212,0.063431,-0.000753722
3477,2.0,39.0,0.0,   179.940E-06,   8.35660E-03,  -590.646E-03,0.0261353,0.063542,-0.000502059
3482,1.0,39.0,0.0,   89.9558E-06,   8.36409E-03,  -590.974E-03,0.0261437,0.0636086,-0.000250903
3483,0.0,39.0,0.0,   6.12124E-15,   8.36659E-03,  -591.083E-03,0.0261466,0.0636308,0.0
3488,-1.0,39.0,0.0,  -89.9558E-06,   8.36409E-03,  -590.974E-03,0.0261437,0.0636086,0.000250903
3491,-2.0,39.0,0.0,  -179.940E-06,   8.35660E-03,  -590.646E-03,0.0261353,0.063542,0.000502059
3492,-3.0,39.0,0.0,  -269.980E-06,   8.34409E-03,  -590.098E-03,0.0261212,0.063431,0.000753722
3497,-4.0,39.0,0.0,  -360.103E-06,   8.32651E-03,  -589.330E-03,0.0261015,0.0632753,0.00100615
3498,-5.0,39.0,0.0,  -450.335E-06,   8.30380E-03,  -588.337E-03,0.0260763,0.0630751,0.0012596
3503,-6.0,39.0,0.0,  -540.699E-06,   8.27590E-03,  -587.118E-03,0.0260456,0.06283,0.00151434
3506,-7.0,39.0,0.0,  -631.219E-06,   8.24270E-03,  -585.668E-03,0.0260096,0.0625399,0.00177063
3507,-8.0,39.0,0.0,  -721.914E-06,   8.20409E-03,  -583.983E-03,0.0259683,0.0622046,0.00202876
3512,-9.0,39.0,0.0,  -812.801E-06,   8.15995E-03,  -582.058E-03,0.0259218,0.0618239,0.00228902
3513,-10.0,39.0,0.0,  -903.891E-06,   8.11013E-03,  -579.886E-03,0.0258704,0.0613976,0.00255168
3518,-11.0,39.0,0.0,  -995.193E-06,   8.05447E-03,  -577.461E-03,0.0258143,0.0609253,0.00281706
3521,-12.0,39.0,0.0,  -1.08671E-03,   7.99280E-03,  -574.775E-03,0.0257536,0.0604068,0.00308547
3522,-13.0,39.0,0.0,  -1.17844E-03,   7.92491E-03,  -571.819E-03,0.0256886,0.0598418,0.00335723
3527,-14.0,39.0,0.0,  -1.27037E-03,   7.85061E-03,  -568.584E-03,0.0256198,0.05923,0.00363267
3528,-15.0,39.0,0.0,  -1.36248E-03,   7.76965E-03,  -565.059E-03,0.0255474,0.0585711,0.00391215
3533,-16.0,39.0,0.0,  -1.45474E-03,   7.68180E-03,  -561.233E-03,0.0254719,0.0578648,0.00419601
3536,-17.0,39.0,0.0,  -1.54712E-03,   7.58679E-03,  -557.093E-03,0.0253939,0.0571108,0.00448463
3537,-18.0,39.0,0.0,  -1.63955E-03,   7.48436E-03,  -552.624E-03,0.0253141,0.056309,0.00477836
3542,-19.0,39.0,0.0,  -1.73196E-03,   7.37420E-03,  -547.812E-03,0.0252332,0.055459,0.0050776
3543,-20.0,39.0,0.0,  -1.82427E-03,   7.25601E-03,  -542.638E-03,0.0251522,0.0545606,0.00538272
3548,-21.0,39.0,0.0,  -1.91637E-03,   7.12946E-03,  -537.085E-03,0.0250723,0.0536136,0.0056941
3551,-22.0,39.0,0.0,  -2.00811E-03,   6.99423E-03,  -531.132E-03,0.0249947,0.0526179,0.00601209
3552,-23.0,39.0,0.0,  -2.09932E-03,   6.84994E-03,  -524.755E-03,0.0249212,0.0515733,0.00633703
3557,-24.0,39.0,0.0,  -2.18980E-03,   6.69622E-03,  -517.929E-03,0.0248537,0.0504799,0.00666921
3558,-25.0,39.0,0.0,  -2.27930E-03,   6.53270E-03,  -510.625E-03,0.0247946,0.0493375,0.00700885
3563,-26.0,39.0,0.0,  -2.36749E-03,   6.35897E-03,  -502.813E-03,0.024747,0.0481462,0.00735606
3566,-27.0,39.0,0.0,  -2.45400E-03,   6.17461E-03,  -494.455E-03,0.0247142,0.046906,0.00771079
3567,-28.0,39.0,0.0,  -2.53836E-03,   5.97919E-03,  -485.511E-03,0.0247007,0.0456171,0.00807277
3572,-29.0,39.0,0.0,  -2.61999E-03,   5.77224E-03,  -475.935E-03,0.0247118,0.0442795,0.00844139
3573,-30.0,39.0,0.0,  -2.69816E-03,   5.55331E-03,  -465.673E-03,0.0247537,0.0428931,0.00881553
3578,-31.0,39.0,0.0,  -2.77197E-03,   5.32189E-03,  -454.664E-03,0.0248342,0.041458,0.0091934
3581,-32.0,39.0,0.0,  -2.84025E-03,   5.07749E-03,  -442.835E-03,0.0249621,0.0399736,0.00957223
3582,-33.0,39.0,0.0,  -2.90155E-03,   4.81957E-03,  -430.101E-03,0.0251477,0.0384391,0.00994789
3587,-34.0,39.0,0.0,  -2.95397E-03,   4.54763E-03,  -416.363E-03,0.0254022,0.036853,0.0103144
3588,-35.0,39.0,0.0,  -2.99504E-03,   4.26118E-03,  -401.504E-03,0.0257369,0.0352122,0.0106634
3593,-36.0,39.0,0.0,  -3.02159E-03,   3.95982E-03,  -385.382E-03,0.0261615,0.0335123,0.0109832
3596,-37.0,39.0,0.0,  -3.02945E-03,   3.64333E-03,  -367.835E-03,0.0266811,0.0317461,0.0112588
3597,-38.0,39.0,0.0,  -3.01324E-03,   3.31185E-03,  -348.671E-03,0.0272909,0.0299031,0.0114705
3602,-39.0,39.0,0.0,  -2.96607E-03,   2.96607E-03,  -327.672E-03,0.0279685,0.0279685,0.011595
3603,-40.0,39.0,0.0,  -2.87928E-03,   2.60762E-03,  -304.598E-03,0.0286614,0.0259222,0.0116057
3608,-41.0,39.0,0.0,  -2.74237E-03,   2.23944E-03,  -279.199E-03,0.029268,0.0237371,0.0114758
3611,-42.0,39.0,0.0,  -2.54340E-03,   1.86633E-03,  -251.240E-03,0.0296102,0.0213775,0.0111829
3612,-43.0,39.0,0.0,  -2.27030E-03,   1.49544E-03,  -220.544E-03,0.0293896,0.0187937,0.0107159
3617,-44.0,39.0,0.0,  -1.91384E-03,   1.13668E-03,  -187.074E-03,0.0281186,0.0159097,0.010081
3618,-45.0,39.0,0.0,  -1.47371E-03,   802.797E-06,  -151.052E-03,0.0250045,0.0125958,0.00930679
3623,-46.0,39.0,0.0,  -968.852E-06,   509.022E-06,  -113.175E-03,0.0187519,0.00860825,0.0084262
3626,-47.0,39.0,0.0,  -452.989E-06,   271.676E-06,  -74.9483E-03,0.00722557,0.00347642,0.00743231
3627,-48.0,39.0,0.0,  -31.0477E-06,   105.264E-06,  -39.2515E-03,-0.0131148,-0.0037047,0.00612962
3632,-49.0,39.0,0.0,   146.934E-06,   17.0130E-06,  -11.2646E-03,-0.0481098,-0.0146077,0.00386481
3633,-50.0,39.0,0.0,   841.250E-42,  -249.207E-42,           -0.,-0.0701774,-0.0210606,0.000982154
3638,50.0,38.0,0.0,  -953.054E-42,  -277.894E-42,           -0.,-0.0729553,-0.0218947,-0.00106755
3641,49.0,38.0,0.0,  -170.456E-06,   22.0781E-06,  -11.9448E-03,-0.0491619,-0.0149402,-0.00376322
3642,48.0,38.0,0.0,   21.7085E-06,   113.803E-06,  -41.5092E-03,-0.0118842,-0.00340707,-0.00581135
3647,47.0,38.0,0.0,   481.381E-06,   281.537E-06,  -79.0771E-03,0.00911784,0.00385177,-0.00696953
3648,46.0,38.0,0.0,   1.04431E-03,   518.143E-06,  -119.279E-03,0.0207167,0.00882622,-0.00788763
3653,45.0,38.0,0.0,   1.59843E-03,   810.220E-06,  -159.193E-03,0.0268914,0.0125818,-0.00874801
3656,44.0,38.0,0.0,   2.08658E-03,   1.14304E-03,  -197.309E-03,0.0299377,0.0156698,-0.00954571
3657,43.0,38.0,0.0,   2.48786E-03,   1.50292E-03,  -232.923E-03,0.0311894,0.0183701,-0.0102366
3662,42.0,38.0,0.0,   2.80129E-03,   1.87816E-03,  -265.793E-03,0.0314309,0.0208237,-0.0107819
3663,41.0,38.0,0.0,   3.03526E-03,   2.25939E-03,  -295.933E-03,0.0311294,0.0231039,-0.0111654
3668,40.0,38.0,0.0,   3.20146E-03,   2.63946E-03,  -323.489E-03,0.0305648,0.0252512,-0.0113896
3671,39.0,38.0,0.0,   3.31185E-03,   3.01324E-03,  -348.671E-03,0.0299031,0.0272909,-0.0114705
3672,38.0,38.0,0.0,   3.37721E-03,   3.37721E-03,  -371.707E-03,0.0292398,0.0292398,-0.0114301
3677,37.0,38.0,0.0,   3.40668E-03,   3.72910E-03,  -392.821E-03,0.0286263,0.0311099,-0.0112922
3678,36.0,38.0,0.0,   3.40772E-03,   4.06758E-03,  -412.222E-03,0.028087,0.03291,-0.0110791
3683,35.0,38.0,0.0,   3.38629E-03,   4.39194E-03,  -430.096E-03,0.0276296,0.0346464,-0.0108104
3686,34.0,38.0,0.0,   3.34711E-03,   4.70190E-03,  -446.606E-03,0.0272526,0.0363235,-0.010502
3687,33.0,38.0,0.0,   3.29386E-03,   4.99749E-03,  -461.892E-03,0.0269495,0.0379444,-0.0101665
3692,32.0,38.0,0.0,   3.22944E-03,   5.27888E-03,  -476.077E-03,0.0267118,0.0395112,-0.00981366
3693,31.0,38.0,0.0,   3.15615E-03,   5.54635E-03,  -489.264E-03,0.0265304,0.041025,-0.00945077
3698,30.0,38.0,0.0,   3.07576E-03,   5.80027E-03,  -501.543E-03,0.0263966,0.0424868,-0.00908313
3701,29.0,38.0,0.0,   2.98970E-03,   6.04100E-03,  -512.991E-03,0.0263025,0.0438971,-0.00871456
3702,28.0,38.0,0.0,   2.89912E-03,   6.26897E-03,  -523.676E-03,0.0262412,0.0452562,-0.00834777
3707,27.0,38.0,0.0,   2.80492E-03,   6.48458E-03,  -533.656E-03,0.0262068,0.0465643,-0.0079846
3708,26.0,38.0,0.0,   2.70785E-03,   6.68825E-03,  -542.981E-03,0.0261942,0.0478216,-0.00762631
3713,25.0,38.0,0.0,   2.60849E-03,   6.88040E-03,  -551.696E-03,0.0261992,0.0490282,-0.00727365
3716,24.0,38.0,0.0,   2.50735E-03,   7.06143E-03,  -559.843E-03,0.0262182,0.0501843,-0.0069271
3717,23.0,38.0,0.0,   2.40482E-03,   7.23176E-03,  -567.456E-03,0.0262482,0.05129,-0.00658686
3722,22.0,38.0,0.0,   2.30123E-03,   7.39176E-03,  -574.566E-03,0.0262867,0.0523455,-0.00625298
3723,21.0,38.0,0.0,   2.19686E-03,   7.54183E-03,  -581.204E-03,0.0263316,0.0533511,-0.00592537
3728,20.0,38.0,0.0,   2.09192E-03,   7.68233E-03,  -587.393E-03,0.0263812,0.0543069,-0.00560386
3731,19.0,38.0,0.0,   1.98660E-03,   7.81363E-03,  -593.159E-03,0.0264339,0.0552132,-0.00528824
3732,18.0,38.0,0.0,   1.88104E-03,   7.93606E-03,  -598.521E-03,0.0264885,0.0560702,-0.00497822
3737,17.0,38.0,0.0,   1.77536E-03,   8.04996E-03,  -603.499E-03,0.026544,0.0568784,-0.00467351
3738,16.0,38.0,0.0,   1.66966E-03,   8.15564E-03,  -608.111E-03,0.0265995,0.057638,-0.00437379
3743,15.0,38.0,0.0,   1.56402E-03,   8.25340E-03,  -612.372E-03,0.0266542,0.0583493,-0.00407874
3746,14.0,38.0,0.0,   1.45849E-03,   8.34351E-03,  -616.296E-03,0.0267075,0.0590128,-0.00378803
3747,13.0,38.0,0.0,   1.35312E-03,   8.42624E-03,  -619.898E-03,0.0267589,0.0596286,-0.00350133
3752,12.0,38.0,0.0,   1.24793E-03,   8.50185E-03,  -623.188E-03,0.0268079,0.0601971,-0.00321832
3753,11.0,38.0,0.0,   1.14294E-03,   8.57055E-03,  -626.178E-03,0.026854,0.0607188,-0.00293868
3758,10.0,38.0,0.0,   1.03817E-03,   8.63256E-03,  -628.877E-03,0.0268971,0.0611939,-0.00266209
3761,9.0,38.0,0.0,   933.612E-06,   8.68808E-03,  -631.294E-03,0.0269367,0.0616226,-0.00238826
3762,8.0,38.0,0.0,   829.268E-06,   8.73728E-03,  -633.436E-03,0.0269727,0.0620054,-0.00211686
3767,7.0,38.0,0.0,   725.123E-06,   8.78032E-03,  -635.310E-03,0.0270049,0.0623425,-0.00184763
3768,6.0,38.0,0.0,   621.164E-06,   8.81733E-03,  -636.923E-03,0.0270331,0.0626341,-0.00158026
3773,5.0,38.0,0.0,   517.369E-06,   8.84845E-03,  -638.280E-03,0.0270572,0.0628805,-0.00131448
3776,4.0,38.0,0.0,   413.718E-06,   8.87376E-03,  -639.384E-03,0.027077,0.0630818,-0.00105002
3777,3.0,38.0,0.0,   310.183E-06,   8.89337E-03,  -640.239E-03,0.0270925,0.0632382,-0.000786606
3782,2.0,38.0,0.0,   206.738E-06,   8.90732E-03,  -640.848E-03,0.0271037,0.0633498,-0.000523971
3783,1.0,38.0,0.0,   103.354E-06,   8.91568E-03,  -641.212E-03,0.0271104,0.0634167,-0.000261856
3788,0.0,38.0,0.0,   1.16247E-15,   8.91846E-03,  -641.334E-03,0.0271126,0.063439,-1.81899e-12
3791,-1.0,38.0,0.0,  -103.354E-06,   8.91568E-03,  -641.212E-03,0.0271104,0.0634167,0.000261856
3792,-2.0,38.0,0.0,  -206.738E-06,   8.90732E-03,  -640.848E-03,0.0271037,0.0633498,0.000523971
3797,-3.0,38.0,0.0,  -310.183E-06,   8.89337E-03,  -640.239E-03,0.0270925,0.0632382,0.000786605
3798,-4.0,38.0,0.0,  -413.718E-06,   8.87376E-03,  -639.384E-03,0.027077,0.0630818,0.00105002
3803,-5.0,38.0,0.0,  -517.369E-06,   8.84845E-03,  -638.280E-03,0.0270572,0.0628805,0.00131448
3806,-6.0,38.0,0.0,  -621.164E-06,   8.81733E-03,  -636.923E-03,0.0270331,0.0626341,0.00158026
3807,-7.0,38.0,0.0,  -725.123E-06,   8.78032E-03,  -635.310E-03,0.0270049,0.0623425,0.00184763
3812,-8.0,38.0,0.0,  -829.268E-06,   8.73728E-03,  -633.436E-03,0.0269727,0.0620054,0.00211686
3813,-9.0,38.0,0.0,  -933.612E-06,   8.68808E-03,  -631.294E-03,0.0269367,0.0616226,0.00238826
3818,-10.0,38.0,0.0,  -1.03817E-03,   8.63256E-03,  -628.877E-03,0.0268971,0.0611939,0.00266209
3819,-11.0,38.0,0.0,  -1.14294E-03,   8.57055E-03,  -626.178E-03,0.026854,0.0607188,0.00293868
3824,-12.0,38.0,0.0,  -1.24793E-03,   8.50185E-03,  -623.188E-03,0.0268079,0.0601971,0.00321832
3825,-13.0,38.0,0.0,  -1.35312E-03,   8.42624E-03,  -619.898E-03,0.0267589,0.0596286,0.00350133
3830,-14.0,38.0,0.0,  -1.45849E-03,   8.34351E-03,  -616.296E-03,0.0267075,0.0590128,0.00378803
3833,-15.0,38.0,0.0,  -1.56402E-03,   8.25340E-03,  -612.372E-03,0.0266542,0.0583493,0.00407874
3834,-16.0,38.0,0.0,  -1.66966E-03,   8.15564E-03,  -608.111E-03,0.0265995,0.057638,0.00437379
3839,-17.0,38.0,0.0,  -1.77536E-03,   8.04996E-03,  -603.499E-03,0.026544,0.0568784,0.00467351
3840,-18.0,38.0,0.0,  -1.88104E-03,   7.93606E-03,  -598.521E-03,0.0264885,0.0560702,0.00497822
3845,-19.0,38.0,0.0,  -1.98660E-03,   7.81363E-03,  -593.159E-03,0.0264339,0.0552132,0.00528824
3848,-20.0,38.0,0.0,  -2.09192E-03,   7.68233E-03,  -587.393E-03,0.0263812,0.0543069,0.00560386
3849,-21.0,38.0,0.0,  -2.19686E-03,   7.54183E-03,  -581.204E-03,0.0263316,0.0533511,0.00592537
3854,-22.0,38.0,0.0,  -2.30123E-03,   7.39176E-03,  -574.566E-03,0.0262867,0.0523455,0.00625298
3855,-23.0,38.0,0.0,  -2.40482E-03,   7.23176E-03,  -567.456E-03,0.0262482,0.05129,0.00658686
3860,-24.0,38.0,0.0,  -2.50735E-03,   7.06143E-03,  -559.843E-03,0.0262182,0.0501843,0.0069271
3863,-25.0,38.0,0.0,  -2.60849E-03,   6.88040E-03,  -551.696E-03,0.0261992,0.0490282,0.00727365
3864,-26.0,38.0,0.0,  -2.70785E-03,   6.68825E-03,  -542.981E-03,0.0261942,0.0478216,0.00762631
3869,-27.0,38.0,0.0,  -2.80492E-03,   6.48458E-03,  -533.656E-03,0.0262068,0.0465643,0.0079846
3870,-28.0,38.0,0.0,  -2.89912E-03,   6.26897E-03,  -523.676E-03,0.0262412,0.0452562,0.00834777
3875,-29.0,38.0,0.0,  -2.98970E-03,   6.04100E-03,  -512.991E-03,0.0263025,0.0438971,0.00871456
3878,-30.0,38.0,0.0,  -3.07576E-03,   5.80027E-03,  -501.543E-03,0.0263966,0.0424868,0.00908313
3879,-31.0,38.0,0.0,  -3.15615E-03,   5.54635E-03,  -489.264E-03,0.0265304,0.041025,0.00945077
3884,-32.0,38.0,0.0,  -3.22944E-03,   5.27888E-03,  -476.077E-03,0.0267118,0.0395112,0.00981366
3885,-33.0,38.0,0.0,  -3.29386E-03,   4.99749E-03,  -461.892E-03,0.0269495,0.0379444,0.0101665
3890,-34.0,38.0,0.0,  -3.34711E-03,   4.70190E-03,  -446.606E-03,0.0272526,0.0363235,0.010502
3893,-35.0,38.0,0.0,  -3.38629E-03,   4.39194E-03,  -430.096E-03,0.0276296,0.0346464,0.0108104
3894,-36.0,38.0,0.0,  -3.40772E-03,   4.06758E-03,  -412.222E-03,0.028087,0.03291,0.0110791
3899,-37.0,38.0,0.0,  -3.40668E-03,   3.72910E-03,  -392.821E-03,0.0286263,0.0311099,0.0112922
3900,-38.0,38.0,0.0,  -3.37721E-03,   3.37721E-03,  -371.707E-03,0.0292398,0.0292398,0.0114301
3905,-39.0,38.0,0.0,  -3.31185E-03,   3.01324E-03,  -348.671E-03,0.0299031,0.0272909,0.0114705
3908,-40.0,38.0,0.0,  -3.20146E-03,   2.63946E-03,  -323.489E-03,0.0305648,0.0252512,0.0113896
3909,-41.0,38.0,0.0,  -3.03526E-03,   2.25939E-03,  -295.933E-03,0.0311294,0.0231039,0.0111654
3914,-42.0,38.0,0.0,  -2.80129E-03,   1.87816E-03,  -265.793E-03,0.0314309,0.0208237,0.0107819
3915,-43.0,38.0,0.0,  -2.48786E-03,   1.50292E-03,  -232.923E-03,0.0311894,0.0183701,0.0102366
3920,-44.0,38.0,0.0,  -2.08658E-03,   1.14304E-03,  -197.309E-03,0.0299377,0.0156698,0.00954571
3923,-45.0,38.0,0.0,  -1.59843E-03,   810.220E-06,  -159.193E-03,0.0268914,0.0125818,0.00874801
3924,-46.0,38.0,0.0,  -1.04431E-03,   518.143E-06,  -119.279E-03,0.0207167,0.00882622,0.00788763
3929,-47.0,38.0,0.0,  -481.381E-06,   281.537E-06,  -79.0771E-03,0.00911784,0.00385177,0.00696953
3930,-48.0,38.0,0.0,  -21.7085E-06,   113.803E-06,  -41.5092E-03,-0.0118842,-0.00340707,0.00581135
3935,-49.0,38.0,0.0,   170.456E-06,   22.0781E-06,  -11.9448E-03,-0.0491619,-0.0149402,0.00376322
3938,-50.0,38.0,0.0,   953.054E-42,  -277.894E-42,           -0.,-0.0729553,-0.0218947,0.00106755
3939,50.0,37.0,0.0,  -1.06101E-39,  -305.926E-42,           -0.,-0.0754859,-0.0226541,-0.00115652
3944,49.0,37.0,0.0,  -192.952E-06,   26.8404E-06,  -12.5821E-03,-0.0499945,-0.0151841,-0.00368853
3945,48.0,37.0,0.0,   13.3090E-06,   121.269E-06,  -43.6026E-03,-0.0105088,-0.0030205,-0.00555153
3950,47.0,37.0,0.0,   508.355E-06,   289.103E-06,  -82.8621E-03,0.0110707,0.00431849,-0.00658429
3953,46.0,37.0,0.0,   1.11445E-03,   523.322E-06,  -124.825E-03,0.0226798,0.00914715,-0.00742767
3954,45.0,37.0,0.0,   1.71357E-03,   811.552E-06,  -166.550E-03,0.0287344,0.0126848,-0.00825303
3959,44.0,37.0,0.0,   2.24609E-03,   1.14056E-03,  -206.535E-03,0.0316842,0.015556,-0.00904876
3960,43.0,37.0,0.0,   2.68966E-03,   1.49809E-03,  -244.080E-03,0.0328978,0.0180733,-0.00976543
3965,42.0,37.0,0.0,   3.04217E-03,   1.87358E-03,  -278.933E-03,0.0331498,0.0203888,-0.0103585
3968,41.0,37.0,0.0,   3.31111E-03,   2.25831E-03,  -311.085E-03,0.0328862,0.0225751,-0.0108055
3969,40.0,37.0,0.0,   3.50760E-03,   2.64536E-03,  -340.658E-03,0.0323675,0.0246669,-0.0111023
3974,39.0,37.0,0.0,   3.64333E-03,   3.02945E-03,  -367.835E-03,0.0317461,0.0266811,-0.0112588
3975,38.0,37.0,0.0,   3.72910E-03,   3.40668E-03,  -392.821E-03,0.0311099,0.0286263,-0.0112922
3980,37.0,37.0,0.0,   3.77430E-03,   3.77430E-03,  -415.823E-03,0.0305077,0.0305077,-0.0112229
3983,36.0,37.0,0.0,   3.78676E-03,   4.13043E-03,  -437.035E-03,0.029964,0.0323283,-0.0110711
3984,35.0,37.0,0.0,   3.77290E-03,   4.47384E-03,  -456.634E-03,0.0294888,0.0340904,-0.0108553
3989,34.0,37.0,0.0,   3.73790E-03,   4.80380E-03,  -474.781E-03,0.0290832,0.0357955,-0.0105913
3990,33.0,37.0,0.0,   3.68589E-03,   5.11991E-03,  -491.614E-03,0.0287437,0.0374448,-0.010292
3995,32.0,37.0,0.0,   3.62021E-03,   5.42204E-03,  -507.255E-03,0.0284644,0.0390391,-0.00996793
3998,31.0,37.0,0.0,   3.54350E-03,   5.71021E-03,  -521.811E-03,0.0282382,0.0405791,-0.00962714
3999,30.0,37.0,0.0,   3.45790E-03,   5.98456E-03,  -535.376E-03,0.0280582,0.0420652,-0.00927586
4004,29.0,37.0,0.0,   3.36511E-03,   6.24531E-03,  -548.029E-03,0.0279178,0.0434979,-0.00891878
4005,28.0,37.0,0.0,   3.26651E-03,   6.49276E-03,  -559.843E-03,0.0278108,0.0448774,-0.0085594
4010,27.0,37.0,0.0,   3.16323E-03,   6.72722E-03,  -570.880E-03,0.0277321,0.0462042,-0.00820027
4013,26.0,37.0,0.0,   3.05617E-03,   6.94905E-03,  -581.194E-03,0.0276768,0.0474783,-0.00784322
4014,25.0,37.0,0.0,   2.94609E-03,   7.15862E-03,  -590.835E-03,0.0276411,0.0487002,-0.00748954
4019,24.0,37.0,0.0,   2.83360E-03,   7.35631E-03,  -599.846E-03,0.0276216,0.0498701,-0.00714012
4020,23.0,37.0,0.0,   2.71921E-03,   7.54250E-03,  -608.266E-03,0.0276151,0.0509883,-0.00679552
4025,22.0,37.0,0.0,   2.60333E-03,   7.71758E-03,  -616.131E-03,0.0276193,0.0520551,-0.00645607
4028,21.0,37.0,0.0,   2.48631E-03,   7.88193E-03,  -623.472E-03,0.027632,0.0530708,-0.00612193
4029,20.0,37.0,0.0,   2.36844E-03,   8.03591E-03,  -630.317E-03,0.0276514,0.0540358,-0.00579314
4034,19.0,37.0,0.0,   2.24995E-03,   8.17991E-03,  -636.692E-03,0.027676,0.0549503,-0.00546961
4035,18.0,37.0,0.0,   2.13104E-03,   8.31426E-03,  -642.620E-03,0.0277044,0.0558148,-0.00515122
4040,17.0,37.0,0.0,   2.01185E-03,   8.43932E-03,  -648.123E-03,0.0277354,0.0566297,-0.00483776
4043,16.0,37.0,0.0,   1.89252E-03,   8.55541E-03,  -653.221E-03,0.0277683,0.0573953,-0.004529
4044,15.0,37.0,0.0,   1.77315E-03,   8.66284E-03,  -657.930E-03,0.027802,0.058112,-0.0042247
4049,14.0,37.0,0.0,   1.65381E-03,   8.76191E-03,  -662.267E-03,0.027836,0.0587803,-0.00392457
4050,13.0,37.0,0.0,   1.53458E-03,   8.85291E-03,  -666.247E-03,0.0278695,0.0594004,-0.00362832
4055,12.0,37.0,0.0,   1.41548E-03,   8.93608E-03,  -669.882E-03,0.0279022,0.0599728,-0.00333568
4058,11.0,37.0,0.0,   1.29657E-03,   9.01169E-03,  -673.185E-03,0.0279336,0.0604978,-0.00304634
4059,10.0,37.0,0.0,   1.17784E-03,   9.07995E-03,  -676.167E-03,0.0279632,0.0609759,-0.00276001
4064,9.0,37.0,0.0,   1.05932E-03,   9.14108E-03,  -678.836E-03,0.0279909,0.0614073,-0.0024764
4065,8.0,37.0,0.0,   941.007E-06,   9.19526E-03,  -681.202E-03,0.0280163,0.0617924,-0.00219522
4070,7.0,37.0,0.0,   822.888E-06,   9.24266E-03,  -683.273E-03,0.0280391,0.0621314,-0.00191618
4073,6.0,37.0,0.0,   704.954E-06,   9.28344E-03,  -685.054E-03,0.0280593,0.0624247,-0.00163902
4074,5.0,37.0,0.0,   587.188E-06,   9.31772E-03,  -686.552E-03,0.0280766,0.0626724,-0.00136344
4079,4.0,37.0,0.0,   469.567E-06,   9.34562E-03,  -687.771E-03,0.0280909,0.0628748,-0.00108918
4080,3.0,37.0,0.0,   352.067E-06,   9.36722E-03,  -688.715E-03,0.0281022,0.063032,-0.00081597
4085,2.0,37.0,0.0,   234.659E-06,   9.38260E-03,  -689.387E-03,0.0281102,0.0631443,-0.000543546
4088,1.0,37.0,0.0,   117.314E-06,   9.39181E-03,  -689.790E-03,0.0281151,0.0632115,-0.000271643
4089,0.0,37.0,0.0,  -808.469E-18,   9.39488E-03,  -689.924E-03,0.0281167,0.063234,-1.81899e-12
4094,-1.0,37.0,0.0,  -117.314E-06,   9.39181E-03,  -689.790E-03,0.0281151,0.0632115,0.000271643
4095,-2.0,37.0,0.0,  -234.659E-06,   9.38260E-03,  -689.387E-03,0.0281103,0.0631443,0.000543546
4100,-3.0,37.0,0.0,  -352.067E-06,   9.36722E-03,  -688.715E-03,0.0281022,0.063032,0.00081597
4103,-4.0,37.0,0.0,  -469.567E-06,   9.34562E-03,  -687.771E-03,0.0280909,0.0628748,0.00108918
4104,-5.0,37.0,0.0,  -587.188E-06,   9.31772E-03,  -686.552E-03,0.0280766,0.0626724,0.00136344
4109,-6.0,37.0,0.0,  -704.954E-06,   9.28344E-03,  -685.054E-03,0.0280593,0.0624247,0.00163902
4110,-7.0,37.0,0.0,  -822.888E-06,   9.24266E-03,  -683.273E-03,0.0280391,0.0621314,0.00191618
4115,-8.0,37.0,0.0,  -941.007E-06,   9.19526E-03,  -681.202E-03,0.0280163,0.0617924,0.00219522
4118,-9.0,37.0,0.0,  -1.05932E-03,   9.14108E-03,  -678.836E-03,0.0279909,0.0614073,0.0024764
4119,-10.0,37.0,0.0,  -1.17784E-03,   9.07995E-03,  -676.167E-03,0.0279633,0.0609759,0.00276001
4124,-11.0,37.0,0.0,  -1.29657E-03,   9.01169E-03,  -673.185E-03,0.0279336,0.0604978,0.00304634
4125,-12.0,37.0,0.0,  -1.41548E-03,   8.93608E-03,  -669.882E-03,0.0279022,0.0599728,0.00333568
4130,-13.0,37.0,0.0,  -1.53458E-03,   8.85291E-03,  -666.247E-03,0.0278695,0.0594004,0.00362832
4133,-14.0,37.0,0.0,  -1.65381E-03,   8.76191E-03,  -662.267E-03,0.027836,0.0587803,0.00392457
4134,-15.0,37.0,0.0,  -1.77315E-03,   8.66284E-03,  -657.930E-03,0.027802,0.058112,0.0042247
4139,-16.0,37.0,0.0,  -1.89252E-03,   8.55541E-03,  -653.221E-03,0.0277683,0.0573953,0.004529
4140,-17.0,37.0,0.0,  -2.01185E-03,   8.43932E-03,  -648.123E-03,0.0277354,0.0566297,0.00483776
4145,-18.0,37.0,0.0,  -2.13104E-03,   8.31426E-03,  -642.620E-03,0.0277044,0.0558148,0.00515122
4148,-19.0,37.0,0.0,  -2.24995E-03,   8.17991E-03,  -636.692E-03,0.027676,0.0549503,0.00546961
4149,-20.0,37.0,0.0,  -2.36844E-03,   8.03591E-03,  -630.317E-03,0.0276514,0.0540358,0.00579314
4154,-21.0,37.0,0.0,  -2.48631E-03,   7.88193E-03,  -623.472E-03,0.027632,0.0530708,0.00612193
4155,-22.0,37.0,0.0,  -2.60333E-03,   7.71758E-03,  -616.131E-03,0.0276193,0.0520551,0.00645607
4160,-23.0,37.0,0.0,  -2.71921E-03,   7.54250E-03,  -608.266E-03,0.0276151,0.0509883,0.00679552
4163,-24.0,37.0,0.0,  -2.83360E-03,   7.35631E-03,  -599.846E-03,0.0276216,0.0498701,0.00714012
4164,-25.0,37.0,0.0,  -2.94609E-03,   7.15862E-03,  -590.835E-03,0.0276411,0.0487002,0.00748955
4169,-26.0,37.0,0.0,  -3.05617E-03,   6.94905E-03,  -581.194E-03,0.0276768,0.0474783,0.00784322
4170,-27.0,37.0,0.0,  -3.16323E-03,   6.72722E-03,  -570.880E-03,0.0277321,0.0462042,0.00820027
4175,-28.0,37.0,0.0,  -3.26651E-03,   6.49276E-03,  -559.843E-03,0.0278108,0.0448774,0.0085594
4178,-29.0,37.0,0.0,  -3.36511E-03,   6.24531E-03,  -548.029E-03,0.0279178,0.0434979,0.00891878
4179,-30.0,37.0,0.0,  -3.45790E-03,   5.98456E-03,  -535.376E-03,0.0280582,0.0420652,0.00927586
4184,-31.0,37.0,0.0,  -3.54350E-03,   5.71021E-03,  -521.811E-03,0.0282382,0.0405791,0.00962714
4185,-32.0,37.0,0.0,  -3.62021E-03,   5.42204E-03,  -507.255E-03,0.0284644,0.0390391,0.00996793
4190,-33.0,37.0,0.0,  -3.68589E-03,   5.11991E-03,  -491.614E-03,0.0287437,0.0374448,0.010292
4193,-34.0,37.0,0.0,  -3.73790E-03,   4.80380E-03,  -474.781E-03,0.0290832,0.0357955,0.0105913
4194,-35.0,37.0,0.0,  -3.77290E-03,   4.47384E-03,  -456.634E-03,0.0294888,0.0340904,0.0108553
4199,-36.0,37.0,0.0,  -3.78676E-03,   4.13043E-03,  -437.035E-03,0.029964,0.0323283,0.0110711
4200,-37.0,37.0,0.0,  -3.77430E-03,   3.77430E-03,  -415.823E-03,0.0305077,0.0305077,0.0112229
4205,-38.0,37.0,0.0,  -3.72910E-03,   3.40668E-03,  -392.821E-03,0.0311099,0.0286263,0.0112922
4208,-39.0,37.0,0.0,  -3.64333E-03,   3.02945E-03,  -367.835E-03,0.0317461,0.0266811,0.0112588
4209,-40.0,37.0,0.0,  -3.50760E-03,   2.64536E-03,  -340.658E-03,0.0323675,0.0246669,0.0111023
4214,-41.0,37.0,0.0,  -3.31111E-03,   2.25831E-03,  -311.085E-03,0.0328862,0.0225751,0.0108055
4215,-42.0,37.0,0.0,  -3.04217E-03,   1.87358E-03,  -278.933E-03,0.0331498,0.0203888,0.0103585
4220,-43.0,37.0,0.0,  -2.68966E-03,   1.49809E-03,  -244.080E-03,0.0328978,0.0180733,0.00976543
4223,-44.0,37.0,0.0,  -2.24609E-03,   1.14056E-03,  -206.535E-03,0.0316842,0.015556,0.00904876
4224,-45.0,37.0,0.0,  -1.71357E-03,   811.552E-06,  -166.550E-03,0.0287344,0.0126848,0.00825303
4229,-46.0,37.0,0.0,  -1.11445E-03,   523.322E-06,  -124.825E-03,0.0226798,0.00914714,0.00742767
4230,-47.0,37.0,0.0,  -508.355E-06,   289.103E-06,  -82.8621E-03,0.0110707,0.00431849,0.00658429
4235,-48.0,37.0,0.0,  -13.3090E-06,   121.269E-06,  -43.6026E-03,-0.0105088,-0.0030205,0.00555153
4238,-49.0,37.0,0.0,   192.952E-06,   26.8404E-06,  -12.5821E-03,-0.0499945,-0.0151841,0.00368853
4239,-50.0,37.0,0.0,   1.06101E-39,  -305.926E-42,           -0.,-0.0754859,-0.0226541,0.00115652
4244,50.0,36.0,0.0,  -1.16504E-39,  -333.349E-42,           -0.,-0.0778216,-0.0233547,-0.00124072
4245,49.0,36.0,0.0,  -214.330E-06,   31.1375E-06,  -13.1823E-03,-0.0506652,-0.0153649,-0.00362681
4250,48.0,36.0,0.0,   6.06375E-06,   127.554E-06,  -45.5560E-03,-0.00904372,-0.00257611,-0.00533028
4253,47.0,36.0,0.0,   534.504E-06,   294.543E-06,  -86.3584E-03,0.0130493,0.00484678,-0.0062552
4254,46.0,36.0,0.0,   1.18040E-03,   525.216E-06,  -129.908E-03,0.0246294,0.00954566,-0.00702876
4259,45.0,36.0,0.0,   1.82076E-03,   808.144E-06,  -173.255E-03,0.0305404,0.0128859,-0.00781207
4260,44.0,36.0,0.0,   2.39419E-03,   1.13143E-03,  -214.918E-03,0.0333779,0.0155575,-0.00858982
4265,43.0,36.0,0.0,   2.87740E-03,   1.48416E-03,  -254.208E-03,0.0345412,0.0179012,-0.00931092
4268,42.0,36.0,0.0,   3.26734E-03,   1.85684E-03,  -290.869E-03,0.0347948,0.020079,-0.00992868
4269,41.0,36.0,0.0,   3.57064E-03,   2.24147E-03,  -324.876E-03,0.034564,0.0221644,-0.0104169
4274,40.0,36.0,0.0,   3.79771E-03,   2.63147E-03,  -356.328E-03,0.0340902,0.0241882,-0.0107667
4275,39.0,36.0,0.0,   3.95982E-03,   3.02159E-03,  -385.382E-03,0.0335123,0.0261615,-0.0109832
4280,38.0,36.0,0.0,   4.06758E-03,   3.40772E-03,  -412.222E-03,0.03291,0.028087,-0.0110791
4283,37.0,36.0,0.0,   4.13043E-03,   3.78676E-03,  -437.035E-03,0.0323283,0.029964,-0.0110711
4284,36.0,36.0,0.0,   4.15641E-03,   4.15641E-03,  -459.999E-03,0.0317911,0.0317911,-0.0109769
4289,35.0,36.0,0.0,   4.15226E-03,   4.51500E-03,  -481.283E-03,0.0313093,0.0335666,-0.010813
4290,34.0,36.0,0.0,   4.12351E-03,   4.86138E-03,  -501.038E-03,0.0308863,0.0352895,-0.0105946
4295,33.0,36.0,0.0,   4.07472E-03,   5.19478E-03,  -519.399E-03,0.0305208,0.0369589,-0.0103342
4298,32.0,36.0,0.0,   4.00957E-03,   5.51473E-03,  -536.489E-03,0.0302092,0.0385741,-0.0100426
4299,31.0,36.0,0.0,   3.93107E-03,   5.82098E-03,  -552.413E-03,0.0299464,0.040135,-0.00972831
4304,30.0,36.0,0.0,   3.84167E-03,   6.11344E-03,  -567.267E-03,0.0297272,0.0416413,-0.00939806
4305,29.0,36.0,0.0,   3.74337E-03,   6.39215E-03,  -581.134E-03,0.0295462,0.0430933,-0.00905723
4310,28.0,36.0,0.0,   3.63780E-03,   6.65726E-03,  -594.088E-03,0.0293984,0.044491,-0.00870993
4313,27.0,36.0,0.0,   3.52629E-03,   6.90898E-03,  -606.195E-03,0.0292792,0.0458346,-0.00835931
4314,26.0,36.0,0.0,   3.40997E-03,   7.14756E-03,  -617.513E-03,0.0291845,0.0471244,-0.00800776
4319,25.0,36.0,0.0,   3.28972E-03,   7.37332E-03,  -628.095E-03,0.0291107,0.0483606,-0.00765705
4320,24.0,36.0,0.0,   3.16632E-03,   7.58657E-03,  -637.987E-03,0.0290545,0.0495437,-0.00730847
4325,23.0,36.0,0.0,   3.04038E-03,   7.78767E-03,  -647.231E-03,0.0290131,0.0506739,-0.00696296
4328,22.0,36.0,0.0,   2.91242E-03,   7.97698E-03,  -655.866E-03,0.0289842,0.0517517,-0.00662115
4329,21.0,36.0,0.0,   2.78288E-03,   8.15486E-03,  -663.925E-03,0.0289656,0.0527774,-0.00628345
4334,20.0,36.0,0.0,   2.65211E-03,   8.32168E-03,  -671.440E-03,0.0289555,0.0537515,-0.00595011
4335,19.0,36.0,0.0,   2.52042E-03,   8.47779E-03,  -678.439E-03,0.0289523,0.0546743,-0.00562124
4340,18.0,36.0,0.0,   2.38804E-03,   8.62356E-03,  -684.948E-03,0.0289547,0.0555463,-0.00529684
4343,17.0,36.0,0.0,   2.25518E-03,   8.75933E-03,  -690.990E-03,0.0289615,0.0563679,-0.00497685
4344,16.0,36.0,0.0,   2.12201E-03,   8.88544E-03,  -696.585E-03,0.0289717,0.0571396,-0.00466113
4349,15.0,36.0,0.0,   1.98866E-03,   9.00220E-03,  -701.755E-03,0.0289845,0.0578619,-0.00434951
4350,14.0,36.0,0.0,   1.85523E-03,   9.10993E-03,  -706.515E-03,0.028999,0.0585351,-0.00404178
4355,13.0,36.0,0.0,   1.72181E-03,   9.20891E-03,  -710.883E-03,0.0290147,0.0591596,-0.00373772
4358,12.0,36.0,0.0,   1.58847E-03,   9.29943E-03,  -714.873E-03,0.0290311,0.059736,-0.00343708
4359,11.0,36.0,0.0,   1.45524E-03,   9.38174E-03,  -718.497E-03,0.0290475,0.0602646,-0.0031396
4364,10.0,36.0,0.0,   1.32217E-03,   9.45607E-03,  -721.769E-03,0.0290636,0.0607458,-0.00284503
4365,9.0,36.0,0.0,   1.18926E-03,   9.52265E-03,  -724.698E-03,0.0290792,0.0611799,-0.00255308
4370,8.0,36.0,0.0,   1.05654E-03,   9.58168E-03,  -727.294E-03,0.0290937,0.0615674,-0.0022635
4373,7.0,36.0,0.0,   924.003E-06,   9.63334E-03,  -729.566E-03,0.0291071,0.0619084,-0.00197602
4374,6.0,36.0,0.0,   791.637E-06,   9.67779E-03,  -731.520E-03,0.0291192,0.0622034,-0.00169036
4379,5.0,36.0,0.0,   659.431E-06,   9.71516E-03,  -733.163E-03,0.0291296,0.0624526,-0.00140626
4380,4.0,36.0,0.0,   527.365E-06,   9.74557E-03,  -734.501E-03,0.0291383,0.0626562,-0.00112346
4385,3.0,36.0,0.0,   395.417E-06,   9.76913E-03,  -735.537E-03,0.0291452,0.0628143,-0.000841694
4388,2.0,36.0,0.0,   263.559E-06,   9.78590E-03,  -736.274E-03,0.0291502,0.0629271,-0.0005607
4389,1.0,36.0,0.0,   131.764E-06,   9.79594E-03,  -736.716E-03,0.0291532,0.0629948,-0.000280221
4394,0.0,36.0,0.0,  -836.847E-18,   9.79929E-03,  -736.863E-03,0.0291542,0.0630173,3.63798e-12
4395,-1.0,36.0,0.0,  -131.764E-06,   9.79594E-03,  -736.716E-03,0.0291532,0.0629948,0.000280221
4400,-2.0,36.0,0.0,  -263.559E-06,   9.78590E-03,  -736.274E-03,0.0291502,0.0629271,0.0005607
4403,-3.0,36.0,0.0,  -395.417E-06,   9.76913E-03,  -735.537E-03,0.0291452,0.0628143,0.000841694
4404,-4.0,36.0,0.0,  -527.365E-06,   9.74557E-03,  -734.501E-03,0.0291383,0.0626562,0.00112346
4409,-5.0,36.0,0.0,  -659.431E-06,   9.71516E-03,  -733.163E-03,0.0291296,0.0624526,0.00140626
4410,-6.0,36.0,0.0,  -791.637E-06,   9.67779E-03,  -731.520E-03,0.0291192,0.0622034,0.00169036
4415,-7.0,36.0,0.0,  -924.003E-06,   9.63334E-03,  -729.566E-03,0.0291071,0.0619084,0.00197602
4418,-8.0,36.0,0.0,  -1.05654E-03,   9.58168E-03,  -727.294E-03,0.0290937,0.0615674,0.0022635
4419,-9.0,36.0,0.0,  -1.18926E-03,   9.52265E-03,  -724.698E-03,0.0290792,0.0611799,0.00255308
4424,-10.0,36.0,0.0,  -1.32217E-03,   9.45607E-03,  -721.769E-03,0.0290636,0.0607458,0.00284503
4425,-11.0,36.0,0.0,  -1.45524E-03,   9.38174E-03,  -718.497E-03,0.0290475,0.0602646,0.0031396
4430,-12.0,36.0,0.0,  -1.58847E-03,   9.29943E-03,  -714.873E-03,0.0290311,0.059736,0.00343708
4433,-13.0,36.0,0.0,  -1.72181E-03,   9.20891E-03,  -710.883E-03,0.0290147,0.0591596,0.00373772
4434,-14.0,36.0,0.0,  -1.85523E-03,   9.10993E-03,  -706.515E-03,0.028999,0.0585351,0.00404178
4439,-15.0,36.0,0.0,  -1.98866E-03,   9.00220E-03,  -701.755E-03,0.0289845,0.0578619,0.00434951
4440,-16.0,36.0,0.0,  -2.12201E-03,   8.88544E-03,  -696.585E-03,0.0289717,0.0571396,0.00466113
4445,-17.0,36.0,0.0,  -2.25518E-03,   8.75933E-03,  -690.990E-03,0.0289615,0.0563679,0.00497685
4448,-18.0,36.0,0.0,  -2.38804E-03,   8.62356E-03,  -684.948E-03,0.0289547,0.0555463,0.00529684
4449,-19.0,36.0,0.0,  -2.52042E-03,   8.47779E-03,  -678.439E-03,0.0289523,0.0546743,0.00562124
4454,-20.0,36.0,0.0,  -2.65211E-03,   8.32168E-03,  -671.440E-03,0.0289555,0.0537515,0.00595011
4455,-21.0,36.0,0.0,  -2.78288E-03,   8.15486E-03,  -663.925E-03,0.0289656,0.0527774,0.00628345
4460,-22.0,36.0,0.0,  -2.91242E-03,   7.97698E-03,  -655.866E-03,0.0289842,0.0517517,0.00662115
4463,-23.0,36.0,0.0,  -3.04038E-03,   7.78767E-03,  -647.231E-03,0.0290131,0.0506739,0.00696296
4464,-24.0,36.0,0.0,  -3.16632E-03,   7.58657E-03,  -637.987E-03,0.0290545,0.0495437,0.00730847
4469,-25.0,36.0,0.0,  -3.28972E-03,   7.37332E-03,  -628.095E-03,0.0291107,0.0483606,0.00765705
4470,-26.0,36.0,0.0,  -3.40997E-03,   7.14756E-03,  -617.513E-03,0.0291845,0.0471243,0.00800776
4475,-27.0,36.0,0.0,  -3.52629E-03,   6.90898E-03,  -606.195E-03,0.0292792,0.0458346,0.00835931
4478,-28.0,36.0,0.0,  -3.63780E-03,   6.65726E-03,  -594.088E-03,0.0293984,0.044491,0.00870993
4479,-29.0,36.0,0.0,  -3.74337E-03,   6.39215E-03,  -581.134E-03,0.0295462,0.0430933,0.00905723
4484,-30.0,36.0,0.0,  -3.84167E-03,   6.11344E-03,  -567.267E-03,0.0297272,0.0416413,0.00939806
4485,-31.0,36.0,0.0,  -3.93107E-03,   5.82098E-03,  -552.413E-03,0.0299464,0.040135,0.00972831
4490,-32.0,36.0,0.0,  -4.00957E-03,   5.51473E-03,  -536.489E-03,0.0302092,0.0385741,0.0100426
4493,-33.0,36.0,0.0,  -4.07472E-03,   5.19478E-03,  -519.399E-03,0.0305208,0.0369589,0.0103342
4494,-34.0,36.0,0.0,  -4.12351E-03,   4.86138E-03,  -501.038E-03,0.0308863,0.0352895,0.0105946
4499,-35.0,36.0,0.0,  -4.15226E-03,   4.51500E-03,  -481.283E-03,0.0313093,0.0335666,0.010813
4500,-36.0,36.0,0.0,  -4.15641E-03,   4.15641E-03,  -459.999E-03,0.0317911,0.0317911,0.0109769
4505,-37.0,36.0,0.0,  -4.13043E-03,   3.78676E-03,  -437.035E-03,0.0323283,0.029964,0.0110711
4508,-38.0,36.0,0.0,  -4.06758E-03,   3.40772E-03,  -412.222E-03,0.03291,0.028087,0.0110791
4509,-39.0,36.0,0.0,  -3.95982E-03,   3.02159E-03,  -385.382E-03,0.0335123,0.0261615,0.0109832
4514,-40.0,36.0,0.0,  -3.79771E-03,   2.63147E-03,  -356.328E-03,0.0340902,0.0241882,0.0107667
4515,-41.0,36.0,0.0,  -3.57064E-03,   2.24147E-03,  -324.876E-03,0.034564,0.0221644,0.0104169
4520,-42.0,36.0,0.0,  -3.26734E-03,   1.85684E-03,  -290.869E-03,0.0347948,0.020079,0.00992868
4523,-43.0,36.0,0.0,  -2.87740E-03,   1.48416E-03,  -254.208E-03,0.0345412,0.0179012,0.00931092
4524,-44.0,36.0,0.0,  -2.39419E-03,   1.13143E-03,  -214.918E-03,0.0333779,0.0155575,0.00858982
4529,-45.0,36.0,0.0,  -1.82076E-03,   808.144E-06,  -173.255E-03,0.0305404,0.0128859,0.00781207
4530,-46.0,36.0,0.0,  -1.18040E-03,   525.216E-06,  -129.908E-03,0.0246294,0.00954566,0.00702876
4535,-47.0,36.0,0.0,  -534.504E-06,   294.543E-06,  -86.3584E-03,0.0130493,0.00484678,0.0062552
4538,-48.0,36.0,0.0,  -6.06375E-06,   127.554E-06,  -45.5560E-03,-0.00904372,-0.00257611,0.00533028
4539,-49.0,36.0,0.0,   214.330E-06,   31.1375E-06,  -13.1823E-03,-0.0506652,-0.0153649,0.00362681
4544,-50.0,36.0,0.0,   1.16504E-39,  -333.349E-42,           -0.,-0.0778216,-0.0233547,0.00124072
4545,50.0,35.0,0.0,  -1.26519E-39,  -360.200E-42,           -0.,-0.0799967,-0.0240069,-0.00131516
4550,49.0,35.0,0.0,  -234.580E-06,   34.8813E-06,  -13.7494E-03,-0.0512132,-0.0155007,-0.00356903
4553,48.0,35.0,0.0,   17.4069E-09,   132.625E-06,  -47.3873E-03,-0.00752792,-0.00209742,-0.00513358
4554,47.0,35.0,0.0,   560.152E-06,   298.019E-06,  -89.6075E-03,0.0150275,0.00541163,-0.00596593
4559,46.0,35.0,0.0,   1.24297E-03,   524.324E-06,  -134.598E-03,0.0265539,0.00999684,-0.00667615
4560,45.0,35.0,0.0,   1.92124E-03,   800.965E-06,  -179.411E-03,0.0323104,0.0131617,-0.00741523
4565,44.0,35.0,0.0,   2.53245E-03,   1.11723E-03,  -222.590E-03,0.0350286,0.015654,-0.00816572
4568,43.0,35.0,0.0,   3.05268E-03,   1.46342E-03,  -263.464E-03,0.036135,0.017838,-0.00887702
4569,42.0,35.0,0.0,   3.47820E-03,   1.83103E-03,  -301.777E-03,0.0363832,0.0198841,-0.00950253
4574,41.0,35.0,0.0,   3.81482E-03,   2.21277E-03,  -337.493E-03,0.0361794,0.0218671,-0.0100144
4575,40.0,35.0,0.0,   4.07225E-03,   2.60248E-03,  -370.690E-03,0.0357471,0.0238156,-0.010401
4580,39.0,35.0,0.0,   4.26118E-03,   2.99504E-03,  -401.504E-03,0.0352122,0.0257369,-0.0106634
4583,38.0,35.0,0.0,   4.39194E-03,   3.38629E-03,  -430.096E-03,0.0346464,0.0276296,-0.0108104
4584,37.0,35.0,0.0,   4.47384E-03,   3.77290E-03,  -456.634E-03,0.0340904,0.0294888,-0.0108553
4589,36.0,35.0,0.0,   4.51500E-03,   4.15226E-03,  -481.283E-03,0.0335666,0.0313093,-0.010813
4590,35.0,35.0,0.0,   4.52235E-03,   4.52235E-03,  -504.197E-03,0.0330865,0.0330865,-0.0106981
4595,34.0,35.0,0.0,   4.50170E-03,   4.88167E-03,  -525.518E-03,0.0326548,0.0348168,-0.0105243
4598,33.0,35.0,0.0,   4.45790E-03,   5.22910E-03,  -545.379E-03,0.0322719,0.0364974,-0.0103037
4599,32.0,35.0,0.0,   4.39496E-03,   5.56388E-03,  -563.897E-03,0.0319361,0.0381261,-0.0100464
4604,31.0,35.0,0.0,   4.31623E-03,   5.88547E-03,  -581.176E-03,0.0316442,0.0397018,-0.00976128
4605,30.0,35.0,0.0,   4.22445E-03,   6.19356E-03,  -597.313E-03,0.0313924,0.0412235,-0.00945531
4610,29.0,35.0,0.0,   4.12190E-03,   6.48800E-03,  -612.392E-03,0.0311767,0.0426908,-0.00913425
4613,28.0,35.0,0.0,   4.01045E-03,   6.76876E-03,  -626.489E-03,0.030993,0.0441035,-0.0088027
4614,27.0,35.0,0.0,   3.89168E-03,   7.03593E-03,  -639.672E-03,0.0308376,0.0454615,-0.00846428
4619,26.0,35.0,0.0,   3.76688E-03,   7.28966E-03,  -652.001E-03,0.030707,0.0467649,-0.00812184
4620,25.0,35.0,0.0,   3.63714E-03,   7.53016E-03,  -663.533E-03,0.0305979,0.048014,-0.00777756
4625,24.0,35.0,0.0,   3.50336E-03,   7.75769E-03,  -674.316E-03,0.0305075,0.0492091,-0.00743315
4628,23.0,35.0,0.0,   3.36630E-03,   7.97256E-03,  -684.396E-03,0.0304331,0.0503505,-0.00708986
4629,22.0,35.0,0.0,   3.22658E-03,   8.17508E-03,  -693.812E-03,0.0303726,0.0514386,-0.00674864
4634,21.0,35.0,0.0,   3.08475E-03,   8.36558E-03,  -702.602E-03,0.0303239,0.0524739,-0.00641015
4635,20.0,35.0,0.0,   2.94123E-03,   8.54442E-03,  -710.799E-03,0.0302853,0.0534567,-0.00607487
4640,19.0,35.0,0.0,   2.79640E-03,   8.71193E-03,  -718.434E-03,0.0302552,0.0543875,-0.00574309
4643,18.0,35.0,0.0,   2.65056E-03,   8.86847E-03,  -725.534E-03,0.0302322,0.0552669,-0.00541498
4644,17.0,35.0,0.0,   2.50398E-03,   9.01438E-03,  -732.124E-03,0.0302152,0.0560952,-0.0050906
4649,16.0,35.0,0.0,   2.35686E-03,   9.14999E-03,  -738.228E-03,0.0302031,0.056873,-0.00476994
4650,15.0,35.0,0.0,   2.20937E-03,   9.27563E-03,  -743.867E-03,0.0301952,0.0576007,-0.00445292
4655,14.0,35.0,0.0,   2.06165E-03,   9.39161E-03,  -749.060E-03,0.0301905,0.0582789,-0.00413941
4658,13.0,35.0,0.0,   1.91381E-03,   9.49823E-03,  -753.825E-03,0.0301884,0.0589079,-0.00382925
4659,12.0,35.0,0.0,   1.76595E-03,   9.59577E-03,  -758.177E-03,0.0301884,0.0594883,-0.00352226
4664,11.0,35.0,0.0,   1.61812E-03,   9.68450E-03,  -762.130E-03,0.03019,0.0600204,-0.00321822
4665,10.0,35.0,0.0,   1.47038E-03,   9.76466E-03,  -765.699E-03,0.0301926,0.0605048,-0.00291691
4670,9.0,35.0,0.0,   1.32276E-03,   9.83649E-03,  -768.894E-03,0.030196,0.0609417,-0.00261809
4673,8.0,35.0,0.0,   1.17528E-03,   9.90018E-03,  -771.725E-03,0.0301997,0.0613316,-0.00232152
4674,7.0,35.0,0.0,   1.02795E-03,   9.95594E-03,  -774.203E-03,0.0302036,0.0616748,-0.00202695
4679,6.0,35.0,0.0,   880.771E-06,   10.0039E-03,  -776.334E-03,0.0302075,0.0619716,-0.00173413
4680,5.0,35.0,0.0,   733.731E-06,   10.0443E-03,  -778.126E-03,0.030211,0.0622222,-0.00144282
4685,4.0,35.0,0.0,   586.819E-06,   10.0771E-03,  -779.585E-03,0.0302141,0.062427,-0.00115276
4688,3.0,35.0,0.0,   440.015E-06,   10.1026E-03,  -780.714E-03,0.0302166,0.062586,-0.000863693
4689,2.0,35.0,0.0,   293.295E-06,   10.1207E-03,  -781.519E-03,0.0302185,0.0626995,-0.000575379
4694,1.0,35.0,0.0,   146.633E-06,   10.1315E-03,  -782.000E-03,0.0302197,0.0627676,-0.000287565
4695,0.0,35.0,0.0,  -3.82465E-15,   10.1351E-03,  -782.161E-03,0.0302201,0.0627903,0.0
4700,-1.0,35.0,0.0,  -146.633E-06,   10.1315E-03,  -782.000E-03,0.0302197,0.0627676,0.000287565
4703,-2.0,35.0,0.0,  -293.295E-06,   10.1207E-03,  -781.519E-03,0.0302185,0.0626995,0.000575379
4704,-3.0,35.0,0.0,  -440.015E-06,   10.1026E-03,  -780.714E-03,0.0302166,0.062586,0.000863693
4709,-4.0,35.0,0.0,  -586.819E-06,   10.0771E-03,  -779.585E-03,0.0302141,0.062427,0.00115276
4710,-5.0,35.0,0.0,  -733.731E-06,   10.0443E-03,  -778.126E-03,0.030211,0.0622222,0.00144282
4715,-6.0,35.0,0.0,  -880.771E-06,   10.0039E-03,  -776.334E-03,0.0302075,0.0619716,0.00173413
4718,-7.0,35.0,0.0,  -1.02795E-03,   9.95594E-03,  -774.203E-03,0.0302036,0.0616748,0.00202695
4719,-8.0,35.0,0.0,  -1.17528E-03,   9.90018E-03,  -771.725E-03,0.0301997,0.0613316,0.00232152
4724,-9.0,35.0,0.0,  -1.32276E-03,   9.83649E-03,  -768.894E-03,0.030196,0.0609417,0.00261809
4725,-10.0,35.0,0.0,  -1.47038E-03,   9.76466E-03,  -765.699E-03,0.0301926,0.0605048,0.00291691
4730,-11.0,35.0,0.0,  -1.61812E-03,   9.68450E-03,  -762.130E-03,0.03019,0.0600204,0.00321822
4733,-12.0,35.0,0.0,  -1.76595E-03,   9.59577E-03,  -758.177E-03,0.0301884,0.0594883,0.00352226
4734,-13.0,35.0,0.0,  -1.91381E-03,   9.49823E-03,  -753.825E-03,0.0301884,0.0589079,0.00382925
4739,-14.0,35.0,0.0,  -2.06165E-03,   9.39161E-03,  -749.060E-03,0.0301905,0.0582789,0.00413941
4740,-15.0,35.0,0.0,  -2.20937E-03,   9.27563E-03,  -743.867E-03,0.0301952,0.0576007,0.00445292
4745,-16.0,35.0,0.0,  -2.35686E-03,   9.14999E-03,  -738.228E-03,0.0302031,0.056873,0.00476994
4748,-17.0,35.0,0.0,  -2.50398E-03,   9.01438E-03,  -732.124E-03,0.0302152,0.0560952,0.0050906
4749,-18.0,35.0,0.0,  -2.65056E-03,   8.86847E-03,  -725.534E-03,0.0302322,0.0552669,0.00541498
4754,-19.0,35.0,0.0,  -2.79640E-03,   8.71193E-03,  -718.434E-03,0.0302552,0.0543875,0.00574309
4755,-20.0,35.0,0.0,  -2.94123E-03,   8.54442E-03,  -710.799E-03,0.0302853,0.0534567,0.00607487
4760,-21.0,35.0,0.0,  -3.08475E-03,   8.36558E-03,  -702.602E-03,0.0303239,0.0524739,0.00641015
4763,-22.0,35.0,0.0,  -3.22658E-03,   8.17508E-03,  -693.812E-03,0.0303726,0.0514386,0.00674864
4764,-23.0,35.0,0.0,  -3.36630E-03,   7.97256E-03,  -684.396E-03,0.0304331,0.0503505,0.00708986
4769,-24.0,35.0,0.0,  -3.50336E-03,   7.75769E-03,  -674.316E-03,0.0305075,0.0492091,0.00743315
4770,-25.0,35.0,0.0,  -3.63714E-03,   7.53016E-03,  -663.533E-03,0.0305979,0.048014,0.00777756
4775,-26.0,35.0,0.0,  -3.76688E-03,   7.28966E-03,  -652.001E-03,0.030707,0.0467649,0.00812184
4776,-27.0,35.0,0.0,  -3.89168E-03,   7.03593E-03,  -639.672E-03,0.0308376,0.0454615,0.00846428
4781,-28.0,35.0,0.0,  -4.01045E-03,   6.76876E-03,  -626.489E-03,0.030993,0.0441035,0.0088027
4782,-29.0,35.0,0.0,  -4.12190E-03,   6.48800E-03,  -612.392E-03,0.0311767,0.0426908,0.00913425
4787,-30.0,35.0,0.0,  -4.22445E-03,   6.19356E-03,  -597.313E-03,0.0313924,0.0412235,0.00945531
4790,-31.0,35.0,0.0,  -4.31623E-03,   5.88547E-03,  -581.176E-03,0.0316442,0.0397018,0.00976128
4791,-32.0,35.0,0.0,  -4.39496E-03,   5.56388E-03,  -563.897E-03,0.0319361,0.0381261,0.0100464
4796,-33.0,35.0,0.0,  -4.45790E-03,   5.22910E-03,  -545.379E-03,0.0322719,0.0364974,0.0103037
4797,-34.0,35.0,0.0,  -4.50170E-03,   4.88167E-03,  -525.518E-03,0.0326548,0.0348168,0.0105243
4802,-35.0,35.0,0.0,  -4.52235E-03,   4.52235E-03,  -504.197E-03,0.0330865,0.0330865,0.0106981
4805,-36.0,35.0,0.0,  -4.51500E-03,   4.15226E-03,  -481.283E-03,0.0335666,0.0313093,0.010813
4806,-37.0,35.0,0.0,  -4.47384E-03,   3.77290E-03,  -456.634E-03,0.0340904,0.0294888,0.0108553
4811,-38.0,35.0,0.0,  -4.39194E-03,   3.38629E-03,  -430.096E-03,0.0346464,0.0276296,0.0108104
4812,-39.0,35.0,0.0,  -4.26118E-03,   2.99504E-03,  -401.504E-03,0.0352122,0.0257369,0.0106634
4817,-40.0,35.0,0.0,  -4.07225E-03,   2.60248E-03,  -370.690E-03,0.0357471,0.0238156,0.010401
4820,-41.0,35.0,0.0,  -3.81482E-03,   2.21277E-03,  -337.493E-03,0.0361794,0.0218671,0.0100144
4821,-42.0,35.0,0.0,  -3.47820E-03,   1.83103E-03,  -301.777E-03,0.0363832,0.0198841,0.00950253
4826,-43.0,35.0,0.0,  -3.05268E-03,   1.46342E-03,  -263.464E-03,0.036135,0.017838,0.00887702
4827,-44.0,35.0,0.0,  -2.53245E-03,   1.11723E-03,  -222.590E-03,0.0350286,0.015654,0.00816572
4832,-45.0,35.0,0.0,  -1.92124E-03,   800.965E-06,  -179.411E-03,0.0323104,0.0131617,0.00741523
4835,-46.0,35.0,0.0,  -1.24297E-03,   524.324E-06,  -134.598E-03,0.0265539,0.00999684,0.00667615
4836,-47.0,35.0,0.0,  -560.152E-06,   298.019E-06,  -89.6075E-03,0.0150275,0.00541163,0.00596593
4841,-48.0,35.0,0.0,  -17.4069E-09,   132.625E-06,  -47.3873E-03,-0.00752792,-0.00209742,0.00513358
4842,-49.0,35.0,0.0,   234.580E-06,   34.8813E-06,  -13.7494E-03,-0.0512132,-0.0155007,0.00356903
4847,-50.0,35.0,0.0,   1.26519E-39,  -360.200E-42,           -0.,-0.0799967,-0.0240069,0.00131516
4850,50.0,34.0,0.0,  -1.36160E-39,  -386.496E-42,           -0.,-0.082034,-0.0246177,-0.00137727
4851,49.0,34.0,0.0,  -253.738E-06,   38.0392E-06,  -14.2866E-03,-0.0516654,-0.0156042,-0.00350973
4856,48.0,34.0,0.0,  -4.88543E-06,   136.502E-06,  -49.1101E-03,-0.00598883,-0.00160138,-0.004952
4857,47.0,34.0,0.0,   585.435E-06,   299.697E-06,  -92.6406E-03,0.0169858,0.0059939,-0.00570467
4862,46.0,34.0,0.0,   1.30265E-03,   521.038E-06,  -138.950E-03,0.0284431,0.0104796,-0.0063583
4865,45.0,34.0,0.0,   2.01595E-03,   790.723E-06,  -185.096E-03,0.0340421,0.0134899,-0.00705375
4866,44.0,34.0,0.0,   2.66209E-03,   1.09910E-03,  -229.653E-03,0.0366402,0.0158232,-0.0077722
4871,43.0,34.0,0.0,   3.21688E-03,   1.43752E-03,  -271.972E-03,0.0376868,0.0178631,-0.00846468
4872,42.0,34.0,0.0,   3.67605E-03,   1.79838E-03,  -311.798E-03,0.037925,0.0197865,-0.00908611
4877,41.0,34.0,0.0,   4.04472E-03,   2.17509E-03,  -349.089E-03,0.0377426,0.0216696,-0.00960852
4880,40.0,34.0,0.0,   4.33187E-03,   2.56192E-03,  -383.905E-03,0.0373473,0.0235398,-0.0100185
4881,39.0,34.0,0.0,   4.54763E-03,   2.95397E-03,  -416.363E-03,0.036853,0.0254023,-0.0103144
4886,38.0,34.0,0.0,   4.70190E-03,   3.34711E-03,  -446.606E-03,0.0363235,0.0272526,-0.010502
4887,37.0,34.0,0.0,   4.80380E-03,   3.73790E-03,  -474.781E-03,0.0357955,0.0290832,-0.0105913
4892,36.0,34.0,0.0,   4.86138E-03,   4.12351E-03,  -501.038E-03,0.0352895,0.0308863,-0.0105946
4895,35.0,34.0,0.0,   4.88167E-03,   4.50170E-03,  -525.518E-03,0.0348168,0.0326548,-0.0105243
4896,34.0,34.0,0.0,   4.87064E-03,   4.87064E-03,  -548.357E-03,0.0343829,0.0343829,-0.0103927
4901,33.0,34.0,0.0,   4.83340E-03,   5.22896E-03,  -569.677E-03,0.0339896,0.0360661,-0.0102108
4902,32.0,34.0,0.0,   4.77423E-03,   5.57559E-03,  -589.592E-03,0.0336366,0.0377011,-0.00998821
4907,31.0,34.0,0.0,   4.69673E-03,   5.90977E-03,  -608.205E-03,0.0333222,0.0392853,-0.00973351
4910,30.0,34.0,0.0,   4.60393E-03,   6.23094E-03,  -625.609E-03,0.033044,0.0408172,-0.00945376
4911,29.0,34.0,0.0,   4.49837E-03,   6.53876E-03,  -641.890E-03,0.0327991,0.0422955,-0.0091549
4916,28.0,34.0,0.0,   4.38217E-03,   6.83305E-03,  -657.124E-03,0.0325845,0.0437196,-0.0088418
4917,27.0,34.0,0.0,   4.25712E-03,   7.11373E-03,  -671.381E-03,0.0323972,0.0450891,-0.00851844
4922,26.0,34.0,0.0,   4.12471E-03,   7.38084E-03,  -684.724E-03,0.0322344,0.0464039,-0.00818802
4925,25.0,34.0,0.0,   3.98622E-03,   7.63449E-03,  -697.209E-03,0.0320933,0.047664,-0.0078531
4926,24.0,34.0,0.0,   3.84269E-03,   7.87487E-03,  -708.888E-03,0.0319713,0.0488696,-0.0075157
4931,23.0,34.0,0.0,   3.69502E-03,   8.10221E-03,  -719.809E-03,0.0318663,0.050021,-0.0071774
4932,22.0,34.0,0.0,   3.54396E-03,   8.31677E-03,  -730.014E-03,0.0317761,0.0511185,-0.00683942
4937,21.0,34.0,0.0,   3.39015E-03,   8.51885E-03,  -739.542E-03,0.0316989,0.0521626,-0.00650268
4940,20.0,34.0,0.0,   3.23413E-03,   8.70876E-03,  -748.430E-03,0.0316331,0.0531536,-0.00616787
4941,19.0,34.0,0.0,   3.07633E-03,   8.88682E-03,  -756.708E-03,0.0315771,0.054092,-0.00583547
4946,18.0,34.0,0.0,   2.91713E-03,   9.05336E-03,  -764.407E-03,0.0315296,0.0549784,-0.00550581
4947,17.0,34.0,0.0,   2.75686E-03,   9.20872E-03,  -771.555E-03,0.0314895,0.0558131,-0.00517911
4952,16.0,34.0,0.0,   2.59577E-03,   9.35322E-03,  -778.175E-03,0.0314558,0.0565968,-0.00485546
4955,15.0,34.0,0.0,   2.43408E-03,   9.48719E-03,  -784.292E-03,0.0314275,0.0573299,-0.0045349
4956,14.0,34.0,0.0,   2.27197E-03,   9.61093E-03,  -789.924E-03,0.031404,0.058013,-0.00421739
4961,13.0,34.0,0.0,   2.10957E-03,   9.72474E-03,  -795.092E-03,0.0313845,0.0586464,-0.00390284
4962,12.0,34.0,0.0,   1.94701E-03,   9.82892E-03,  -799.813E-03,0.0313684,0.0592308,-0.00359112
4967,11.0,34.0,0.0,   1.78438E-03,   9.92372E-03,  -804.102E-03,0.0313552,0.0597665,-0.00328208
4970,10.0,34.0,0.0,   1.62174E-03,   10.0094E-03,  -807.973E-03,0.0313444,0.0602541,-0.00297554
4971,9.0,34.0,0.0,   1.45914E-03,   10.0862E-03,  -811.438E-03,0.0313357,0.0606938,-0.00267129
4976,8.0,34.0,0.0,   1.29663E-03,   10.1543E-03,  -814.510E-03,0.0313288,0.0610861,-0.00236914
4977,7.0,34.0,0.0,   1.13422E-03,   10.2140E-03,  -817.197E-03,0.0313232,0.0614314,-0.00206887
4982,6.0,34.0,0.0,   971.914E-06,   10.2653E-03,  -819.509E-03,0.0313189,0.06173,-0.00177024
4985,5.0,34.0,0.0,   809.724E-06,   10.3085E-03,  -821.453E-03,0.0313156,0.0619822,-0.00147302
4986,4.0,34.0,0.0,   647.637E-06,   10.3437E-03,  -823.035E-03,0.031313,0.0621881,-0.001177
4991,3.0,34.0,0.0,   485.642E-06,   10.3709E-03,  -824.261E-03,0.0313112,0.0623481,-0.000881916
4992,2.0,34.0,0.0,   323.720E-06,   10.3903E-03,  -825.133E-03,0.03131,0.0624623,-0.000587548
4997,1.0,34.0,0.0,   161.847E-06,   10.4019E-03,  -825.656E-03,0.0313093,0.0625307,-0.000293655
5000,0.0,34.0,0.0,  -3.70033E-15,   10.4058E-03,  -825.830E-03,0.031309,0.0625535,-3.63798e-12
5001,-1.0,34.0,0.0,  -161.847E-06,   10.4019E-03,  -825.656E-03,0.0313093,0.0625307,0.000293655
5006,-2.0,34.0,0.0,  -323.720E-06,   10.3903E-03,  -825.133E-03,0.03131,0.0624623,0.000587548
5007,-3.0,34.0,0.0,  -485.642E-06,   10.3709E-03,  -824.261E-03,0.0313112,0.0623481,0.000881916
5012,-4.0,34.0,0.0,  -647.637E-06,   10.3437E-03,  -823.035E-03,0.031313,0.0621881,0.001177
5015,-5.0,34.0,0.0,  -809.724E-06,   10.3085E-03,  -821.453E-03,0.0313156,0.0619822,0.00147302
5016,-6.0,34.0,0.0,  -971.914E-06,   10.2653E-03,  -819.509E-03,0.0313189,0.06173,0.00177024
5021,-7.0,34.0,0.0,  -1.13422E-03,   10.2140E-03,  -817.197E-03,0.0313232,0.0614314,0.00206887
5022,-8.0,34.0,0.0,  -1.29663E-03,   10.1543E-03,  -814.510E-03,0.0313288,0.0610861,0.00236914
5027,-9.0,34.0,0.0,  -1.45914E-03,   10.0862E-03,  -811.438E-03,0.0313357,0.0606938,0.00267129
5030,-10.0,34.0,0.0,  -1.62174E-03,   10.0094E-03,  -807.973E-03,0.0313444,0.0602541,0.00297554
5031,-11.0,34.0,0.0,  -1.78438E-03,   9.92372E-03,  -804.102E-03,0.0313552,0.0597665,0.00328208
5036,-12.0,34.0,0.0,  -1.94701E-03,   9.82892E-03,  -799.813E-03,0.0313684,0.0592308,0.00359112
5037,-13.0,34.0,0.0,  -2.10957E-03,   9.72474E-03,  -795.092E-03,0.0313845,0.0586464,0.00390284
5042,-14.0,34.0,0.0,  -2.27197E-03,   9.61093E-03,  -789.924E-03,0.031404,0.058013,0.00421739
5045,-15.0,34.0,0.0,  -2.43408E-03,   9.48719E-03,  -784.292E-03,0.0314275,0.0573299,0.0045349
5046,-16.0,34.0,0.0,  -2.59577E-03,   9.35322E-03,  -778.175E-03,0.0314558,0.0565968,0.00485546
5051,-17.0,34.0,0.0,  -2.75686E-03,   9.20872E-03,  -771.555E-03,0.0314895,0.0558131,0.00517911
5052,-18.0,34.0,0.0,  -2.91713E-03,   9.05336E-03,  -764.407E-03,0.0315296,0.0549784,0.00550581
5057,-19.0,34.0,0.0,  -3.07633E-03,   8.88682E-03,  -756.708E-03,0.0315771,0.054092,0.00583547
5060,-20.0,34.0,0.0,  -3.23413E-03,   8.70876E-03,  -748.430E-03,0.0316331,0.0531536,0.00616787
5061,-21.0,34.0,0.0,  -3.39015E-03,   8.51885E-03,  -739.542E-03,0.0316989,0.0521626,0.00650268
5066,-22.0,34.0,0.0,  -3.54396E-03,   8.31677E-03,  -730.014E-03,0.0317761,0.0511185,0.00683942
5067,-23.0,34.0,0.0,  -3.69502E-03,   8.10221E-03,  -719.809E-03,0.0318663,0.050021,0.0071774
5072,-24.0,34.0,0.0,  -3.84269E-03,   7.87487E-03,  -708.888E-03,0.0319713,0.0488696,0.0075157
5075,-25.0,34.0,0.0,  -3.98622E-03,   7.63449E-03,  -697.209E-03,0.0320933,0.047664,0.0078531
5076,-26.0,34.0,0.0,  -4.12471E-03,   7.38084E-03,  -684.724E-03,0.0322344,0.0464039,0.00818802
5081,-27.0,34.0,0.0,  -4.25712E-03,   7.11373E-03,  -671.381E-03,0.0323972,0.0450891,0.00851844
5082,-28.0,34.0,0.0,  -4.38217E-03,   6.83305E-03,  -657.124E-03,0.0325845,0.0437196,0.0088418
5087,-29.0,34.0,0.0,  -4.49837E-03,   6.53876E-03,  -641.890E-03,0.0327991,0.0422955,0.0091549
5090,-30.0,34.0,0.0,  -4.60393E-03,   6.23094E-03,  -625.609E-03,0.033044,0.0408172,0.00945376
5091,-31.0,34.0,0.0,  -4.69673E-03,   5.90977E-03,  -608.205E-03,0.0333222,0.0392853,0.00973351
5096,-32.0,34.0,0.0,  -4.77423E-03,   5.57559E-03,  -589.592E-03,0.0336366,0.0377011,0.00998821
5097,-33.0,34.0,0.0,  -4.83340E-03,   5.22896E-03,  -569.677E-03,0.0339896,0.0360661,0.0102108
5102,-34.0,34.0,0.0,  -4.87064E-03,   4.87064E-03,  -548.357E-03,0.0343829,0.0343829,0.0103927
5105,-35.0,34.0,0.0,  -4.88167E-03,   4.50170E-03,  -525.518E-03,0.0348168,0.0326548,0.0105243
5106,-36.0,34.0,0.0,  -4.86138E-03,   4.12351E-03,  -501.038E-03,0.0352895,0.0308863,0.0105946
5111,-37.0,34.0,0.0,  -4.80380E-03,   3.73790E-03,  -474.781E-03,0.0357955,0.0290832,0.0105913
5112,-38.0,34.0,0.0,  -4.70190E-03,   3.34711E-03,  -446.606E-03,0.0363235,0.0272526,0.010502
5117,-39.0,34.0,0.0,  -4.54763E-03,   2.95397E-03,  -416.363E-03,0.036853,0.0254022,0.0103144
5120,-40.0,34.0,0.0,  -4.33187E-03,   2.56192E-03,  -383.905E-03,0.0373473,0.0235398,0.0100185
5121,-41.0,34.0,0.0,  -4.04472E-03,   2.17509E-03,  -349.089E-03,0.0377426,0.0216696,0.00960852
5126,-42.0,34.0,0.0,  -3.67605E-03,   1.79838E-03,  -311.798E-03,0.037925,0.0197865,0.00908611
5127,-43.0,34.0,0.0,  -3.21688E-03,   1.43752E-03,  -271.972E-03,0.0376868,0.0178631,0.00846468
5132,-44.0,34.0,0.0,  -2.66209E-03,   1.09910E-03,  -229.653E-03,0.0366402,0.0158232,0.0077722
5135,-45.0,34.0,0.0,  -2.01595E-03,   790.723E-06,  -185.096E-03,0.0340421,0.0134899,0.00705375
5136,-46.0,34.0,0.0,  -1.30265E-03,   521.038E-06,  -138.950E-03,0.0284431,0.0104796,0.0063583
5141,-47.0,34.0,0.0,  -585.435E-06,   299.697E-06,  -92.6406E-03,0.0169858,0.0059939,0.00570467
5142,-48.0,34.0,0.0,   4.88543E-06,   136.502E-06,  -49.1101E-03,-0.00598883,-0.00160138,0.004952
5147,-49.0,34.0,0.0,   253.738E-06,   38.0392E-06,  -14.2866E-03,-0.0516654,-0.0156042,0.00350973
5150,-50.0,34.0,0.0,   1.36160E-39,  -386.496E-42,           -0.,-0.082034,-0.0246177,0.00137727
5151,50.0,33.0,0.0,  -1.45441E-39,  -412.241E-42,           -0.,-0.0839488,-0.0251917,-0.00142611
5156,49.0,33.0,0.0,  -271.860E-06,   40.6169E-06,  -14.7962E-03,-0.0520402,-0.0156838,-0.00344595
5157,48.0,33.0,0.0,  -8.75173E-06,   139.247E-06,  -50.7346E-03,-0.00444554,-0.00109974,-0.00477948
5162,47.0,33.0,0.0,   610.373E-06,   299.745E-06,  -95.4818E-03,0.0189107,0.00657975,-0.00546321
5165,46.0,33.0,0.0,   1.35977E-03,   515.681E-06,  -143.003E-03,0.0302892,0.0109778,-0.00606661
5166,45.0,33.0,0.0,   2.10554E-03,   777.957E-06,  -190.370E-03,0.0357324,0.0138517,-0.00672047
5171,44.0,33.0,0.0,   2.78409E-03,   1.07785E-03,  -236.189E-03,0.0382132,0.0160449,-0.00740494
5172,43.0,33.0,0.0,   3.37113E-03,   1.40763E-03,  -279.829E-03,0.0392,0.0179562,-0.00807326
5177,42.0,33.0,0.0,   3.86204E-03,   1.76052E-03,  -321.047E-03,0.039425,0.0197675,-0.00868261
5180,41.0,33.0,0.0,   4.26134E-03,   2.13055E-03,  -359.790E-03,0.0392595,0.0215558,-0.00920582
5181,40.0,33.0,0.0,   4.57734E-03,   2.51244E-03,  -396.108E-03,0.0388965,0.0233479,-0.00962875
5186,39.0,33.0,0.0,   4.81957E-03,   2.90155E-03,  -430.101E-03,0.0384391,0.0251477,-0.00994789
5187,38.0,33.0,0.0,   4.99749E-03,   3.29386E-03,  -461.892E-03,0.0379444,0.0269495,-0.0101665
5192,37.0,33.0,0.0,   5.11991E-03,   3.68589E-03,  -491.614E-03,0.0374448,0.0287437,-0.010292
5195,36.0,33.0,0.0,   5.19478E-03,   4.07472E-03,  -519.399E-03,0.0369589,0.0305208,-0.0103342
5196,35.0,33.0,0.0,   5.22910E-03,   4.45790E-03,  -545.379E-03,0.0364974,0.0322719,-0.0103037
5201,34.0,33.0,0.0,   5.22896E-03,   4.83340E-03,  -569.677E-03,0.0360661,0.0339896,-0.0102108
5202,33.0,33.0,0.0,   5.19961E-03,   5.19961E-03,  -592.409E-03,0.0356679,0.0356679,-0.0100654
5207,32.0,33.0,0.0,   5.14555E-03,   5.55524E-03,  -613.683E-03,0.0353035,0.0373023,-0.00987669
5210,31.0,33.0,0.0,   5.07062E-03,   5.89928E-03,  -633.598E-03,0.0349725,0.0388891,-0.0096525
5211,30.0,33.0,0.0,   4.97809E-03,   6.23098E-03,  -652.247E-03,0.0346735,0.040426,-0.0093998
5216,29.0,33.0,0.0,   4.87072E-03,   6.54982E-03,  -669.712E-03,0.0344046,0.041911,-0.00912454
5217,28.0,33.0,0.0,   4.75087E-03,   6.85543E-03,  -686.071E-03,0.0341639,0.0433428,-0.0088317
5222,27.0,33.0,0.0,   4.62055E-03,   7.14760E-03,  -701.394E-03,0.0339491,0.0447208,-0.00852549
5225,26.0,33.0,0.0,   4.48143E-03,   7.42623E-03,  -715.744E-03,0.0337578,0.0460444,-0.00820936
5226,25.0,33.0,0.0,   4.33497E-03,   7.69135E-03,  -729.181E-03,0.033588,0.0473134,-0.00788615
5231,24.0,33.0,0.0,   4.18238E-03,   7.94302E-03,  -741.756E-03,0.0334374,0.0485279,-0.00755814
5232,23.0,33.0,0.0,   4.02469E-03,   8.18142E-03,  -753.520E-03,0.0333042,0.0496879,-0.0072272
5237,22.0,33.0,0.0,   3.86279E-03,   8.40674E-03,  -764.517E-03,0.0331865,0.0507937,-0.00689479
5240,21.0,33.0,0.0,   3.69741E-03,   8.61922E-03,  -774.788E-03,0.0330827,0.0518456,-0.00656206
5241,20.0,33.0,0.0,   3.52920E-03,   8.81915E-03,  -784.369E-03,0.0329912,0.0528441,-0.0062299
5246,19.0,33.0,0.0,   3.35869E-03,   9.00680E-03,  -793.297E-03,0.0329106,0.0537896,-0.00589899
5247,18.0,33.0,0.0,   3.18633E-03,   9.18248E-03,  -801.601E-03,0.0328397,0.0546825,-0.00556981
5252,17.0,33.0,0.0,   3.01249E-03,   9.34651E-03,  -809.311E-03,0.0327775,0.0555234,-0.00524273
5255,16.0,33.0,0.0,   2.83751E-03,   9.49919E-03,  -816.454E-03,0.0327229,0.0563127,-0.00491796
5256,15.0,33.0,0.0,   2.66164E-03,   9.64085E-03,  -823.053E-03,0.032675,0.057051,-0.00459565
5261,14.0,33.0,0.0,   2.48511E-03,   9.77178E-03,  -829.131E-03,0.0326332,0.0577387,-0.00427585
5262,13.0,33.0,0.0,   2.30809E-03,   9.89227E-03,  -834.708E-03,0.0325967,0.0583765,-0.00395855
5267,12.0,33.0,0.0,   2.13074E-03,   10.0026E-03,  -839.803E-03,0.0325648,0.0589647,-0.0036437
5270,11.0,33.0,0.0,   1.95317E-03,   10.1031E-03,  -844.431E-03,0.0325372,0.059504,-0.00333119
5271,10.0,33.0,0.0,   1.77548E-03,   10.1939E-03,  -848.609E-03,0.0325133,0.0599946,-0.0030209
5276,9.0,33.0,0.0,   1.59774E-03,   10.2754E-03,  -852.349E-03,0.0324928,0.0604371,-0.00271268
5277,8.0,33.0,0.0,   1.41999E-03,   10.3477E-03,  -855.664E-03,0.0324753,0.0608319,-0.00240636
5282,7.0,33.0,0.0,   1.24228E-03,   10.4110E-03,  -858.565E-03,0.0324604,0.0611793,-0.00210175
5285,6.0,33.0,0.0,   1.06462E-03,   10.4655E-03,  -861.061E-03,0.0324481,0.0614797,-0.00179865
5286,5.0,33.0,0.0,   887.040E-06,   10.5113E-03,  -863.159E-03,0.0324379,0.0617334,-0.00149685
5291,4.0,33.0,0.0,   709.527E-06,   10.5487E-03,  -864.866E-03,0.0324299,0.0619406,-0.00119616
5292,3.0,33.0,0.0,   532.080E-06,   10.5776E-03,  -866.189E-03,0.0324237,0.0621015,-0.000896343
5297,2.0,33.0,0.0,   354.688E-06,   10.5982E-03,  -867.131E-03,0.0324194,0.0622163,-0.000597192
5300,1.0,33.0,0.0,   177.334E-06,   10.6105E-03,  -867.694E-03,0.0324169,0.0622852,-0.000298485
5301,0.0,33.0,0.0,   272.353E-18,   10.6146E-03,  -867.882E-03,0.032416,0.0623081,-3.63798e-12
5306,-1.0,33.0,0.0,  -177.334E-06,   10.6105E-03,  -867.694E-03,0.0324169,0.0622852,0.000298485
5307,-2.0,33.0,0.0,  -354.688E-06,   10.5982E-03,  -867.131E-03,0.0324194,0.0622163,0.000597192
5312,-3.0,33.0,0.0,  -532.080E-06,   10.5776E-03,  -866.189E-03,0.0324237,0.0621015,0.000896343
5315,-4.0,33.0,0.0,  -709.527E-06,   10.5487E-03,  -864.866E-03,0.0324299,0.0619406,0.00119616
5316,-5.0,33.0,0.0,  -887.040E-06,   10.5113E-03,  -863.159E-03,0.0324379,0.0617334,0.00149685
5321,-6.0,33.0,0.0,  -1.06462E-03,   10.4655E-03,  -861.061E-03,0.0324481,0.0614797,0.00179865
5322,-7.0,33.0,0.0,  -1.24228E-03,   10.4110E-03,  -858.565E-03,0.0324604,0.0611793,0.00210175
5327,-8.0,33.0,0.0,  -1.41999E-03,   10.3477E-03,  -855.664E-03,0.0324753,0.0608319,0.00240636
5330,-9.0,33.0,0.0,  -1.59774E-03,   10.2754E-03,  -852.349E-03,0.0324928,0.0604371,0.00271268
5331,-10.0,33.0,0.0,  -1.77548E-03,   10.1939E-03,  -848.609E-03,0.0325133,0.0599946,0.0030209
5336,-11.0,33.0,0.0,  -1.95317E-03,   10.1031E-03,  -844.431E-03,0.0325372,0.059504,0.00333119
5337,-12.0,33.0,0.0,  -2.13074E-03,   10.0026E-03,  -839.803E-03,0.0325648,0.0589647,0.0036437
5342,-13.0,33.0,0.0,  -2.30809E-03,   9.89227E-03,  -834.708E-03,0.0325967,0.0583765,0.00395855
5345,-14.0,33.0,0.0,  -2.48511E-03,   9.77178E-03,  -829.131E-03,0.0326332,0.0577387,0.00427585
5346,-15.0,33.0,0.0,  -2.66164E-03,   9.64085E-03,  -823.053E-03,0.032675,0.057051,0.00459565
5351,-16.0,33.0,0.0,  -2.83751E-03,   9.49919E-03,  -816.454E-03,0.0327229,0.0563127,0.00491796
5352,-17.0,33.0,0.0,  -3.01249E-03,   9.34651E-03,  -809.311E-03,0.0327775,0.0555234,0.00524273
5357,-18.0,33.0,0.0,  -3.18633E-03,   9.18248E-03,  -801.601E-03,0.0328397,0.0546825,0.00556981
5360,-19.0,33.0,0.0,  -3.35869E-03,   9.00680E-03,  -793.297E-03,0.0329106,0.0537896,0.00589899
5361,-20.0,33.0,0.0,  -3.52920E-03,   8.81915E-03,  -784.369E-03,0.0329912,0.0528441,0.0062299
5366,-21.0,33.0,0.0,  -3.69741E-03,   8.61922E-03,  -774.788E-03,0.0330827,0.0518456,0.00656206
5367,-22.0,33.0,0.0,  -3.86279E-03,   8.40674E-03,  -764.517E-03,0.0331865,0.0507937,0.00689479
5372,-23.0,33.0,0.0,  -4.02469E-03,   8.18142E-03,  -753.520E-03,0.0333042,0.0496879,0.0072272
5375,-24.0,33.0,0.0,  -4.18238E-03,   7.94302E-03,  -741.756E-03,0.0334374,0.0485279,0.00755814
5376,-25.0,33.0,0.0,  -4.33497E-03,   7.69135E-03,  -729.181E-03,0.033588,0.0473134,0.00788615
5381,-26.0,33.0,0.0,  -4.48143E-03,   7.42623E-03,  -715.744E-03,0.0337578,0.0460444,0.00820936
5382,-27.0,33.0,0.0,  -4.62055E-03,   7.14760E-03,  -701.394E-03,0.0339491,0.0447208,0.00852549
5387,-28.0,33.0,0.0,  -4.75087E-03,   6.85543E-03,  -686.071E-03,0.0341639,0.0433428,0.0088317
5390,-29.0,33.0,0.0,  -4.87072E-03,   6.54982E-03,  -669.712E-03,0.0344046,0.041911,0.00912454
5391,-30.0,33.0,0.0,  -4.97809E-03,   6.23098E-03,  -652.247E-03,0.0346735,0.040426,0.0093998
5396,-31.0,33.0,0.0,  -5.07062E-03,   5.89928E-03,  -633.598E-03,0.0349725,0.0388891,0.0096525
5397,-32.0,33.0,0.0,  -5.14555E-03,   5.55524E-03,  -613.683E-03,0.0353035,0.0373023,0.00987669
5402,-33.0,33.0,0.0,  -5.19961E-03,   5.19961E-03,  -592.409E-03,0.0356679,0.0356679,0.0100654
5405,-34.0,33.0,0.0,  -5.22896E-03,   4.83340E-03,  -569.677E-03,0.0360661,0.0339896,0.0102108
5406,-35.0,33.0,0.0,  -5.22910E-03,   4.45790E-03,  -545.379E-03,0.0364974,0.0322719,0.0103037
5411,-36.0,33.0,0.0,  -5.19478E-03,   4.07472E-03,  -519.399E-03,0.0369589,0.0305208,0.0103342
5412,-37.0,33.0,0.0,  -5.11991E-03,   3.68589E-03,  -491.614E-03,0.0374448,0.0287437,0.010292
5417,-38.0,33.0,0.0,  -4.99749E-03,   3.29386E-03,  -461.892E-03,0.0379444,0.0269495,0.0101665
5420,-39.0,33.0,0.0,  -4.81957E-03,   2.90155E-03,  -430.101E-03,0.0384391,0.0251477,0.00994789
5421,-40.0,33.0,0.0,  -4.57734E-03,   2.51244E-03,  -396.108E-03,0.0388965,0.0233479,0.00962875
5426,-41.0,33.0,0.0,  -4.26134E-03,   2.13055E-03,  -359.790E-03,0.0392595,0.0215558,0.00920582
5427,-42.0,33.0,0.0,  -3.86204E-03,   1.76052E-03,  -321.047E-03,0.039425,0.0197675,0.00868261
5432,-43.0,33.0,0.0,  -3.37113E-03,   1.40763E-03,  -279.829E-03,0.0392,0.0179562,0.00807326
5435,-44.0,33.0,0.0,  -2.78409E-03,   1.07785E-03,  -236.189E-03,0.0382132,0.0160449,0.00740494
5436,-45.0,33.0,0.0,  -2.10554E-03,   777.957E-06,  -190.370E-03,0.0357324,0.0138517,0.00672047
5441,-46.0,33.0,0.0,  -1.35977E-03,   515.681E-06,  -143.003E-03,0.0302892,0.0109778,0.00606661
5442,-47.0,33.0,0.0,  -610.373E-06,   299.745E-06,  -95.4818E-03,0.0189107,0.00657975,0.00546321
5447,-48.0,33.0,0.0,   8.75173E-06,   139.247E-06,  -50.7346E-03,-0.00444554,-0.00109974,0.00477948
5450,-49.0,33.0,0.0,   271.860E-06,   40.6169E-06,  -14.7962E-03,-0.0520402,-0.0156838,0.00344595
5451,-50.0,33.0,0.0,   1.45441E-39,  -412.241E-42,           -0.,-0.0839488,-0.0251917,0.00142611
5456,50.0,32.0,0.0,  -1.54374E-39,  -437.422E-42,           -0.,-0.0857519,-0.0257323,-0.0014618
5457,49.0,32.0,0.0,  -289.008E-06,   42.6435E-06,  -15.2801E-03,-0.0523506,-0.0157453,-0.00337632
5462,48.0,32.0,0.0,  -11.7091E-06,   140.944E-06,  -52.2690E-03,-0.00291145,-0.000600399,-0.00461231
5465,47.0,32.0,0.0,   634.923E-06,   298.327E-06,  -98.1496E-03,0.0207924,0.00715965,-0.00523601
5466,46.0,32.0,0.0,   1.41451E-03,   508.528E-06,  -146.792E-03,0.0320859,0.0114794,-0.00579485
5471,45.0,32.0,0.0,   2.19049E-03,   763.085E-06,  -195.282E-03,0.0373778,0.0142327,-0.00640976
5472,44.0,32.0,0.0,   2.89915E-03,   1.05409E-03,  -242.259E-03,0.0397463,0.0163025,-0.00706002
5477,43.0,32.0,0.0,   3.51632E-03,   1.37463E-03,  -287.115E-03,0.0406751,0.0180998,-0.00770128
5480,42.0,32.0,0.0,   4.03713E-03,   1.71865E-03,  -329.613E-03,0.0408853,0.0198096,-0.00829335
5481,41.0,32.0,0.0,   4.46558E-03,   2.08074E-03,  -369.699E-03,0.0407329,0.0215093,-0.00881041
5486,40.0,32.0,0.0,   4.80938E-03,   2.45606E-03,  -407.411E-03,0.0403978,0.0232257,-0.00923827
5487,39.0,32.0,0.0,   5.07749E-03,   2.84025E-03,  -442.835E-03,0.0399736,0.0249621,-0.00957223
5492,38.0,32.0,0.0,   5.27888E-03,   3.22944E-03,  -476.077E-03,0.0395112,0.0267118,-0.00981366
5495,37.0,32.0,0.0,   5.42204E-03,   3.62021E-03,  -507.255E-03,0.0390391,0.0284644,-0.00996793
5496,36.0,32.0,0.0,   5.51473E-03,   4.00957E-03,  -536.489E-03,0.0385741,0.0302092,-0.0100426
5501,35.0,32.0,0.0,   5.56388E-03,   4.39496E-03,  -563.897E-03,0.0381261,0.0319361,-0.0100464
5502,34.0,32.0,0.0,   5.57559E-03,   4.77423E-03,  -589.592E-03,0.0377011,0.0336366,-0.00998821
5507,33.0,32.0,0.0,   5.55524E-03,   5.14555E-03,  -613.683E-03,0.0373023,0.0353035,-0.00987669
5510,32.0,32.0,0.0,   5.50746E-03,   5.50746E-03,  -636.272E-03,0.0369313,0.0369313,-0.00971997
5511,31.0,32.0,0.0,   5.43628E-03,   5.85876E-03,  -657.453E-03,0.0365885,0.0385153,-0.00952545
5516,30.0,32.0,0.0,   5.34518E-03,   6.19851E-03,  -677.316E-03,0.0362736,0.0400524,-0.00929974
5517,29.0,32.0,0.0,   5.23714E-03,   6.52601E-03,  -695.942E-03,0.0359856,0.0415398,-0.00904861
5522,28.0,32.0,0.0,   5.11472E-03,   6.84074E-03,  -713.407E-03,0.0357232,0.0429758,-0.00877707
5525,27.0,32.0,0.0,   4.98010E-03,   7.14234E-03,  -729.782E-03,0.0354849,0.0443592,-0.00848939
5526,26.0,32.0,0.0,   4.83518E-03,   7.43059E-03,  -745.129E-03,0.035269,0.045689,-0.00818919
5531,25.0,32.0,0.0,   4.68157E-03,   7.70540E-03,  -759.509E-03,0.0350739,0.0469647,-0.00787949
5532,24.0,32.0,0.0,   4.52064E-03,   7.96674E-03,  -772.976E-03,0.0348978,0.0481862,-0.0075628
5537,23.0,32.0,0.0,   4.35358E-03,   8.21471E-03,  -785.580E-03,0.034739,0.0493533,-0.00724119
5540,22.0,32.0,0.0,   4.18138E-03,   8.44941E-03,  -797.368E-03,0.0345962,0.0504661,-0.00691634
5541,21.0,32.0,0.0,   4.00492E-03,   8.67105E-03,  -808.381E-03,0.0344677,0.051525,-0.0065896
5546,20.0,32.0,0.0,   3.82493E-03,   8.87985E-03,  -818.658E-03,0.0343523,0.0525301,-0.00626205
5547,19.0,32.0,0.0,   3.64204E-03,   9.07604E-03,  -828.237E-03,0.0342487,0.0534819,-0.00593454
5552,18.0,32.0,0.0,   3.45677E-03,   9.25991E-03,  -837.149E-03,0.0341558,0.0543808,-0.0056077
5555,17.0,32.0,0.0,   3.26958E-03,   9.43174E-03,  -845.425E-03,0.0340725,0.0552273,-0.00528204
5556,16.0,32.0,0.0,   3.08085E-03,   9.59183E-03,  -853.093E-03,0.033998,0.0560219,-0.00495791
5561,15.0,32.0,0.0,   2.89091E-03,   9.74046E-03,  -860.179E-03,0.0339314,0.056765,-0.00463554
5562,14.0,32.0,0.0,   2.70002E-03,   9.87793E-03,  -866.706E-03,0.0338719,0.0574573,-0.00431508
5567,13.0,32.0,0.0,   2.50840E-03,   10.0045E-03,  -872.696E-03,0.033819,0.0580992,-0.00399662
5570,12.0,32.0,0.0,   2.31624E-03,   10.1205E-03,  -878.168E-03,0.033772,0.0586912,-0.00368017
5571,11.0,32.0,0.0,   2.12369E-03,   10.2262E-03,  -883.139E-03,0.0337304,0.0592338,-0.00336569
5576,10.0,32.0,0.0,   1.93087E-03,   10.3218E-03,  -887.627E-03,0.0336938,0.0597275,-0.00305312
5577,9.0,32.0,0.0,   1.73787E-03,   10.4075E-03,  -891.645E-03,0.0336617,0.0601728,-0.00274233
5582,8.0,32.0,0.0,   1.54477E-03,   10.4837E-03,  -895.206E-03,0.0336338,0.0605699,-0.00243322
5585,7.0,32.0,0.0,   1.35162E-03,   10.5503E-03,  -898.323E-03,0.0336099,0.0609194,-0.00212563
5586,6.0,32.0,0.0,   1.15846E-03,   10.6078E-03,  -901.004E-03,0.0335897,0.0612216,-0.00181939
5591,5.0,32.0,0.0,   965.317E-06,   10.6561E-03,  -903.258E-03,0.0335729,0.0614767,-0.00151432
5592,4.0,32.0,0.0,   772.198E-06,   10.6954E-03,  -905.093E-03,0.0335594,0.0616851,-0.00121025
5597,3.0,32.0,0.0,   579.111E-06,   10.7259E-03,  -906.514E-03,0.033549,0.061847,-0.000906982
5600,2.0,32.0,0.0,   386.055E-06,   10.7477E-03,  -907.525E-03,0.0335417,0.0619624,-0.000604317
5601,1.0,32.0,0.0,   193.021E-06,   10.7607E-03,  -908.131E-03,0.0335373,0.0620317,-0.000302057
5606,0.0,32.0,0.0,  -4.54418E-15,   10.7650E-03,  -908.333E-03,0.0335359,0.0620548,0.0
5607,-1.0,32.0,0.0,  -193.021E-06,   10.7607E-03,  -908.131E-03,0.0335373,0.0620317,0.000302057
5612,-2.0,32.0,0.0,  -386.055E-06,   10.7477E-03,  -907.525E-03,0.0335417,0.0619624,0.000604317
5615,-3.0,32.0,0.0,  -579.111E-06,   10.7259E-03,  -906.514E-03,0.033549,0.061847,0.000906982
5616,-4.0,32.0,0.0,  -772.198E-06,   10.6954E-03,  -905.093E-03,0.0335594,0.0616851,0.00121025
5621,-5.0,32.0,0.0,  -965.317E-06,   10.6561E-03,  -903.258E-03,0.0335729,0.0614767,0.00151432
5622,-6.0,32.0,0.0,  -1.15846E-03,   10.6078E-03,  -901.004E-03,0.0335897,0.0612216,0.00181939
5627,-7.0,32.0,0.0,  -1.35162E-03,   10.5503E-03,  -898.323E-03,0.0336099,0.0609194,0.00212563
5630,-8.0,32.0,0.0,  -1.54477E-03,   10.4837E-03,  -895.206E-03,0.0336338,0.0605699,0.00243322
5631,-9.0,32.0,0.0,  -1.73787E-03,   10.4075E-03,  -891.645E-03,0.0336617,0.0601728,0.00274233
5636,-10.0,32.0,0.0,  -1.93087E-03,   10.3218E-03,  -887.627E-03,0.0336938,0.0597275,0.00305312
5637,-11.0,32.0,0.0,  -2.12369E-03,   10.2262E-03,  -883.139E-03,0.0337304,0.0592338,0.00336569
5642,-12.0,32.0,0.0,  -2.31624E-03,   10.1205E-03,  -878.168E-03,0.033772,0.0586912,0.00368017
5645,-13.0,32.0,0.0,  -2.50840E-03,   10.0045E-03,  -872.696E-03,0.033819,0.0580992,0.00399662
5646,-14.0,32.0,0.0,  -2.70002E-03,   9.87793E-03,  -866.706E-03,0.0338719,0.0574573,0.00431508
5651,-15.0,32.0,0.0,  -2.89091E-03,   9.74046E-03,  -860.179E-03,0.0339314,0.056765,0.00463554
5652,-16.0,32.0,0.0,  -3.08085E-03,   9.59183E-03,  -853.093E-03,0.033998,0.0560219,0.00495791
5657,-17.0,32.0,0.0,  -3.26958E-03,   9.43174E-03,  -845.425E-03,0.0340725,0.0552273,0.00528204
5660,-18.0,32.0,0.0,  -3.45677E-03,   9.25991E-03,  -837.149E-03,0.0341558,0.0543808,0.00560771
5661,-19.0,32.0,0.0,  -3.64204E-03,   9.07604E-03,  -828.237E-03,0.0342487,0.0534819,0.00593454
5666,-20.0,32.0,0.0,  -3.82493E-03,   8.87985E-03,  -818.658E-03,0.0343523,0.0525301,0.00626205
5667,-21.0,32.0,0.0,  -4.00492E-03,   8.67105E-03,  -808.381E-03,0.0344677,0.051525,0.0065896
5672,-22.0,32.0,0.0,  -4.18138E-03,   8.44941E-03,  -797.368E-03,0.0345962,0.0504661,0.00691634
5675,-23.0,32.0,0.0,  -4.35358E-03,   8.21471E-03,  -785.580E-03,0.034739,0.0493533,0.00724119
5676,-24.0,32.0,0.0,  -4.52064E-03,   7.96674E-03,  -772.976E-03,0.0348978,0.0481862,0.0075628
5681,-25.0,32.0,0.0,  -4.68157E-03,   7.70540E-03,  -759.509E-03,0.0350739,0.0469647,0.00787949
5682,-26.0,32.0,0.0,  -4.83518E-03,   7.43059E-03,  -745.129E-03,0.0352691,0.045689,0.00818919
5687,-27.0,32.0,0.0,  -4.98010E-03,   7.14234E-03,  -729.782E-03,0.0354849,0.0443592,0.00848939
5690,-28.0,32.0,0.0,  -5.11472E-03,   6.84074E-03,  -713.407E-03,0.0357232,0.0429758,0.00877707
5691,-29.0,32.0,0.0,  -5.23714E-03,   6.52601E-03,  -695.942E-03,0.0359856,0.0415398,0.00904861
5696,-30.0,32.0,0.0,  -5.34518E-03,   6.19851E-03,  -677.316E-03,0.0362736,0.0400524,0.00929974
5697,-31.0,32.0,0.0,  -5.43628E-03,   5.85876E-03,  -657.453E-03,0.0365885,0.0385153,0.00952545
5702,-32.0,32.0,0.0,  -5.50746E-03,   5.50746E-03,  -636.272E-03,0.0369313,0.0369313,0.00971997
5705,-33.0,32.0,0.0,  -5.55524E-03,   5.14555E-03,  -613.683E-03,0.0373023,0.0353035,0.00987669
5706,-34.0,32.0,0.0,  -5.57559E-03,   4.77423E-03,  -589.592E-03,0.0377011,0.0336366,0.00998821
5711,-35.0,32.0,0.0,  -5.56388E-03,   4.39496E-03,  -563.897E-03,0.0381261,0.0319361,0.0100464
5712,-36.0,32.0,0.0,  -5.51473E-03,   4.00957E-03,  -536.489E-03,0.0385741,0.0302092,0.0100426
5717,-37.0,32.0,0.0,  -5.42204E-03,   3.62021E-03,  -507.255E-03,0.0390391,0.0284644,0.00996793
5720,-38.0,32.0,0.0,  -5.27888E-03,   3.22944E-03,  -476.077E-03,0.0395112,0.0267118,0.00981366
5721,-39.0,32.0,0.0,  -5.07749E-03,   2.84025E-03,  -442.835E-03,0.0399736,0.0249621,0.00957223
5726,-40.0,32.0,0.0,  -4.80938E-03,   2.45606E-03,  -407.411E-03,0.0403978,0.0232257,0.00923827
5727,-41.0,32.0,0.0,  -4.46558E-03,   2.08074E-03,  -369.699E-03,0.0407329,0.0215093,0.00881041
5732,-42.0,32.0,0.0,  -4.03713E-03,   1.71865E-03,  -329.613E-03,0.0408853,0.0198096,0.00829335
5733,-43.0,32.0,0.0,  -3.51632E-03,   1.37463E-03,  -287.115E-03,0.0406751,0.0180998,0.00770128
5738,-44.0,32.0,0.0,  -2.89915E-03,   1.05409E-03,  -242.259E-03,0.0397463,0.0163025,0.00706002
5739,-45.0,32.0,0.0,  -2.19049E-03,   763.085E-06,  -195.282E-03,0.0373778,0.0142327,0.00640976
5744,-46.0,32.0,0.0,  -1.41451E-03,   508.528E-06,  -146.792E-03,0.0320859,0.0114794,0.00579485
5747,-47.0,32.0,0.0,  -634.923E-06,   298.327E-06,  -98.1496E-03,0.0207924,0.00715965,0.00523601
5748,-48.0,32.0,0.0,   11.7091E-06,   140.944E-06,  -52.2690E-03,-0.00291145,-0.000600399,0.00461231
5753,-49.0,32.0,0.0,   289.008E-06,   42.6435E-06,  -15.2801E-03,-0.0523506,-0.0157453,0.00337632
5754,-50.0,32.0,0.0,   1.54374E-39,  -437.422E-42,           -0.,-0.0857519,-0.0257323,0.0014618
5759,50.0,31.0,0.0,  -1.62973E-39,  -462.028E-42,           -0.,-0.0874516,-0.0262418,-0.00148506
5762,49.0,31.0,0.0,  -305.245E-06,   44.1616E-06,  -15.7398E-03,-0.0526061,-0.0157927,-0.00330047
5763,48.0,31.0,0.0,  -13.8876E-06,   141.689E-06,  -53.7198E-03,-0.00139612,-0.00010858,-0.00444831
5768,47.0,31.0,0.0,   659.012E-06,   295.606E-06,  -100.659E-03,0.0226245,0.00772726,-0.00501936
5769,46.0,31.0,0.0,   1.46695E-03,   499.818E-06,  -150.340E-03,0.0338291,0.0119761,-0.0055386
5774,45.0,31.0,0.0,   2.27111E-03,   746.444E-06,  -199.868E-03,0.0389755,0.014622,-0.00611732
5777,44.0,31.0,0.0,   3.00784E-03,   1.02830E-03,  -247.914E-03,0.0412377,0.0165829,-0.00673409
5778,43.0,31.0,0.0,   3.65318E-03,   1.33918E-03,  -293.892E-03,0.0421113,0.0182792,-0.007347
5783,42.0,31.0,0.0,   4.20212E-03,   1.67365E-03,  -337.573E-03,0.0423061,0.0198977,-0.00791857
5784,41.0,31.0,0.0,   4.65824E-03,   2.02684E-03,  -378.902E-03,0.0421639,0.021516,-0.00842462
5789,40.0,31.0,0.0,   5.02869E-03,   2.39430E-03,  -417.908E-03,0.0418527,0.0231604,-0.00885136
5792,39.0,31.0,0.0,   5.32189E-03,   2.77197E-03,  -454.664E-03,0.041458,0.0248342,-0.0091934
5793,38.0,31.0,0.0,   5.54635E-03,   3.15615E-03,  -489.264E-03,0.041025,0.0265304,-0.00945077
5798,37.0,31.0,0.0,   5.71021E-03,   3.54350E-03,  -521.811E-03,0.0405791,0.0282382,-0.00962714
5799,36.0,31.0,0.0,   5.82098E-03,   3.93107E-03,  -552.413E-03,0.040135,0.0299464,-0.00972831
5804,35.0,31.0,0.0,   5.88547E-03,   4.31623E-03,  -581.176E-03,0.0397018,0.0316442,-0.00976128
5807,34.0,31.0,0.0,   5.90977E-03,   4.69673E-03,  -608.205E-03,0.0392853,0.0333222,-0.00973351
5808,33.0,31.0,0.0,   5.89928E-03,   5.07062E-03,  -633.598E-03,0.0388891,0.0349725,-0.0096525
5813,32.0,31.0,0.0,   5.85876E-03,   5.43628E-03,  -657.453E-03,0.0385153,0.0365885,-0.00952545
5814,31.0,31.0,0.0,   5.79237E-03,   5.79237E-03,  -679.859E-03,0.038165,0.038165,-0.00935911
5819,30.0,31.0,0.0,   5.70375E-03,   6.13778E-03,  -700.901E-03,0.0378385,0.0396979,-0.00915961
5822,29.0,31.0,0.0,   5.59607E-03,   6.47166E-03,  -720.659E-03,0.0375356,0.0411839,-0.00893248
5823,28.0,31.0,0.0,   5.47207E-03,   6.79334E-03,  -739.206E-03,0.0372557,0.0426207,-0.00868259
5828,27.0,31.0,0.0,   5.33413E-03,   7.10233E-03,  -756.613E-03,0.0369979,0.0440064,-0.00841421
5829,26.0,31.0,0.0,   5.18430E-03,   7.39828E-03,  -772.942E-03,0.036761,0.0453398,-0.00813102
5834,25.0,31.0,0.0,   5.02436E-03,   7.68099E-03,  -788.254E-03,0.0365438,0.0466201,-0.00783614
5837,24.0,31.0,0.0,   4.85585E-03,   7.95034E-03,  -802.603E-03,0.0363451,0.0478467,-0.00753225
5838,23.0,31.0,0.0,   4.68008E-03,   8.20632E-03,  -816.040E-03,0.0361636,0.0490193,-0.00722155
5843,22.0,31.0,0.0,   4.49820E-03,   8.44899E-03,  -828.613E-03,0.0359979,0.0501378,-0.00690592
5844,21.0,31.0,0.0,   4.31118E-03,   8.67846E-03,  -840.366E-03,0.035847,0.0512024,-0.00658687
5849,20.0,31.0,0.0,   4.11986E-03,   8.89491E-03,  -851.337E-03,0.0357096,0.0522132,-0.00626563
5852,19.0,31.0,0.0,   3.92498E-03,   9.09854E-03,  -861.566E-03,0.0355847,0.0531706,-0.00594322
5853,18.0,31.0,0.0,   3.72714E-03,   9.28958E-03,  -871.086E-03,0.0354712,0.0540748,-0.00562041
5858,17.0,31.0,0.0,   3.52687E-03,   9.46829E-03,  -879.929E-03,0.0353682,0.0549264,-0.00529783
5859,16.0,31.0,0.0,   3.32463E-03,   9.63492E-03,  -888.124E-03,0.0352748,0.0557259,-0.00497594
5864,15.0,31.0,0.0,   3.12079E-03,   9.78976E-03,  -895.698E-03,0.0351904,0.0564735,-0.0046551
5867,14.0,31.0,0.0,   2.91567E-03,   9.93307E-03,  -902.676E-03,0.0351142,0.05717,-0.00433554
5868,13.0,31.0,0.0,   2.70954E-03,   10.0651E-03,  -909.080E-03,0.0350456,0.0578158,-0.00401743
5873,12.0,31.0,0.0,   2.50264E-03,   10.1862E-03,  -914.931E-03,0.0349841,0.0584114,-0.00370085
5874,11.0,31.0,0.0,   2.29513E-03,   10.2966E-03,  -920.247E-03,0.034929,0.0589572,-0.00338584
5879,10.0,31.0,0.0,   2.08718E-03,   10.3965E-03,  -925.047E-03,0.0348801,0.0594539,-0.00307238
5882,9.0,31.0,0.0,   1.87891E-03,   10.4861E-03,  -929.345E-03,0.0348369,0.0599017,-0.00276042
5883,8.0,31.0,0.0,   1.67041E-03,   10.5657E-03,  -933.155E-03,0.0347991,0.0603012,-0.00244987
5888,7.0,31.0,0.0,   1.46175E-03,   10.6354E-03,  -936.488E-03,0.0347664,0.0606527,-0.00214062
5889,6.0,31.0,0.0,   1.25300E-03,   10.6955E-03,  -939.356E-03,0.0347385,0.0609566,-0.00183255
5894,5.0,31.0,0.0,   1.04420E-03,   10.7461E-03,  -941.768E-03,0.0347152,0.0612132,-0.0015255
5897,4.0,31.0,0.0,   835.364E-06,   10.7873E-03,  -943.731E-03,0.0346965,0.0614227,-0.00121933
5898,3.0,31.0,0.0,   626.521E-06,   10.8192E-03,  -945.251E-03,0.034682,0.0615855,-0.000913871
5903,2.0,31.0,0.0,   417.678E-06,   10.8420E-03,  -946.334E-03,0.0346717,0.0617016,-0.000608947
5904,1.0,31.0,0.0,   208.838E-06,   10.8556E-03,  -946.982E-03,0.0346656,0.0617713,-0.000304383
5909,0.0,31.0,0.0,  -2.24024E-15,   10.8601E-03,  -947.198E-03,0.0346635,0.0617944,3.63798e-12
5912,-1.0,31.0,0.0,  -208.838E-06,   10.8556E-03,  -946.982E-03,0.0346656,0.0617713,0.000304383
5913,-2.0,31.0,0.0,  -417.678E-06,   10.8420E-03,  -946.334E-03,0.0346717,0.0617016,0.000608947
5918,-3.0,31.0,0.0,  -626.521E-06,   10.8192E-03,  -945.251E-03,0.034682,0.0615855,0.000913871
5919,-4.0,31.0,0.0,  -835.364E-06,   10.7873E-03,  -943.731E-03,0.0346965,0.0614227,0.00121933
5924,-5.0,31.0,0.0,  -1.04420E-03,   10.7461E-03,  -941.768E-03,0.0347152,0.0612132,0.0015255
5927,-6.0,31.0,0.0,  -1.25300E-03,   10.6955E-03,  -939.356E-03,0.0347385,0.0609566,0.00183255
5928,-7.0,31.0,0.0,  -1.46175E-03,   10.6354E-03,  -936.488E-03,0.0347664,0.0606527,0.00214062
5933,-8.0,31.0,0.0,  -1.67041E-03,   10.5657E-03,  -933.155E-03,0.0347991,0.0603012,0.00244987
5934,-9.0,31.0,0.0,  -1.87891E-03,   10.4861E-03,  -929.345E-03,0.0348369,0.0599017,0.00276042
5939,-10.0,31.0,0.0,  -2.08718E-03,   10.3965E-03,  -925.047E-03,0.0348801,0.0594539,0.00307238
5942,-11.0,31.0,0.0,  -2.29513E-03,   10.2966E-03,  -920.247E-03,0.034929,0.0589572,0.00338584
5943,-12.0,31.0,0.0,  -2.50264E-03,   10.1862E-03,  -914.931E-03,0.0349841,0.0584114,0.00370085
5948,-13.0,31.0,0.0,  -2.70954E-03,   10.0651E-03,  -909.080E-03,0.0350456,0.0578158,0.00401743
5949,-14.0,31.0,0.0,  -2.91567E-03,   9.93307E-03,  -902.676E-03,0.0351142,0.05717,0.00433554
5954,-15.0,31.0,0.0,  -3.12079E-03,   9.78976E-03,  -895.698E-03,0.0351904,0.0564735,0.0046551
5957,-16.0,31.0,0.0,  -3.32463E-03,   9.63492E-03,  -888.124E-03,0.0352748,0.0557259,0.00497594
5958,-17.0,31.0,0.0,  -3.52687E-03,   9.46829E-03,  -879.929E-03,0.0353682,0.0549264,0.00529783
5963,-18.0,31.0,0.0,  -3.72714E-03,   9.28958E-03,  -871.086E-03,0.0354712,0.0540748,0.00562041
5964,-19.0,31.0,0.0,  -3.92498E-03,   9.09854E-03,  -861.566E-03,0.0355847,0.0531706,0.00594322
5969,-20.0,31.0,0.0,  -4.11986E-03,   8.89491E-03,  -851.337E-03,0.0357096,0.0522132,0.00626563
5972,-21.0,31.0,0.0,  -4.31118E-03,   8.67846E-03,  -840.366E-03,0.035847,0.0512024,0.00658687
5973,-22.0,31.0,0.0,  -4.49820E-03,   8.44899E-03,  -828.613E-03,0.0359979,0.0501378,0.00690592
5978,-23.0,31.0,0.0,  -4.68008E-03,   8.20632E-03,  -816.040E-03,0.0361636,0.0490193,0.00722155
5979,-24.0,31.0,0.0,  -4.85585E-03,   7.95034E-03,  -802.603E-03,0.0363451,0.0478467,0.00753225
5984,-25.0,31.0,0.0,  -5.02436E-03,   7.68099E-03,  -788.254E-03,0.0365438,0.0466201,0.00783614
5987,-26.0,31.0,0.0,  -5.18430E-03,   7.39828E-03,  -772.942E-03,0.036761,0.0453398,0.00813102
5988,-27.0,31.0,0.0,  -5.33413E-03,   7.10233E-03,  -756.613E-03,0.0369979,0.0440064,0.00841421
5993,-28.0,31.0,0.0,  -5.47207E-03,   6.79334E-03,  -739.206E-03,0.0372557,0.0426207,0.00868259
5994,-29.0,31.0,0.0,  -5.59607E-03,   6.47166E-03,  -720.659E-03,0.0375356,0.0411839,0.00893248
5999,-30.0,31.0,0.0,  -5.70375E-03,   6.13778E-03,  -700.901E-03,0.0378385,0.0396979,0.00915961
6002,-31.0,31.0,0.0,  -5.79237E-03,   5.79237E-03,  -679.859E-03,0.038165,0.038165,0.00935911
6003,-32.0,31.0,0.0,  -5.85876E-03,   5.43628E-03,  -657.453E-03,0.0385153,0.0365885,0.00952545
6008,-33.0,31.0,0.0,  -5.89928E-03,   5.07062E-03,  -633.598E-03,0.0388891,0.0349725,0.0096525
6009,-34.0,31.0,0.0,  -5.90977E-03,   4.69673E-03,  -608.205E-03,0.0392853,0.0333222,0.00973351
6014,-35.0,31.0,0.0,  -5.88547E-03,   4.31623E-03,  -581.176E-03,0.0397018,0.0316442,0.00976128
6017,-36.0,31.0,0.0,  -5.82098E-03,   3.93107E-03,  -552.413E-03,0.040135,0.0299464,0.00972831
6018,-37.0,31.0,0.0,  -5.71021E-03,   3.54350E-03,  -521.811E-03,0.0405791,0.0282382,0.00962714
6023,-38.0,31.0,0.0,  -5.54635E-03,   3.15615E-03,  -489.264E-03,0.041025,0.0265304,0.00945077
6024,-39.0,31.0,0.0,  -5.32189E-03,   2.77197E-03,  -454.664E-03,0.041458,0.0248342,0.0091934
6029,-40.0,31.0,0.0,  -5.02869E-03,   2.39430E-03,  -417.908E-03,0.0418527,0.0231604,0.00885136
6032,-41.0,31.0,0.0,  -4.65824E-03,   2.02684E-03,  -378.902E-03,0.0421639,0.021516,0.00842462
6033,-42.0,31.0,0.0,  -4.20212E-03,   1.67365E-03,  -337.573E-03,0.0423061,0.0198977,0.00791857
6038,-43.0,31.0,0.0,  -3.65318E-03,   1.33918E-03,  -293.892E-03,0.0421113,0.0182792,0.007347
6039,-44.0,31.0,0.0,  -3.00784E-03,   1.02830E-03,  -247.914E-03,0.0412377,0.0165829,0.00673409
6044,-45.0,31.0,0.0,  -2.27111E-03,   746.444E-06,  -199.868E-03,0.0389755,0.014622,0.00611732
6047,-46.0,31.0,0.0,  -1.46695E-03,   499.818E-06,  -150.340E-03,0.0338291,0.0119761,0.0055386
6048,-47.0,31.0,0.0,  -659.012E-06,   295.606E-06,  -100.659E-03,0.0226245,0.00772726,0.00501936
6053,-48.0,31.0,0.0,   13.8876E-06,   141.689E-06,  -53.7198E-03,-0.00139612,-0.00010858,0.00444831
6054,-49.0,31.0,0.0,   305.245E-06,   44.1616E-06,  -15.7398E-03,-0.0526061,-0.0157927,0.00330047
6059,-50.0,31.0,0.0,   1.62973E-39,  -462.028E-42,           -0.,-0.0874516,-0.0262418,0.00148506
6062,50.0,30.0,0.0,  -1.71248E-39,  -486.035E-42,           -0.,-0.0890541,-0.0267223,-0.00149694
6063,49.0,30.0,0.0,  -320.631E-06,   45.2196E-06,  -16.1765E-03,-0.0528142,-0.0158286,-0.00321861
6068,48.0,30.0,0.0,  -15.4100E-06,   141.580E-06,  -55.0922E-03,9.34764e-05,0.000372349,-0.00428625
6069,47.0,30.0,0.0,   682.554E-06,   291.734E-06,  -103.022E-03,0.0244024,0.00827855,-0.00481086
6074,46.0,30.0,0.0,   1.51717E-03,   489.761E-06,  -153.669E-03,0.0355156,0.0124623,-0.0052947
6077,45.0,30.0,0.0,   2.34764E-03,   728.309E-06,  -204.159E-03,0.0405231,0.015012,-0.0058399
6078,44.0,30.0,0.0,   3.11057E-03,   1.00083E-03,  -253.194E-03,0.0426856,0.0168764,-0.0064244
6083,43.0,30.0,0.0,   3.78227E-03,   1.30176E-03,  -300.210E-03,0.0435073,0.0184831,-0.00700865
6084,42.0,30.0,0.0,   4.35767E-03,   1.62620E-03,  -344.986E-03,0.0436868,0.0200198,-0.00755785
6089,41.0,30.0,0.0,   4.83999E-03,   1.96974E-03,  -387.467E-03,0.0435524,0.0215635,-0.00804958
6092,40.0,30.0,0.0,   5.23591E-03,   2.32832E-03,  -427.676E-03,0.0432618,0.0231404,-0.0084707
6093,39.0,30.0,0.0,   5.55331E-03,   2.69816E-03,  -465.673E-03,0.0428931,0.0247537,-0.00881553
6098,38.0,30.0,0.0,   5.80027E-03,   3.07576E-03,  -501.543E-03,0.0424868,0.0263966,-0.00908313
6099,37.0,30.0,0.0,   5.98456E-03,   3.45790E-03,  -535.376E-03,0.0420652,0.0280582,-0.00927586
6104,36.0,30.0,0.0,   6.11344E-03,   3.84167E-03,  -567.267E-03,0.0416413,0.0297272,-0.00939806
6107,35.0,30.0,0.0,   6.19356E-03,   4.22445E-03,  -597.313E-03,0.0412235,0.0313924,-0.00945531
6108,34.0,30.0,0.0,   6.23094E-03,   4.60393E-03,  -625.609E-03,0.0408172,0.033044,-0.00945376
6113,33.0,30.0,0.0,   6.23098E-03,   4.97809E-03,  -652.247E-03,0.040426,0.0346735,-0.0093998
6114,32.0,30.0,0.0,   6.19851E-03,   5.34518E-03,  -677.316E-03,0.0400524,0.0362736,-0.00929974
6119,31.0,30.0,0.0,   6.13778E-03,   5.70375E-03,  -700.901E-03,0.0396979,0.0378385,-0.00915961
6122,30.0,30.0,0.0,   6.05257E-03,   6.05257E-03,  -723.083E-03,0.0393634,0.0393634,-0.00898505
6123,29.0,30.0,0.0,   5.94619E-03,   6.39065E-03,  -743.939E-03,0.0390494,0.0408445,-0.00878123
6128,28.0,30.0,0.0,   5.82155E-03,   6.71717E-03,  -763.541E-03,0.0387556,0.0422789,-0.00855283
6129,27.0,30.0,0.0,   5.68118E-03,   7.03154E-03,  -781.955E-03,0.0384818,0.0436642,-0.00830401
6134,26.0,30.0,0.0,   5.52730E-03,   7.33330E-03,  -799.247E-03,0.0382273,0.0449987,-0.00803841
6137,25.0,30.0,0.0,   5.36185E-03,   7.62211E-03,  -815.474E-03,0.0379913,0.0462813,-0.00775922
6138,24.0,30.0,0.0,   5.18650E-03,   7.89779E-03,  -830.691E-03,0.0377729,0.0475111,-0.00746919
6143,23.0,30.0,0.0,   5.00273E-03,   8.16022E-03,  -844.952E-03,0.0375713,0.0486876,-0.00717064
6144,22.0,30.0,0.0,   4.81178E-03,   8.40939E-03,  -858.302E-03,0.0373854,0.0498105,-0.00686556
6149,21.0,30.0,0.0,   4.61477E-03,   8.64535E-03,  -870.787E-03,0.0372142,0.0508796,-0.00655561
6152,20.0,30.0,0.0,   4.41265E-03,   8.86820E-03,  -882.448E-03,0.0370568,0.0518951,-0.00624215
6153,19.0,30.0,0.0,   4.20622E-03,   9.07810E-03,  -893.323E-03,0.0369122,0.0528572,-0.00592632
6158,18.0,30.0,0.0,   3.99620E-03,   9.27524E-03,  -903.449E-03,0.0367797,0.0537661,-0.00560903
6159,17.0,30.0,0.0,   3.78319E-03,   9.45984E-03,  -912.856E-03,0.0366584,0.0546222,-0.00529102
6164,16.0,30.0,0.0,   3.56772E-03,   9.63212E-03,  -921.577E-03,0.0365475,0.055426,-0.00497287
6167,15.0,30.0,0.0,   3.35022E-03,   9.79234E-03,  -929.639E-03,0.0364464,0.0561778,-0.00465501
6168,14.0,30.0,0.0,   3.13108E-03,   9.94075E-03,  -937.067E-03,0.0363544,0.0568781,-0.0043378
6173,13.0,30.0,0.0,   2.91061E-03,   10.0776E-03,  -943.886E-03,0.036271,0.0575275,-0.00402146
6174,12.0,30.0,0.0,   2.68909E-03,   10.2032E-03,  -950.117E-03,0.0361956,0.0581264,-0.00370616
6179,11.0,30.0,0.0,   2.46673E-03,   10.3177E-03,  -955.780E-03,0.0361278,0.0586753,-0.00339199
6182,10.0,30.0,0.0,   2.24372E-03,   10.4213E-03,  -960.892E-03,0.0360671,0.0591747,-0.003079
6183,9.0,30.0,0.0,   2.02021E-03,   10.5144E-03,  -965.471E-03,0.0360132,0.0596251,-0.00276719
6188,8.0,30.0,0.0,   1.79633E-03,   10.5971E-03,  -969.530E-03,0.0359659,0.0600267,-0.00245651
6189,7.0,30.0,0.0,   1.57217E-03,   10.6696E-03,  -973.081E-03,0.0359247,0.0603802,-0.0021469
6194,6.0,30.0,0.0,   1.34782E-03,   10.7320E-03,  -976.137E-03,0.0358894,0.0606857,-0.00183827
6197,5.0,30.0,0.0,   1.12333E-03,   10.7846E-03,  -978.707E-03,0.03586,0.0609437,-0.00153051
6198,4.0,30.0,0.0,   898.747E-06,   10.8275E-03,  -980.799E-03,0.0358361,0.0611544,-0.00122349
6203,3.0,30.0,0.0,   674.101E-06,   10.8607E-03,  -982.419E-03,0.0358176,0.0613181,-0.000917073
6204,2.0,30.0,0.0,   449.418E-06,   10.8843E-03,  -983.573E-03,0.0358045,0.0614348,-0.000611122
6209,1.0,30.0,0.0,   224.714E-06,   10.8985E-03,  -984.263E-03,0.0357967,0.0615048,-0.000305483
6212,0.0,30.0,0.0,  -1.52716E-15,   10.9032E-03,  -984.493E-03,0.0357941,0.0615281,0.0
6213,-1.0,30.0,0.0,  -224.714E-06,   10.8985E-03,  -984.263E-03,0.0357967,0.0615048,0.000305483
6218,-2.0,30.0,0.0,  -449.418E-06,   10.8843E-03,  -983.573E-03,0.0358045,0.0614348,0.000611122
6219,-3.0,30.0,0.0,  -674.101E-06,   10.8607E-03,  -982.419E-03,0.0358176,0.0613181,0.000917073
6224,-4.0,30.0,0.0,  -898.747E-06,   10.8275E-03,  -980.799E-03,0.0358361,0.0611544,0.00122349
6227,-5.0,30.0,0.0,  -1.12333E-03,   10.7846E-03,  -978.707E-03,0.03586,0.0609437,0.00153051
6228,-6.0,30.0,0.0,  -1.34782E-03,   10.7320E-03,  -976.137E-03,0.0358894,0.0606857,0.00183827
6233,-7.0,30.0,0.0,  -1.57217E-03,   10.6696E-03,  -973.081E-03,0.0359247,0.0603802,0.0021469
6234,-8.0,30.0,0.0,  -1.79633E-03,   10.5971E-03,  -969.530E-03,0.0359659,0.0600267,0.00245651
6239,-9.0,30.0,0.0,  -2.02021E-03,   10.5144E-03,  -965.471E-03,0.0360132,0.0596251,0.00276719
6242,-10.0,30.0,0.0,  -2.24372E-03,   10.4213E-03,  -960.892E-03,0.0360671,0.0591747,0.003079
6243,-11.0,30.0,0.0,  -2.46673E-03,   10.3177E-03,  -955.780E-03,0.0361278,0.0586753,0.00339199
6248,-12.0,30.0,0.0,  -2.68909E-03,   10.2032E-03,  -950.117E-03,0.0361956,0.0581264,0.00370616
6249,-13.0,30.0,0.0,  -2.91061E-03,   10.0776E-03,  -943.886E-03,0.036271,0.0575275,0.00402146
6254,-14.0,30.0,0.0,  -3.13108E-03,   9.94075E-03,  -937.067E-03,0.0363544,0.0568781,0.0043378
6257,-15.0,30.0,0.0,  -3.35022E-03,   9.79234E-03,  -929.639E-03,0.0364464,0.0561778,0.00465501
6258,-16.0,30.0,0.0,  -3.56772E-03,   9.63212E-03,  -921.577E-03,0.0365475,0.055426,0.00497287
6263,-17.0,30.0,0.0,  -3.78319E-03,   9.45984E-03,  -912.856E-03,0.0366584,0.0546222,0.00529102
6264,-18.0,30.0,0.0,  -3.99620E-03,   9.27524E-03,  -903.449E-03,0.0367797,0.0537661,0.00560903
6269,-19.0,30.0,0.0,  -4.20622E-03,   9.07810E-03,  -893.323E-03,0.0369122,0.0528572,0.00592632
6272,-20.0,30.0,0.0,  -4.41265E-03,   8.86820E-03,  -882.448E-03,0.0370568,0.0518951,0.00624215
6273,-21.0,30.0,0.0,  -4.61477E-03,   8.64535E-03,  -870.787E-03,0.0372142,0.0508796,0.00655561
6278,-22.0,30.0,0.0,  -4.81178E-03,   8.40939E-03,  -858.302E-03,0.0373854,0.0498105,0.00686556
6279,-23.0,30.0,0.0,  -5.00273E-03,   8.16022E-03,  -844.952E-03,0.0375713,0.0486876,0.00717064
6284,-24.0,30.0,0.0,  -5.18650E-03,   7.89779E-03,  -830.691E-03,0.0377729,0.0475111,0.00746919
6287,-25.0,30.0,0.0,  -5.36185E-03,   7.62211E-03,  -815.474E-03,0.0379913,0.0462813,0.00775922
6288,-26.0,30.0,0.0,  -5.52730E-03,   7.33330E-03,  -799.247E-03,0.0382273,0.0449987,0.00803841
6293,-27.0,30.0,0.0,  -5.68118E-03,   7.03154E-03,  -781.955E-03,0.0384818,0.0436642,0.00830401
6294,-28.0,30.0,0.0,  -5.82155E-03,   6.71717E-03,  -763.541E-03,0.0387556,0.0422789,0.00855283
6299,-29.0,30.0,0.0,  -5.94619E-03,   6.39065E-03,  -743.939E-03,0.0390494,0.0408445,0.00878123
6302,-30.0,30.0,0.0,  -6.05257E-03,   6.05257E-03,  -723.083E-03,0.0393634,0.0393634,0.00898505
6303,-31.0,30.0,0.0,  -6.13778E-03,   5.70375E-03,  -700.901E-03,0.0396979,0.0378385,0.00915961
6308,-32.0,30.0,0.0,  -6.19851E-03,   5.34518E-03,  -677.316E-03,0.0400524,0.0362736,0.00929974
6309,-33.0,30.0,0.0,  -6.23098E-03,   4.97809E-03,  -652.247E-03,0.040426,0.0346735,0.0093998
6314,-34.0,30.0,0.0,  -6.23094E-03,   4.60393E-03,  -625.609E-03,0.0408172,0.033044,0.00945376
6317,-35.0,30.0,0.0,  -6.19356E-03,   4.22445E-03,  -597.313E-03,0.0412235,0.0313924,0.00945531
6318,-36.0,30.0,0.0,  -6.11344E-03,   3.84167E-03,  -567.267E-03,0.0416413,0.0297272,0.00939806
6323,-37.0,30.0,0.0,  -5.98456E-03,   3.45790E-03,  -535.376E-03,0.0420652,0.0280582,0.00927586
6324,-38.0,30.0,0.0,  -5.80027E-03,   3.07576E-03,  -501.543E-03,0.0424868,0.0263966,0.00908313
6329,-39.0,30.0,0.0,  -5.55331E-03,   2.69816E-03,  -465.673E-03,0.0428931,0.0247537,0.00881553
6332,-40.0,30.0,0.0,  -5.23591E-03,   2.32832E-03,  -427.676E-03,0.0432618,0.0231404,0.0084707
6333,-41.0,30.0,0.0,  -4.83999E-03,   1.96974E-03,  -387.467E-03,0.0435524,0.0215635,0.00804958
6338,-42.0,30.0,0.0,  -4.35767E-03,   1.62620E-03,  -344.986E-03,0.0436868,0.0200198,0.00755785
6339,-43.0,30.0,0.0,  -3.78227E-03,   1.30176E-03,  -300.210E-03,0.0435073,0.0184831,0.00700865
6344,-44.0,30.0,0.0,  -3.11057E-03,   1.00083E-03,  -253.194E-03,0.0426856,0.0168764,0.0064244
6347,-45.0,30.0,0.0,  -2.34764E-03,   728.309E-06,  -204.159E-03,0.0405231,0.015012,0.0058399
6348,-46.0,30.0,0.0,  -1.51717E-03,   489.761E-06,  -153.669E-03,0.0355156,0.0124623,0.0052947
6353,-47.0,30.0,0.0,  -682.554E-06,   291.734E-06,  -103.022E-03,0.0244024,0.00827855,0.00481086
6354,-48.0,30.0,0.0,   15.4100E-06,   141.580E-06,  -55.0922E-03,9.34759e-05,0.000372349,0.00428625
6359,-49.0,30.0,0.0,   320.631E-06,   45.2196E-06,  -16.1765E-03,-0.0528142,-0.0158286,0.00321861
6362,-50.0,30.0,0.0,   1.71248E-39,  -486.035E-42,           -0.,-0.0890541,-0.0267223,0.00149694
6363,50.0,29.0,0.0,  -1.79206E-39,  -509.421E-42,           -0.,-0.0905647,-0.0271752,-0.00149861
6368,49.0,29.0,0.0,  -335.219E-06,   45.8669E-06,  -16.5915E-03,-0.0529809,-0.015855,-0.00313127
6369,48.0,29.0,0.0,  -16.3869E-06,   140.713E-06,  -56.3909E-03,0.00155208,0.00084024,-0.00412555
6374,47.0,29.0,0.0,   705.472E-06,   286.853E-06,  -105.248E-03,0.026123,0.00881107,-0.00460888
6377,46.0,29.0,0.0,   1.56518E-03,   478.540E-06,  -156.796E-03,0.0371436,0.0129345,-0.00506093
6378,45.0,29.0,0.0,   2.42028E-03,   708.914E-06,  -208.179E-03,0.0420189,0.0153973,-0.00557504
6383,44.0,29.0,0.0,   3.20768E-03,   971.999E-06,  -258.132E-03,0.0440882,0.0171757,-0.00612869
6384,43.0,29.0,0.0,   3.90407E-03,   1.26276E-03,  -306.110E-03,0.0448617,0.0187029,-0.00668457
6389,42.0,29.0,0.0,   4.50435E-03,   1.57681E-03,  -351.903E-03,0.0450263,0.0201662,-0.00721045
6392,41.0,29.0,0.0,   5.01145E-03,   1.91014E-03,  -395.454E-03,0.0448981,0.021642,-0.00768568
6393,40.0,29.0,0.0,   5.43161E-03,   2.25904E-03,  -436.780E-03,0.0446252,0.0231561,-0.0080979
6398,39.0,29.0,0.0,   5.77224E-03,   2.61999E-03,  -475.935E-03,0.0442795,0.0247118,-0.00844139
6399,38.0,29.0,0.0,   6.04100E-03,   2.98970E-03,  -512.991E-03,0.0438971,0.0263025,-0.00871456
6404,37.0,29.0,0.0,   6.24531E-03,   3.36511E-03,  -548.029E-03,0.0434979,0.0279178,-0.00891878
6407,36.0,29.0,0.0,   6.39215E-03,   3.74337E-03,  -581.134E-03,0.0430933,0.0295462,-0.00905723
6408,35.0,29.0,0.0,   6.48800E-03,   4.12190E-03,  -612.392E-03,0.0426908,0.0311767,-0.00913425
6413,34.0,29.0,0.0,   6.53876E-03,   4.49837E-03,  -641.890E-03,0.0422955,0.0327991,-0.0091549
6414,33.0,29.0,0.0,   6.54982E-03,   4.87072E-03,  -669.712E-03,0.041911,0.0344046,-0.00912454
6419,32.0,29.0,0.0,   6.52601E-03,   5.23714E-03,  -695.942E-03,0.0415398,0.0359856,-0.00904861
6422,31.0,29.0,0.0,   6.47166E-03,   5.59607E-03,  -720.659E-03,0.0411839,0.0375356,-0.00893248
6423,30.0,29.0,0.0,   6.39065E-03,   5.94619E-03,  -743.939E-03,0.0408445,0.0390494,-0.00878123
6428,29.0,29.0,0.0,   6.28639E-03,   6.28639E-03,  -765.857E-03,0.0405225,0.0405225,-0.00859966
6429,28.0,29.0,0.0,   6.16194E-03,   6.61576E-03,  -786.480E-03,0.0402181,0.0419515,-0.00839215
6434,27.0,29.0,0.0,   6.01998E-03,   6.93358E-03,  -805.876E-03,0.0399316,0.0433338,-0.00816271
6437,26.0,29.0,0.0,   5.86288E-03,   7.23929E-03,  -824.105E-03,0.0396626,0.0446672,-0.0079149
6438,25.0,29.0,0.0,   5.69270E-03,   7.53246E-03,  -841.228E-03,0.0394107,0.04595,-0.00765187
6443,24.0,29.0,0.0,   5.51127E-03,   7.81279E-03,  -857.298E-03,0.0391756,0.0471812,-0.00737641
6444,23.0,29.0,0.0,   5.32018E-03,   8.08010E-03,  -872.366E-03,0.0389564,0.0483599,-0.0070909
6449,22.0,29.0,0.0,   5.12083E-03,   8.33430E-03,  -886.482E-03,0.0387526,0.0494857,-0.00679741
6452,21.0,29.0,0.0,   4.91442E-03,   8.57536E-03,  -899.691E-03,0.0385633,0.0505582,-0.0064977
6453,20.0,29.0,0.0,   4.70202E-03,   8.80334E-03,  -912.033E-03,0.0383879,0.0515774,-0.00619323
6458,19.0,29.0,0.0,   4.48454E-03,   9.01832E-03,  -923.548E-03,0.0382256,0.0525433,-0.00588526
6459,18.0,29.0,0.0,   4.26278E-03,   9.22046E-03,  -934.274E-03,0.0380757,0.0534561,-0.0055748
6464,17.0,29.0,0.0,   4.03743E-03,   9.40993E-03,  -944.242E-03,0.0379375,0.0543161,-0.0052627
6467,16.0,29.0,0.0,   3.80907E-03,   9.58693E-03,  -953.485E-03,0.0378104,0.0551236,-0.00494962
6468,15.0,29.0,0.0,   3.57823E-03,   9.75167E-03,  -962.032E-03,0.0376937,0.0558791,-0.0046361
6473,14.0,29.0,0.0,   3.34532E-03,   9.90439E-03,  -969.910E-03,0.037587,0.0565829,-0.00432256
6474,13.0,29.0,0.0,   3.11074E-03,   10.0453E-03,  -977.142E-03,0.0374896,0.0572356,-0.00400932
6479,12.0,29.0,0.0,   2.87478E-03,   10.1747E-03,  -983.752E-03,0.0374012,0.0578375,-0.00369661
6482,11.0,29.0,0.0,   2.63773E-03,   10.2927E-03,  -989.761E-03,0.0373213,0.0583893,-0.00338459
6483,10.0,29.0,0.0,   2.39979E-03,   10.3997E-03,  -995.186E-03,0.0372495,0.0588912,-0.00307336
6488,9.0,29.0,0.0,   2.16117E-03,   10.4957E-03,      -1.00004,0.0371856,0.0593439,-0.00276296
6489,8.0,29.0,0.0,   1.92200E-03,   10.5811E-03,      -1.00435,0.0371291,0.0597477,-0.00245342
6494,7.0,29.0,0.0,   1.68241E-03,   10.6560E-03,      -1.00812,0.0370798,0.0601029,-0.00214469
6497,6.0,29.0,0.0,   1.44251E-03,   10.7205E-03,      -1.01137,0.0370376,0.0604101,-0.00183674
6498,5.0,29.0,0.0,   1.20238E-03,   10.7748E-03,      -1.01409,0.0370022,0.0606694,-0.00152948
6503,4.0,29.0,0.0,   962.074E-06,   10.8191E-03,      -1.01632,0.0369734,0.0608812,-0.00122283
6504,3.0,29.0,0.0,   721.648E-06,   10.8535E-03,      -1.01804,0.0369512,0.0610456,-0.000916673
6509,2.0,29.0,0.0,   481.140E-06,   10.8779E-03,      -1.01926,0.0369353,0.061163,-0.000610899
6512,1.0,29.0,0.0,   240.582E-06,   10.8926E-03,      -1.01999,0.0369259,0.0612333,-0.000305384
6513,0.0,29.0,0.0,  -1.36097E-15,   10.8975E-03,      -1.02024,0.0369227,0.0612568,-3.63798e-12
6518,-1.0,29.0,0.0,  -240.582E-06,   10.8926E-03,      -1.01999,0.0369259,0.0612333,0.000305384
6519,-2.0,29.0,0.0,  -481.140E-06,   10.8779E-03,      -1.01926,0.0369353,0.061163,0.000610899
6524,-3.0,29.0,0.0,  -721.648E-06,   10.8535E-03,      -1.01804,0.0369512,0.0610456,0.000916673
6527,-4.0,29.0,0.0,  -962.074E-06,   10.8191E-03,      -1.01632,0.0369734,0.0608812,0.00122283
6528,-5.0,29.0,0.0,  -1.20238E-03,   10.7748E-03,      -1.01409,0.0370022,0.0606694,0.00152948
6533,-6.0,29.0,0.0,  -1.44251E-03,   10.7205E-03,      -1.01137,0.0370376,0.0604101,0.00183674
6534,-7.0,29.0,0.0,  -1.68241E-03,   10.6560E-03,      -1.00812,0.0370798,0.0601029,0.00214469
6539,-8.0,29.0,0.0,  -1.92200E-03,   10.5811E-03,      -1.00435,0.0371291,0.0597477,0.00245342
6542,-9.0,29.0,0.0,  -2.16117E-03,   10.4957E-03,      -1.00004,0.0371856,0.0593439,0.00276296
6543,-10.0,29.0,0.0,  -2.39979E-03,   10.3997E-03,  -995.186E-03,0.0372495,0.0588912,0.00307336
6548,-11.0,29.0,0.0,  -2.63773E-03,   10.2927E-03,  -989.761E-03,0.0373213,0.0583893,0.00338459
6549,-12.0,29.0,0.0,  -2.87478E-03,   10.1747E-03,  -983.752E-03,0.0374012,0.0578375,0.00369661
6554,-13.0,29.0,0.0,  -3.11074E-03,   10.0453E-03,  -977.142E-03,0.0374896,0.0572356,0.00400932
6557,-14.0,29.0,0.0,  -3.34532E-03,   9.90439E-03,  -969.910E-03,0.037587,0.0565829,0.00432256
6558,-15.0,29.0,0.0,  -3.57823E-03,   9.75167E-03,  -962.032E-03,0.0376937,0.0558791,0.0046361
6563,-16.0,29.0,0.0,  -3.80907E-03,   9.58693E-03,  -953.485E-03,0.0378104,0.0551236,0.00494962
6564,-17.0,29.0,0.0,  -4.03743E-03,   9.40993E-03,  -944.242E-03,0.0379375,0.0543161,0.0052627
6569,-18.0,29.0,0.0,  -4.26278E-03,   9.22046E-03,  -934.274E-03,0.0380757,0.0534561,0.0055748
6572,-19.0,29.0,0.0,  -4.48454E-03,   9.01832E-03,  -923.548E-03,0.0382256,0.0525433,0.00588526
6573,-20.0,29.0,0.0,  -4.70202E-03,   8.80334E-03,  -912.033E-03,0.0383879,0.0515774,0.00619323
6578,-21.0,29.0,0.0,  -4.91442E-03,   8.57536E-03,  -899.691E-03,0.0385633,0.0505582,0.0064977
6579,-22.0,29.0,0.0,  -5.12083E-03,   8.33430E-03,  -886.482E-03,0.0387526,0.0494857,0.00679741
6584,-23.0,29.0,0.0,  -5.32018E-03,   8.08010E-03,  -872.366E-03,0.0389564,0.0483599,0.0070909
6587,-24.0,29.0,0.0,  -5.51127E-03,   7.81279E-03,  -857.298E-03,0.0391756,0.0471812,0.00737641
6588,-25.0,29.0,0.0,  -5.69270E-03,   7.53246E-03,  -841.228E-03,0.0394107,0.04595,0.00765187
6593,-26.0,29.0,0.0,  -5.86288E-03,   7.23929E-03,  -824.105E-03,0.0396626,0.0446672,0.0079149
6594,-27.0,29.0,0.0,  -6.01998E-03,   6.93358E-03,  -805.876E-03,0.0399316,0.0433338,0.00816271
6599,-28.0,29.0,0.0,  -6.16194E-03,   6.61576E-03,  -786.480E-03,0.0402181,0.0419515,0.00839215
6602,-29.0,29.0,0.0,  -6.28639E-03,   6.28639E-03,  -765.857E-03,0.0405225,0.0405225,0.00859966
6603,-30.0,29.0,0.0,  -6.39065E-03,   5.94619E-03,  -743.939E-03,0.0408445,0.0390494,0.00878123
6608,-31.0,29.0,0.0,  -6.47166E-03,   5.59607E-03,  -720.659E-03,0.0411839,0.0375356,0.00893248
6609,-32.0,29.0,0.0,  -6.52601E-03,   5.23714E-03,  -695.942E-03,0.0415398,0.0359856,0.00904861
6614,-33.0,29.0,0.0,  -6.54982E-03,   4.87072E-03,  -669.712E-03,0.041911,0.0344046,0.00912454
6617,-34.0,29.0,0.0,  -6.53876E-03,   4.49837E-03,  -641.890E-03,0.0422955,0.0327991,0.0091549
6618,-35.0,29.0,0.0,  -6.48800E-03,   4.12190E-03,  -612.392E-03,0.0426908,0.0311767,0.00913425
6623,-36.0,29.0,0.0,  -6.39215E-03,   3.74337E-03,  -581.134E-03,0.0430933,0.0295462,0.00905723
6624,-37.0,29.0,0.0,  -6.24531E-03,   3.36511E-03,  -548.029E-03,0.0434979,0.0279178,0.00891878
6629,-38.0,29.0,0.0,  -6.04100E-03,   2.98970E-03,  -512.991E-03,0.0438971,0.0263025,0.00871456
6632,-39.0,29.0,0.0,  -5.77224E-03,   2.61999E-03,  -475.935E-03,0.0442795,0.0247118,0.00844139
6633,-40.0,29.0,0.0,  -5.43161E-03,   2.25904E-03,  -436.780E-03,0.0446252,0.0231561,0.0080979
6638,-41.0,29.0,0.0,  -5.01145E-03,   1.91014E-03,  -395.454E-03,0.0448981,0.021642,0.00768568
6639,-42.0,29.0,0.0,  -4.50435E-03,   1.57681E-03,  -351.903E-03,0.0450263,0.0201662,0.00721045
6644,-43.0,29.0,0.0,  -3.90407E-03,   1.26276E-03,  -306.110E-03,0.0448617,0.0187029,0.00668457
6647,-44.0,29.0,0.0,  -3.20768E-03,   971.999E-06,  -258.132E-03,0.0440882,0.0171757,0.00612869
6648,-45.0,29.0,0.0,  -2.42028E-03,   708.914E-06,  -208.179E-03,0.0420189,0.0153973,0.00557504
6653,-46.0,29.0,0.0,  -1.56518E-03,   478.540E-06,  -156.796E-03,0.0371436,0.0129345,0.00506093
6654,-47.0,29.0,0.0,  -705.472E-06,   286.853E-06,  -105.248E-03,0.026123,0.00881106,0.00460888
6659,-48.0,29.0,0.0,   16.3869E-06,   140.713E-06,  -56.3909E-03,0.00155208,0.00084024,0.00412555
6662,-49.0,29.0,0.0,   335.219E-06,   45.8669E-06,  -16.5915E-03,-0.0529809,-0.015855,0.00313127
6663,-50.0,29.0,0.0,   1.79206E-39,  -509.421E-42,           -0.,-0.0905647,-0.0271752,0.00149861
6668,50.0,28.0,0.0,  -1.86855E-39,  -532.168E-42,           -0.,-0.0919881,-0.0276019,-0.00149125
6669,49.0,28.0,0.0,  -349.054E-06,   46.1510E-06,  -16.9855E-03,-0.0531111,-0.0158734,-0.00303909
6674,48.0,28.0,0.0,  -16.9159E-06,   139.181E-06,  -57.6197E-03,0.00297562,0.00129374,-0.00396594
6677,47.0,28.0,0.0,   727.694E-06,   281.090E-06,  -107.346E-03,0.0277842,0.00932342,-0.00441239
6678,46.0,28.0,0.0,   1.61102E-03,   466.318E-06,  -159.734E-03,0.0387118,0.0133904,-0.00483566
6683,45.0,28.0,0.0,   2.48916E-03,   688.455E-06,  -211.949E-03,0.0434618,0.0157741,-0.00532087
6684,44.0,28.0,0.0,   3.29946E-03,   942.033E-06,  -262.756E-03,0.0454443,0.0174756,-0.00584514
6689,43.0,28.0,0.0,   4.01897E-03,   1.22250E-03,  -311.628E-03,0.0461731,0.0189319,-0.00637329
6690,42.0,28.0,0.0,   4.64264E-03,   1.52589E-03,  -358.365E-03,0.0463236,0.0203293,-0.00687552
6695,41.0,28.0,0.0,   5.17314E-03,   1.84858E-03,  -402.911E-03,0.0462002,0.0217434,-0.00733285
6696,40.0,28.0,0.0,   5.61632E-03,   2.18715E-03,  -445.277E-03,0.0459427,0.0231994,-0.0077338
6701,39.0,28.0,0.0,   5.97919E-03,   2.53836E-03,  -485.511E-03,0.0456171,0.0247007,-0.00807277
6704,38.0,28.0,0.0,   6.26897E-03,   2.89912E-03,  -523.676E-03,0.0452562,0.0262412,-0.00834777
6705,37.0,28.0,0.0,   6.49276E-03,   3.26651E-03,  -559.843E-03,0.0448774,0.0278108,-0.0085594
6710,36.0,28.0,0.0,   6.65726E-03,   3.63780E-03,  -594.088E-03,0.044491,0.0293984,-0.00870993
6711,35.0,28.0,0.0,   6.76876E-03,   4.01045E-03,  -626.489E-03,0.0441035,0.030993,-0.0088027
6716,34.0,28.0,0.0,   6.83305E-03,   4.38217E-03,  -657.124E-03,0.0437196,0.0325845,-0.0088418
6719,33.0,28.0,0.0,   6.85543E-03,   4.75087E-03,  -686.071E-03,0.0433428,0.0341639,-0.0088317
6720,32.0,28.0,0.0,   6.84074E-03,   5.11472E-03,  -713.407E-03,0.0429758,0.0357232,-0.00877707
6725,31.0,28.0,0.0,   6.79334E-03,   5.47207E-03,  -739.206E-03,0.0426207,0.0372557,-0.00868259
6726,30.0,28.0,0.0,   6.71717E-03,   5.82155E-03,  -763.541E-03,0.0422789,0.0387556,-0.00855283
6731,29.0,28.0,0.0,   6.61576E-03,   6.16194E-03,  -786.480E-03,0.0419515,0.0402181,-0.00839215
6734,28.0,28.0,0.0,   6.49227E-03,   6.49227E-03,  -808.091E-03,0.0416394,0.0416394,-0.00820465
6735,27.0,28.0,0.0,   6.34948E-03,   6.81169E-03,  -828.437E-03,0.041343,0.0430163,-0.00799409
6740,26.0,28.0,0.0,   6.18991E-03,   7.11956E-03,  -847.578E-03,0.0410623,0.0443463,-0.00776391
6741,25.0,28.0,0.0,   6.01575E-03,   7.41537E-03,  -865.573E-03,0.0407974,0.0456275,-0.00751719
6746,24.0,28.0,0.0,   5.82896E-03,   7.69874E-03,  -882.475E-03,0.040548,0.0468583,-0.00725669
6749,23.0,28.0,0.0,   5.63125E-03,   7.96939E-03,  -898.336E-03,0.0403138,0.0480378,-0.00698482
6750,22.0,28.0,0.0,   5.42414E-03,   8.22715E-03,  -913.203E-03,0.0400944,0.0491651,-0.00670368
6755,21.0,28.0,0.0,   5.20895E-03,   8.47194E-03,  -927.121E-03,0.0398892,0.0502397,-0.0064151
6756,20.0,28.0,0.0,   4.98684E-03,   8.70375E-03,  -940.134E-03,0.0396978,0.0512615,-0.00612063
6761,19.0,28.0,0.0,   4.75883E-03,   8.92261E-03,  -952.281E-03,0.0395195,0.0522303,-0.00582158
6764,18.0,28.0,0.0,   4.52581E-03,   9.12863E-03,  -963.599E-03,0.0393539,0.0531462,-0.00551908
6765,17.0,28.0,0.0,   4.28854E-03,   9.32193E-03,  -974.122E-03,0.0392003,0.0540094,-0.00521405
6770,16.0,28.0,0.0,   4.04770E-03,   9.50268E-03,  -983.883E-03,0.0390583,0.0548202,-0.00490723
6771,15.0,28.0,0.0,   3.80385E-03,   9.67106E-03,  -992.911E-03,0.0389273,0.0555788,-0.00459926
6776,14.0,28.0,0.0,   3.55751E-03,   9.82728E-03,      -1.00123,0.0388069,0.0562856,-0.00429062
6779,13.0,28.0,0.0,   3.30909E-03,   9.97153E-03,      -1.00888,0.0386966,0.0569412,-0.00398171
6780,12.0,28.0,0.0,   3.05896E-03,   10.1040E-03,      -1.01586,0.038596,0.0575459,-0.00367281
6785,11.0,28.0,0.0,   2.80743E-03,   10.2250E-03,      -1.02222,0.0385048,0.0581002,-0.00336416
6786,10.0,28.0,0.0,   2.55477E-03,   10.3347E-03,      -1.02795,0.0384226,0.0586046,-0.0030559
6791,9.0,28.0,0.0,   2.30120E-03,   10.4332E-03,      -1.03309,0.0383491,0.0590594,-0.00274813
6794,8.0,28.0,0.0,   2.04689E-03,   10.5208E-03,      -1.03765,0.038284,0.0594651,-0.00244092
6795,7.0,28.0,0.0,   1.79202E-03,   10.5977E-03,      -1.04163,0.0382271,0.0598221,-0.00213428
6800,6.0,28.0,0.0,   1.53669E-03,   10.6640E-03,      -1.04507,0.0381782,0.0601307,-0.00182819
6801,5.0,28.0,0.0,   1.28102E-03,   10.7198E-03,      -1.04795,0.0381372,0.0603912,-0.00152262
6806,4.0,28.0,0.0,   1.02509E-03,   10.7653E-03,      -1.05030,0.0381038,0.060604,-0.00121751
6809,3.0,28.0,0.0,   768.965E-06,   10.8006E-03,      -1.05212,0.0380779,0.0607693,-0.000912778
6810,2.0,28.0,0.0,   512.712E-06,   10.8258E-03,      -1.05342,0.0380595,0.0608872,-0.000608349
6815,1.0,28.0,0.0,   256.376E-06,   10.8408E-03,      -1.05419,0.0380485,0.0609579,-0.000304123
6816,0.0,28.0,0.0,  -2.60695E-15,   10.8458E-03,      -1.05445,0.0380448,0.0609814,0.0
6821,-1.0,28.0,0.0,  -256.376E-06,   10.8408E-03,      -1.05419,0.0380485,0.0609579,0.000304123
6824,-2.0,28.0,0.0,  -512.712E-06,   10.8258E-03,      -1.05342,0.0380595,0.0608872,0.000608349
6825,-3.0,28.0,0.0,  -768.965E-06,   10.8006E-03,      -1.05212,0.0380779,0.0607693,0.000912778
6830,-4.0,28.0,0.0,  -1.02509E-03,   10.7653E-03,      -1.05030,0.0381038,0.060604,0.00121751
6831,-5.0,28.0,0.0,  -1.28102E-03,   10.7198E-03,      -1.04795,0.0381372,0.0603912,0.00152262
6836,-6.0,28.0,0.0,  -1.53669E-03,   10.6640E-03,      -1.04507,0.0381782,0.0601307,0.00182819
6839,-7.0,28.0,0.0,  -1.79202E-03,   10.5977E-03,      -1.04163,0.0382271,0.0598221,0.00213428
6840,-8.0,28.0,0.0,  -2.04689E-03,   10.5208E-03,      -1.03765,0.038284,0.0594651,0.00244092
6845,-9.0,28.0,0.0,  -2.30120E-03,   10.4332E-03,      -1.03309,0.0383491,0.0590594,0.00274813
6846,-10.0,28.0,0.0,  -2.55477E-03,   10.3347E-03,      -1.02795,0.0384226,0.0586046,0.0030559
6851,-11.0,28.0,0.0,  -2.80743E-03,   10.2250E-03,      -1.02222,0.0385048,0.0581002,0.00336416
6854,-12.0,28.0,0.0,  -3.05896E-03,   10.1040E-03,      -1.01586,0.038596,0.0575459,0.00367281
6855,-13.0,28.0,0.0,  -3.30909E-03,   9.97153E-03,      -1.00888,0.0386966,0.0569412,0.00398171
6860,-14.0,28.0,0.0,  -3.55751E-03,   9.82728E-03,      -1.00123,0.0388069,0.0562856,0.00429062
6861,-15.0,28.0,0.0,  -3.80385E-03,   9.67106E-03,  -992.911E-03,0.0389273,0.0555788,0.00459926
6866,-16.0,28.0,0.0,  -4.04770E-03,   9.50268E-03,  -983.883E-03,0.0390583,0.0548202,0.00490723
6869,-17.0,28.0,0.0,  -4.28854E-03,   9.32193E-03,  -974.122E-03,0.0392003,0.0540094,0.00521405
6870,-18.0,28.0,0.0,  -4.52581E-03,   9.12863E-03,  -963.599E-03,0.0393539,0.0531462,0.00551908
6875,-19.0,28.0,0.0,  -4.75883E-03,   8.92261E-03,  -952.281E-03,0.0395195,0.0522303,0.00582158
6876,-20.0,28.0,0.0,  -4.98684E-03,   8.70375E-03,  -940.134E-03,0.0396978,0.0512615,0.00612063
6881,-21.0,28.0,0.0,  -5.20895E-03,   8.47194E-03,  -927.121E-03,0.0398892,0.0502397,0.0064151
6884,-22.0,28.0,0.0,  -5.42414E-03,   8.22715E-03,  -913.203E-03,0.0400944,0.0491651,0.00670368
6885,-23.0,28.0,0.0,  -5.63125E-03,   7.96939E-03,  -898.336E-03,0.0403138,0.0480378,0.00698482
6890,-24.0,28.0,0.0,  -5.82896E-03,   7.69874E-03,  -882.475E-03,0.040548,0.0468583,0.00725669
6891,-25.0,28.0,0.0,  -6.01575E-03,   7.41537E-03,  -865.573E-03,0.0407974,0.0456275,0.00751719
6896,-26.0,28.0,0.0,  -6.18991E-03,   7.11956E-03,  -847.578E-03,0.0410623,0.0443463,0.00776391
6899,-27.0,28.0,0.0,  -6.34948E-03,   6.81169E-03,  -828.437E-03,0.041343,0.0430163,0.00799409
6900,-28.0,28.0,0.0,  -6.49227E-03,   6.49227E-03,  -808.091E-03,0.0416394,0.0416394,0.00820465
6905,-29.0,28.0,0.0,  -6.61576E-03,   6.16194E-03,  -786.480E-03,0.0419515,0.0402181,0.00839215
6906,-30.0,28.0,0.0,  -6.71717E-03,   5.82155E-03,  -763.541E-03,0.0422789,0.0387556,0.00855283
6911,-31.0,28.0,0.0,  -6.79334E-03,   5.47207E-03,  -739.206E-03,0.0426207,0.0372557,0.00868259
6914,-32.0,28.0,0.0,  -6.84074E-03,   5.11472E-03,  -713.407E-03,0.0429758,0.0357232,0.00877707
6915,-33.0,28.0,0.0,  -6.85543E-03,   4.75087E-03,  -686.071E-03,0.0433428,0.0341639,0.0088317
6920,-34.0,28.0,0.0,  -6.83305E-03,   4.38217E-03,  -657.124E-03,0.0437196,0.0325845,0.0088418
6921,-35.0,28.0,0.0,  -6.76876E-03,   4.01045E-03,  -626.489E-03,0.0441035,0.030993,0.0088027
6926,-36.0,28.0,0.0,  -6.65726E-03,   3.63780E-03,  -594.088E-03,0.044491,0.0293984,0.00870993
6929,-37.0,28.0,0.0,  -6.49276E-03,   3.26651E-03,  -559.843E-03,0.0448774,0.0278108,0.0085594
6930,-38.0,28.0,0.0,  -6.26897E-03,   2.89912E-03,  -523.676E-03,0.0452562,0.0262412,0.00834777
6935,-39.0,28.0,0.0,  -5.97919E-03,   2.53836E-03,  -485.511E-03,0.0456171,0.0247007,0.00807277
6936,-40.0,28.0,0.0,  -5.61632E-03,   2.18715E-03,  -445.277E-03,0.0459427,0.0231994,0.0077338
6941,-41.0,28.0,0.0,  -5.17314E-03,   1.84858E-03,  -402.911E-03,0.0462002,0.0217434,0.00733285
6944,-42.0,28.0,0.0,  -4.64264E-03,   1.52589E-03,  -358.365E-03,0.0463236,0.0203293,0.00687552
6945,-43.0,28.0,0.0,  -4.01897E-03,   1.22250E-03,  -311.628E-03,0.0461731,0.0189319,0.00637329
6950,-44.0,28.0,0.0,  -3.29946E-03,   942.033E-06,  -262.756E-03,0.0454443,0.0174756,0.00584514
6951,-45.0,28.0,0.0,  -2.48916E-03,   688.455E-06,  -211.949E-03,0.0434618,0.0157741,0.00532087
6956,-46.0,28.0,0.0,  -1.61102E-03,   466.318E-06,  -159.734E-03,0.0387118,0.0133903,0.00483566
6959,-47.0,28.0,0.0,  -727.694E-06,   281.090E-06,  -107.346E-03,0.0277842,0.00932342,0.00441239
6960,-48.0,28.0,0.0,   16.9159E-06,   139.181E-06,  -57.6197E-03,0.00297562,0.00129374,0.00396594
6965,-49.0,28.0,0.0,   349.054E-06,   46.1510E-06,  -16.9855E-03,-0.0531111,-0.0158734,0.00303909
6966,-50.0,28.0,0.0,   1.86855E-39,  -532.168E-42,           -0.,-0.0919881,-0.0276019,0.00149125
6971,50.0,27.0,0.0,  -1.94200E-39,  -554.253E-42,           -0.,-0.0933284,-0.0280038,-0.00147599
6974,49.0,27.0,0.0,  -362.178E-06,   46.1162E-06,  -17.3595E-03,-0.0532091,-0.0158847,-0.00294278
6975,48.0,27.0,0.0,  -17.0814E-06,   137.065E-06,  -58.7821E-03,0.00436087,0.00173203,-0.00380737
6980,47.0,27.0,0.0,   749.160E-06,   274.563E-06,  -109.324E-03,0.0293849,0.0098149,-0.00422065
6981,46.0,27.0,0.0,   1.65470E-03,   453.238E-06,  -162.497E-03,0.0402196,0.0138285,-0.0046177
6986,45.0,27.0,0.0,   2.55442E-03,   667.100E-06,  -215.487E-03,0.0448509,0.0161402,-0.00507595
6989,44.0,27.0,0.0,   3.38614E-03,   911.138E-06,  -267.088E-03,0.0467528,0.0177725,-0.00557226
6990,43.0,27.0,0.0,   4.12732E-03,   1.18122E-03,  -316.793E-03,0.0474403,0.0191652,-0.00607351
6995,42.0,27.0,0.0,   4.77297E-03,   1.47377E-03,  -364.409E-03,0.0475775,0.0205035,-0.00655212
6996,41.0,27.0,0.0,   5.32555E-03,   1.78547E-03,  -409.879E-03,0.047458,0.0218613,-0.00699075
7001,40.0,27.0,0.0,   5.79056E-03,   2.11322E-03,  -453.215E-03,0.0472138,0.0232638,-0.00737876
7004,39.0,27.0,0.0,   6.17461E-03,   2.45400E-03,  -494.455E-03,0.046906,0.0247142,-0.00771079
7005,38.0,27.0,0.0,   6.48458E-03,   2.80492E-03,  -533.656E-03,0.0465643,0.0262068,-0.0079846
7010,37.0,27.0,0.0,   6.72722E-03,   3.16323E-03,  -570.880E-03,0.0462042,0.0277321,-0.00820027
7011,36.0,27.0,0.0,   6.90898E-03,   3.52629E-03,  -606.195E-03,0.0458346,0.0292792,-0.00835931
7016,35.0,27.0,0.0,   7.03593E-03,   3.89168E-03,  -639.672E-03,0.0454615,0.0308376,-0.00846428
7019,34.0,27.0,0.0,   7.11373E-03,   4.25712E-03,  -671.381E-03,0.0450891,0.0323973,-0.00851844
7020,33.0,27.0,0.0,   7.14760E-03,   4.62055E-03,  -701.394E-03,0.0447208,0.0339491,-0.00852549
7025,32.0,27.0,0.0,   7.14234E-03,   4.98010E-03,  -729.782E-03,0.0443592,0.0354849,-0.00848939
7026,31.0,27.0,0.0,   7.10233E-03,   5.33413E-03,  -756.613E-03,0.0440064,0.0369979,-0.00841421
7031,30.0,27.0,0.0,   7.03154E-03,   5.68118E-03,  -781.955E-03,0.0436642,0.0384818,-0.00830401
7034,29.0,27.0,0.0,   6.93358E-03,   6.01998E-03,  -805.876E-03,0.0433338,0.0399316,-0.00816271
7035,28.0,27.0,0.0,   6.81169E-03,   6.34948E-03,  -828.437E-03,0.0430163,0.041343,-0.00799409
7040,27.0,27.0,0.0,   6.66877E-03,   6.66877E-03,  -849.700E-03,0.0427125,0.0427125,-0.00780166
7041,26.0,27.0,0.0,   6.50744E-03,   6.97712E-03,  -869.725E-03,0.0424226,0.0440372,-0.0075887
7046,25.0,27.0,0.0,   6.33000E-03,   7.27393E-03,  -888.566E-03,0.0421471,0.0453148,-0.00735817
7049,24.0,27.0,0.0,   6.13854E-03,   7.55874E-03,  -906.277E-03,0.0418859,0.0465437,-0.00711277
7050,23.0,27.0,0.0,   5.93488E-03,   7.83122E-03,  -922.910E-03,0.041639,0.0477224,-0.00685487
7055,22.0,27.0,0.0,   5.72066E-03,   8.09111E-03,  -938.510E-03,0.0414062,0.0488499,-0.00658661
7056,21.0,27.0,0.0,   5.49729E-03,   8.33828E-03,  -953.125E-03,0.0411872,0.0499255,-0.00630982
7061,20.0,27.0,0.0,   5.26606E-03,   8.57264E-03,  -966.796E-03,0.0409816,0.0509489,-0.00602612
7064,19.0,27.0,0.0,   5.02806E-03,   8.79418E-03,  -979.563E-03,0.0407892,0.0519197,-0.00573688
7065,18.0,27.0,0.0,   4.78428E-03,   9.00295E-03,  -991.464E-03,0.0406094,0.0528379,-0.00544329
7070,17.0,27.0,0.0,   4.53557E-03,   9.19904E-03,      -1.00253,0.040442,0.0537035,-0.00514633
7071,16.0,27.0,0.0,   4.28267E-03,   9.38256E-03,      -1.01280,0.0402864,0.0545169,-0.00484683
7076,15.0,27.0,0.0,   4.02623E-03,   9.55368E-03,      -1.02231,0.0401423,0.0552781,-0.00454549
7079,14.0,27.0,0.0,   3.76680E-03,   9.71256E-03,      -1.03107,0.0400093,0.0559876,-0.00424286
7080,13.0,27.0,0.0,   3.50489E-03,   9.85938E-03,      -1.03912,0.0398871,0.0566457,-0.00393939
7085,12.0,27.0,0.0,   3.24089E-03,   9.99434E-03,      -1.04648,0.0397753,0.0572528,-0.00363544
7086,11.0,27.0,0.0,   2.97517E-03,   10.1176E-03,      -1.05317,0.0396735,0.0578094,-0.00333129
7091,10.0,27.0,0.0,   2.70804E-03,   10.2294E-03,      -1.05922,0.0395816,0.0583159,-0.00302714
7094,9.0,27.0,0.0,   2.43975E-03,   10.3300E-03,      -1.06463,0.0394992,0.0587727,-0.00272314
7095,8.0,27.0,0.0,   2.17053E-03,   10.4194E-03,      -1.06944,0.0394261,0.0591801,-0.0024194
7100,7.0,27.0,0.0,   1.90055E-03,   10.4979E-03,      -1.07364,0.039362,0.0595386,-0.00211598
7101,6.0,27.0,0.0,   1.62997E-03,   10.5656E-03,      -1.07726,0.0393069,0.0598486,-0.00181289
7106,5.0,27.0,0.0,   1.35893E-03,   10.6226E-03,      -1.08030,0.0392605,0.0601103,-0.00151013
7109,4.0,27.0,0.0,   1.08753E-03,   10.6691E-03,      -1.08278,0.0392227,0.0603241,-0.00120769
7110,3.0,27.0,0.0,   815.865E-06,   10.7051E-03,      -1.08470,0.0391935,0.0604901,-0.000905516
7115,2.0,27.0,0.0,   544.010E-06,   10.7308E-03,      -1.08606,0.0391726,0.0606085,-0.000603555
7116,1.0,27.0,0.0,   272.034E-06,   10.7462E-03,      -1.08688,0.0391601,0.0606795,-0.00030174
7121,0.0,27.0,0.0,  -1.53792E-15,   10.7514E-03,      -1.08715,0.039156,0.0607032,0.0
7124,-1.0,27.0,0.0,  -272.034E-06,   10.7462E-03,      -1.08688,0.0391601,0.0606795,0.00030174
7125,-2.0,27.0,0.0,  -544.010E-06,   10.7308E-03,      -1.08606,0.0391726,0.0606085,0.000603555
7130,-3.0,27.0,0.0,  -815.865E-06,   10.7051E-03,      -1.08470,0.0391935,0.0604901,0.000905516
7131,-4.0,27.0,0.0,  -1.08753E-03,   10.6691E-03,      -1.08278,0.0392227,0.0603241,0.00120769
7136,-5.0,27.0,0.0,  -1.35893E-03,   10.6226E-03,      -1.08030,0.0392605,0.0601103,0.00151013
7139,-6.0,27.0,0.0,  -1.62997E-03,   10.5656E-03,      -1.07726,0.0393069,0.0598486,0.00181289
7140,-7.0,27.0,0.0,  -1.90055E-03,   10.4979E-03,      -1.07364,0.039362,0.0595386,0.00211598
7145,-8.0,27.0,0.0,  -2.17053E-03,   10.4194E-03,      -1.06944,0.0394261,0.0591801,0.0024194
7146,-9.0,27.0,0.0,  -2.43975E-03,   10.3300E-03,      -1.06463,0.0394992,0.0587727,0.00272314
7151,-10.0,27.0,0.0,  -2.70804E-03,   10.2294E-03,      -1.05922,0.0395816,0.0583159,0.00302714
7154,-11.0,27.0,0.0,  -2.97517E-03,   10.1176E-03,      -1.05317,0.0396735,0.0578094,0.00333129
7155,-12.0,27.0,0.0,  -3.24089E-03,   9.99434E-03,      -1.04648,0.0397753,0.0572529,0.00363544
7160,-13.0,27.0,0.0,  -3.50489E-03,   9.85938E-03,      -1.03912,0.0398871,0.0566457,0.00393939
7161,-14.0,27.0,0.0,  -3.76680E-03,   9.71256E-03,      -1.03107,0.0400093,0.0559876,0.00424286
7166,-15.0,27.0,0.0,  -4.02623E-03,   9.55368E-03,      -1.02231,0.0401423,0.0552781,0.00454549
7167,-16.0,27.0,0.0,  -4.28267E-03,   9.38256E-03,      -1.01280,0.0402864,0.0545169,0.00484683
7172,-17.0,27.0,0.0,  -4.53557E-03,   9.19904E-03,      -1.00253,0.040442,0.0537035,0.00514633
7173,-18.0,27.0,0.0,  -4.78428E-03,   9.00295E-03,  -991.464E-03,0.0406094,0.0528379,0.00544329
7178,-19.0,27.0,0.0,  -5.02806E-03,   8.79418E-03,  -979.563E-03,0.0407892,0.0519197,0.00573688
7181,-20.0,27.0,0.0,  -5.26606E-03,   8.57264E-03,  -966.796E-03,0.0409816,0.0509489,0.00602612
7182,-21.0,27.0,0.0,  -5.49729E-03,   8.33828E-03,  -953.125E-03,0.0411871,0.0499255,0.00630982
7187,-22.0,27.0,0.0,  -5.72066E-03,   8.09111E-03,  -938.510E-03,0.0414062,0.0488499,0.00658661
7188,-23.0,27.0,0.0,  -5.93488E-03,   7.83122E-03,  -922.910E-03,0.041639,0.0477224,0.00685487
7193,-24.0,27.0,0.0,  -6.13854E-03,   7.55874E-03,  -906.277E-03,0.0418859,0.0465437,0.00711277
7196,-25.0,27.0,0.0,  -6.33000E-03,   7.27393E-03,  -888.566E-03,0.0421471,0.0453148,0.00735817
7197,-26.0,27.0,0.0,  -6.50744E-03,   6.97712E-03,  -869.725E-03,0.0424226,0.0440372,0.0075887
7202,-27.0,27.0,0.0,  -6.66877E-03,   6.66877E-03,  -849.700E-03,0.0427125,0.0427125,0.00780166
7203,-28.0,27.0,0.0,  -6.81169E-03,   6.34948E-03,  -828.437E-03,0.0430163,0.041343,0.00799409
7208,-29.0,27.0,0.0,  -6.93358E-03,   6.01998E-03,  -805.876E-03,0.0433338,0.0399316,0.00816271
7211,-30.0,27.0,0.0,  -7.03154E-03,   5.68118E-03,  -781.955E-03,0.0436642,0.0384818,0.00830401
7212,-31.0,27.0,0.0,  -7.10233E-03,   5.33413E-03,  -756.613E-03,0.0440064,0.0369979,0.00841421
7217,-32.0,27.0,0.0,  -7.14234E-03,   4.98010E-03,  -729.782E-03,0.0443592,0.0354849,0.00848939
7218,-33.0,27.0,0.0,  -7.14760E-03,   4.62055E-03,  -701.394E-03,0.0447208,0.0339491,0.00852549
7223,-34.0,27.0,0.0,  -7.11373E-03,   4.25712E-03,  -671.381E-03,0.0450891,0.0323972,0.00851844
7226,-35.0,27.0,0.0,  -7.03593E-03,   3.89168E-03,  -639.672E-03,0.0454615,0.0308376,0.00846428
7227,-36.0,27.0,0.0,  -6.90898E-03,   3.52629E-03,  -606.195E-03,0.0458346,0.0292792,0.00835931
7232,-37.0,27.0,0.0,  -6.72722E-03,   3.16323E-03,  -570.880E-03,0.0462042,0.0277321,0.00820027
7233,-38.0,27.0,0.0,  -6.48458E-03,   2.80492E-03,  -533.656E-03,0.0465643,0.0262068,0.0079846
7238,-39.0,27.0,0.0,  -6.17461E-03,   2.45400E-03,  -494.455E-03,0.046906,0.0247142,0.00771079
7241,-40.0,27.0,0.0,  -5.79056E-03,   2.11322E-03,  -453.215E-03,0.0472138,0.0232638,0.00737876
7242,-41.0,27.0,0.0,  -5.32555E-03,   1.78547E-03,  -409.879E-03,0.047458,0.0218613,0.00699075
7247,-42.0,27.0,0.0,  -4.77297E-03,   1.47377E-03,  -364.409E-03,0.0475775,0.0205035,0.00655212
7248,-43.0,27.0,0.0,  -4.12732E-03,   1.18122E-03,  -316.793E-03,0.0474403,0.0191652,0.00607351
7253,-44.0,27.0,0.0,  -3.38614E-03,   911.138E-06,  -267.088E-03,0.0467528,0.0177725,0.00557226
7256,-45.0,27.0,0.0,  -2.55442E-03,   667.100E-06,  -215.487E-03,0.0448509,0.0161402,0.00507595
7257,-46.0,27.0,0.0,  -1.65470E-03,   453.238E-06,  -162.497E-03,0.0402196,0.0138285,0.0046177
7262,-47.0,27.0,0.0,  -749.160E-06,   274.563E-06,  -109.324E-03,0.0293849,0.0098149,0.00422065
7263,-48.0,27.0,0.0,   17.0814E-06,   137.065E-06,  -58.7821E-03,0.00436087,0.00173203,0.00380737
7268,-49.0,27.0,0.0,   362.178E-06,   46.1162E-06,  -17.3595E-03,-0.0532091,-0.0158847,0.00294278
7271,-50.0,27.0,0.0,   1.94200E-39,  -554.253E-42,           -0.,-0.0933284,-0.0280038,0.00147599
7272,50.0,26.0,0.0,  -2.01247E-39,  -575.660E-42,           -0.,-0.0945896,-0.0283819,-0.00145384
7277,49.0,26.0,0.0,  -374.628E-06,   45.8024E-06,  -17.7143E-03,-0.0532788,-0.01589,-0.00284299
7278,48.0,26.0,0.0,  -16.9553E-06,   134.440E-06,  -59.8813E-03,0.00570521,0.00215458,-0.00364989
7283,47.0,26.0,0.0,   769.824E-06,   267.374E-06,  -111.189E-03,0.030924,0.0102853,-0.00403317
7286,46.0,26.0,0.0,   1.69624E-03,   439.426E-06,  -165.094E-03,0.0416665,0.0142484,-0.00440617
7287,45.0,26.0,0.0,   2.61617E-03,   644.994E-06,  -218.808E-03,0.0461857,0.0164938,-0.00483913
7292,44.0,26.0,0.0,   3.46793E-03,   879.481E-06,  -271.150E-03,0.0480127,0.0180636,-0.00530884
7293,43.0,26.0,0.0,   4.22942E-03,   1.13914E-03,  -321.630E-03,0.0486624,0.0193992,-0.00578407
7298,42.0,26.0,0.0,   4.89572E-03,   1.42070E-03,  -370.064E-03,0.0487872,0.0206841,-0.00623938
7301,41.0,26.0,0.0,   5.46910E-03,   1.72118E-03,  -416.396E-03,0.0486708,0.021991,-0.00665887
7302,40.0,26.0,0.0,   5.95476E-03,   2.03770E-03,  -460.634E-03,0.0484382,0.023344,-0.0070328
7307,39.0,26.0,0.0,   6.35897E-03,   2.36749E-03,  -502.813E-03,0.0481462,0.0247469,-0.00735605
7308,38.0,26.0,0.0,   6.68825E-03,   2.70785E-03,  -542.981E-03,0.0478216,0.0261942,-0.00762631
7313,37.0,26.0,0.0,   6.94905E-03,   3.05617E-03,  -581.194E-03,0.0474783,0.0276768,-0.00784322
7316,36.0,26.0,0.0,   7.14756E-03,   3.40997E-03,  -617.513E-03,0.0471244,0.0291845,-0.00800776
7317,35.0,26.0,0.0,   7.28966E-03,   3.76688E-03,  -652.001E-03,0.0467649,0.030707,-0.00812184
7322,34.0,26.0,0.0,   7.38084E-03,   4.12471E-03,  -684.724E-03,0.0464039,0.0322344,-0.00818802
7323,33.0,26.0,0.0,   7.42623E-03,   4.48143E-03,  -715.744E-03,0.0460444,0.0337578,-0.00820936
7328,32.0,26.0,0.0,   7.43059E-03,   4.83518E-03,  -745.129E-03,0.045689,0.035269,-0.00818919
7331,31.0,26.0,0.0,   7.39828E-03,   5.18430E-03,  -772.942E-03,0.0453398,0.036761,-0.00813102
7332,30.0,26.0,0.0,   7.33330E-03,   5.52730E-03,  -799.247E-03,0.0449987,0.0382273,-0.00803841
7337,29.0,26.0,0.0,   7.23929E-03,   5.86288E-03,  -824.105E-03,0.0446672,0.0396626,-0.0079149
7338,28.0,26.0,0.0,   7.11956E-03,   6.18991E-03,  -847.578E-03,0.0443463,0.0410623,-0.00776391
7343,27.0,26.0,0.0,   6.97712E-03,   6.50744E-03,  -869.725E-03,0.0440372,0.0424226,-0.0075887
7346,26.0,26.0,0.0,   6.81466E-03,   6.81466E-03,  -890.601E-03,0.0437404,0.0437404,-0.00739234
7347,25.0,26.0,0.0,   6.63460E-03,   7.11091E-03,  -910.260E-03,0.0434564,0.045013,-0.00717767
7352,24.0,26.0,0.0,   6.43912E-03,   7.39566E-03,  -928.757E-03,0.0431856,0.0462383,-0.00694726
7353,23.0,26.0,0.0,   6.23015E-03,   7.66850E-03,  -946.139E-03,0.0429281,0.0474148,-0.00670347
7358,22.0,26.0,0.0,   6.00944E-03,   7.92914E-03,  -962.454E-03,0.0426839,0.0485413,-0.00644838
7361,21.0,26.0,0.0,   5.77851E-03,   8.17734E-03,  -977.747E-03,0.042453,0.0496168,-0.00618386
7362,20.0,26.0,0.0,   5.53874E-03,   8.41299E-03,  -992.060E-03,0.0422351,0.0506407,-0.00591152
7367,19.0,26.0,0.0,   5.29131E-03,   8.63602E-03,      -1.00543,0.0420302,0.0516126,-0.00563279
7368,18.0,26.0,0.0,   5.03730E-03,   8.84643E-03,      -1.01791,0.0418379,0.0525323,-0.00534889
7373,17.0,26.0,0.0,   4.77764E-03,   9.04426E-03,      -1.02951,0.0416581,0.0533997,-0.00506086
7376,16.0,26.0,0.0,   4.51315E-03,   9.22959E-03,      -1.04029,0.0414903,0.0542151,-0.00476959
7377,15.0,26.0,0.0,   4.24454E-03,   9.40253E-03,      -1.05026,0.0413344,0.0549784,-0.00447583
7382,14.0,26.0,0.0,   3.97245E-03,   9.56324E-03,      -1.05945,0.04119,0.05569,-0.00418019
7383,13.0,26.0,0.0,   3.69741E-03,   9.71186E-03,      -1.06790,0.0410568,0.0563503,-0.00388318
7388,12.0,26.0,0.0,   3.41990E-03,   9.84856E-03,      -1.07563,0.0409347,0.0569595,-0.00358521
7391,11.0,26.0,0.0,   3.14032E-03,   9.97352E-03,      -1.08266,0.0408232,0.0575181,-0.00328661
7392,10.0,26.0,0.0,   2.85902E-03,   10.0869E-03,      -1.08901,0.0407223,0.0580264,-0.00298764
7397,9.0,26.0,0.0,   2.57630E-03,   10.1889E-03,      -1.09470,0.0406316,0.0584849,-0.00268848
7398,8.0,26.0,0.0,   2.29242E-03,   10.2797E-03,      -1.09974,0.040551,0.0588939,-0.00238928
7403,7.0,26.0,0.0,   2.00760E-03,   10.3593E-03,      -1.10416,0.0404803,0.0592538,-0.00209014
7406,6.0,26.0,0.0,   1.72201E-03,   10.4281E-03,      -1.10796,0.0404193,0.059565,-0.00179113
7407,5.0,26.0,0.0,   1.43583E-03,   10.4860E-03,      -1.11116,0.0403679,0.0598278,-0.00149227
7412,4.0,26.0,0.0,   1.14918E-03,   10.5333E-03,      -1.11377,0.0403261,0.0600424,-0.00119357
7413,3.0,26.0,0.0,   862.170E-06,   10.5699E-03,      -1.11578,0.0402936,0.0602091,-0.000895027
7418,2.0,26.0,0.0,   574.914E-06,   10.5961E-03,      -1.11722,0.0402705,0.060328,-0.000596609
7421,1.0,26.0,0.0,   287.497E-06,   10.6117E-03,      -1.11808,0.0402566,0.0603993,-0.000298281
7422,0.0,26.0,0.0,  -772.998E-18,   10.6169E-03,      -1.11837,0.040252,0.0604231,3.63798e-12
7427,-1.0,26.0,0.0,  -287.497E-06,   10.6117E-03,      -1.11808,0.0402566,0.0603993,0.000298281
7428,-2.0,26.0,0.0,  -574.914E-06,   10.5961E-03,      -1.11722,0.0402705,0.060328,0.000596609
7433,-3.0,26.0,0.0,  -862.170E-06,   10.5699E-03,      -1.11578,0.0402936,0.0602091,0.000895027
7436,-4.0,26.0,0.0,  -1.14918E-03,   10.5333E-03,      -1.11377,0.0403261,0.0600424,0.00119357
7437,-5.0,26.0,0.0,  -1.43583E-03,   10.4860E-03,      -1.11116,0.0403679,0.0598278,0.00149227
7442,-6.0,26.0,0.0,  -1.72201E-03,   10.4281E-03,      -1.10796,0.0404193,0.059565,0.00179113
7443,-7.0,26.0,0.0,  -2.00760E-03,   10.3593E-03,      -1.10416,0.0404803,0.0592538,0.00209014
7448,-8.0,26.0,0.0,  -2.29242E-03,   10.2797E-03,      -1.09974,0.040551,0.0588939,0.00238928
7451,-9.0,26.0,0.0,  -2.57630E-03,   10.1889E-03,      -1.09470,0.0406316,0.0584849,0.00268848
7452,-10.0,26.0,0.0,  -2.85902E-03,   10.0869E-03,      -1.08901,0.0407223,0.0580264,0.00298764
7457,-11.0,26.0,0.0,  -3.14032E-03,   9.97352E-03,      -1.08266,0.0408232,0.0575181,0.00328661
7458,-12.0,26.0,0.0,  -3.41990E-03,   9.84856E-03,      -1.07563,0.0409347,0.0569595,0.00358521
7463,-13.0,26.0,0.0,  -3.69741E-03,   9.71186E-03,      -1.06790,0.0410568,0.0563503,0.00388318
7466,-14.0,26.0,0.0,  -3.97245E-03,   9.56324E-03,      -1.05945,0.04119,0.05569,0.00418019
7467,-15.0,26.0,0.0,  -4.24454E-03,   9.40253E-03,      -1.05026,0.0413344,0.0549784,0.00447583
7472,-16.0,26.0,0.0,  -4.51315E-03,   9.22959E-03,      -1.04029,0.0414903,0.0542151,0.00476959
7473,-17.0,26.0,0.0,  -4.77764E-03,   9.04426E-03,      -1.02951,0.0416581,0.0533998,0.00506086
7478,-18.0,26.0,0.0,  -5.03730E-03,   8.84643E-03,      -1.01791,0.0418379,0.0525323,0.00534889
7481,-19.0,26.0,0.0,  -5.29131E-03,   8.63602E-03,      -1.00543,0.0420302,0.0516126,0.00563279
7482,-20.0,26.0,0.0,  -5.53874E-03,   8.41299E-03,  -992.060E-03,0.0422351,0.0506407,0.00591152
7487,-21.0,26.0,0.0,  -5.77851E-03,   8.17734E-03,  -977.747E-03,0.042453,0.0496168,0.00618386
7488,-22.0,26.0,0.0,  -6.00944E-03,   7.92914E-03,  -962.454E-03,0.0426839,0.0485413,0.00644838
7493,-23.0,26.0,0.0,  -6.23015E-03,   7.66850E-03,  -946.139E-03,0.0429281,0.0474148,0.00670347
7496,-24.0,26.0,0.0,  -6.43912E-03,   7.39566E-03,  -928.757E-03,0.0431856,0.0462383,0.00694726
7497,-25.0,26.0,0.0,  -6.63460E-03,   7.11091E-03,  -910.260E-03,0.0434564,0.045013,0.00717767
7502,-26.0,26.0,0.0,  -6.81466E-03,   6.81466E-03,  -890.601E-03,0.0437404,0.0437404,0.00739234
7503,-27.0,26.0,0.0,  -6.97712E-03,   6.50744E-03,  -869.725E-03,0.0440372,0.0424226,0.0075887
7508,-28.0,26.0,0.0,  -7.11956E-03,   6.18991E-03,  -847.578E-03,0.0443463,0.0410623,0.00776391
7511,-29.0,26.0,0.0,  -7.23929E-03,   5.86288E-03,  -824.105E-03,0.0446672,0.0396626,0.0079149
7512,-30.0,26.0,0.0,  -7.33330E-03,   5.52730E-03,  -799.247E-03,0.0449987,0.0382273,0.00803841
7517,-31.0,26.0,0.0,  -7.39828E-03,   5.18430E-03,  -772.942E-03,0.0453398,0.036761,0.00813102
7518,-32.0,26.0,0.0,  -7.43059E-03,   4.83518E-03,  -745.129E-03,0.045689,0.035269,0.00818919
7523,-33.0,26.0,0.0,  -7.42623E-03,   4.48143E-03,  -715.744E-03,0.0460444,0.0337578,0.00820936
7526,-34.0,26.0,0.0,  -7.38084E-03,   4.12471E-03,  -684.724E-03,0.0464039,0.0322344,0.00818802
7527,-35.0,26.0,0.0,  -7.28966E-03,   3.76688E-03,  -652.001E-03,0.0467649,0.030707,0.00812184
7532,-36.0,26.0,0.0,  -7.14756E-03,   3.40997E-03,  -617.513E-03,0.0471244,0.0291845,0.00800776
7533,-37.0,26.0,0.0,  -6.94905E-03,   3.05617E-03,  -581.194E-03,0.0474783,0.0276768,0.00784322
7538,-38.0,26.0,0.0,  -6.68825E-03,   2.70785E-03,  -542.981E-03,0.0478216,0.0261942,0.00762631
7541,-39.0,26.0,0.0,  -6.35897E-03,   2.36749E-03,  -502.813E-03,0.0481462,0.024747,0.00735605
7542,-40.0,26.0,0.0,  -5.95476E-03,   2.03770E-03,  -460.634E-03,0.0484382,0.023344,0.0070328
7547,-41.0,26.0,0.0,  -5.46910E-03,   1.72118E-03,  -416.396E-03,0.0486708,0.021991,0.00665887
7548,-42.0,26.0,0.0,  -4.89572E-03,   1.42070E-03,  -370.064E-03,0.0487872,0.0206841,0.00623938
7553,-43.0,26.0,0.0,  -4.22942E-03,   1.13914E-03,  -321.630E-03,0.0486624,0.0193992,0.00578407
7556,-44.0,26.0,0.0,  -3.46793E-03,   879.481E-06,  -271.150E-03,0.0480127,0.0180636,0.00530884
7557,-45.0,26.0,0.0,  -2.61617E-03,   644.994E-06,  -218.808E-03,0.0461857,0.0164938,0.00483913
7562,-46.0,26.0,0.0,  -1.69624E-03,   439.426E-06,  -165.094E-03,0.0416665,0.0142484,0.00440617
7563,-47.0,26.0,0.0,  -769.824E-06,   267.374E-06,  -111.189E-03,0.030924,0.0102853,0.00403317
7568,-48.0,26.0,0.0,   16.9553E-06,   134.440E-06,  -59.8813E-03,0.00570521,0.00215458,0.00364989
7571,-49.0,26.0,0.0,   374.628E-06,   45.8024E-06,  -17.7143E-03,-0.0532788,-0.01589,0.00284299
7572,-50.0,26.0,0.0,   2.01247E-39,  -575.660E-42,           -0.,-0.0945896,-0.0283819,0.00145384
7577,50.0,25.0,0.0,  -2.08000E-39,  -596.374E-42,           -0.,-0.0957751,-0.0287374,-0.00142573
7578,49.0,25.0,0.0,  -386.434E-06,   45.2450E-06,  -18.0506E-03,-0.0533237,-0.0158899,-0.00274036
7583,48.0,25.0,0.0,  -16.5991E-06,   131.373E-06,  -60.9199E-03,0.00700646,0.0025611,-0.0034936
7586,47.0,25.0,0.0,   789.648E-06,   259.615E-06,  -112.945E-03,0.032401,0.0107345,-0.00384958
7587,46.0,25.0,0.0,   1.73568E-03,   424.990E-06,  -167.536E-03,0.0430527,0.0146496,-0.00420035
7592,45.0,25.0,0.0,   2.67452E-03,   622.261E-06,  -221.925E-03,0.047466,0.0168341,-0.0046095
7593,44.0,25.0,0.0,   3.54504E-03,   847.204E-06,  -274.958E-03,0.0492237,0.0183471,-0.00505385
7598,43.0,25.0,0.0,   4.32556E-03,   1.09640E-03,  -326.161E-03,0.0498384,0.0196312,-0.005504
7601,42.0,25.0,0.0,   5.01123E-03,   1.36690E-03,  -375.357E-03,0.0499518,0.0208679,-0.00593644
7602,41.0,25.0,0.0,   5.60419E-03,   1.65596E-03,  -422.492E-03,0.049838,0.0221282,-0.00633667
7607,40.0,25.0,0.0,   6.10937E-03,   1.96095E-03,  -467.572E-03,0.0496156,0.023436,-0.00669573
7608,39.0,25.0,0.0,   6.53270E-03,   2.27930E-03,  -510.625E-03,0.0493375,0.0247946,-0.00700885
7613,38.0,25.0,0.0,   6.88040E-03,   2.60849E-03,  -551.696E-03,0.0490282,0.0261992,-0.00727365
7616,37.0,25.0,0.0,   7.15862E-03,   2.94609E-03,  -590.835E-03,0.0487002,0.0276411,-0.00748954
7617,36.0,25.0,0.0,   7.37332E-03,   3.28972E-03,  -628.095E-03,0.0483606,0.0291107,-0.00765705
7622,35.0,25.0,0.0,   7.53016E-03,   3.63714E-03,  -663.533E-03,0.048014,0.0305979,-0.00777756
7623,34.0,25.0,0.0,   7.63449E-03,   3.98622E-03,  -697.209E-03,0.047664,0.0320933,-0.0078531
7628,33.0,25.0,0.0,   7.69135E-03,   4.33497E-03,  -729.181E-03,0.0473134,0.033588,-0.00788615
7631,32.0,25.0,0.0,   7.70540E-03,   4.68157E-03,  -759.509E-03,0.0469647,0.0350739,-0.00787949
7632,31.0,25.0,0.0,   7.68099E-03,   5.02436E-03,  -788.254E-03,0.0466201,0.0365438,-0.00783614
7637,30.0,25.0,0.0,   7.62211E-03,   5.36185E-03,  -815.474E-03,0.0462813,0.0379913,-0.00775922
7638,29.0,25.0,0.0,   7.53246E-03,   5.69270E-03,  -841.228E-03,0.04595,0.0394107,-0.00765187
7643,28.0,25.0,0.0,   7.41537E-03,   6.01575E-03,  -865.573E-03,0.0456275,0.0407974,-0.00751719
7644,27.0,25.0,0.0,   7.27393E-03,   6.33000E-03,  -888.566E-03,0.0453148,0.0421471,-0.00735817
7649,26.0,25.0,0.0,   7.11091E-03,   6.63460E-03,  -910.260E-03,0.045013,0.0434564,-0.00717767
7650,25.0,25.0,0.0,   6.92881E-03,   6.92881E-03,  -930.709E-03,0.0447225,0.0447225,-0.00697835
7655,24.0,25.0,0.0,   6.72992E-03,   7.21207E-03,  -949.963E-03,0.044444,0.0459431,-0.00676268
7658,23.0,25.0,0.0,   6.51627E-03,   7.48389E-03,  -968.071E-03,0.0441778,0.0471162,-0.00653293
7659,22.0,25.0,0.0,   6.28967E-03,   7.74392E-03,  -985.079E-03,0.0439241,0.0482404,-0.00629115
7664,21.0,25.0,0.0,   6.05178E-03,   7.99188E-03,      -1.00103,0.043683,0.0493147,-0.00603917
7665,20.0,25.0,0.0,   5.80404E-03,   8.22760E-03,      -1.01597,0.0434546,0.0503382,-0.00577862
7670,19.0,25.0,0.0,   5.54774E-03,   8.45096E-03,      -1.02994,0.0432388,0.0513103,-0.00551093
7673,18.0,25.0,0.0,   5.28404E-03,   8.66190E-03,      -1.04297,0.0430356,0.0522307,-0.00523735
7674,17.0,25.0,0.0,   5.01395E-03,   8.86043E-03,      -1.05510,0.0428447,0.0530993,-0.00495897
7679,16.0,25.0,0.0,   4.73836E-03,   9.04659E-03,      -1.06636,0.0426661,0.0539159,-0.00467671
7680,15.0,25.0,0.0,   4.45805E-03,   9.22047E-03,      -1.07679,0.0424995,0.0546808,-0.00439137
7685,14.0,25.0,0.0,   4.17373E-03,   9.38217E-03,      -1.08641,0.0423448,0.0553941,-0.0041036
7688,13.0,25.0,0.0,   3.88599E-03,   9.53182E-03,      -1.09525,0.0422017,0.0560561,-0.00381396
7689,12.0,25.0,0.0,   3.59536E-03,   9.66956E-03,      -1.10334,0.0420701,0.056667,-0.00352291
7694,11.0,25.0,0.0,   3.30229E-03,   9.79554E-03,      -1.11070,0.0419498,0.0572273,-0.00323082
7695,10.0,25.0,0.0,   3.00718E-03,   9.90992E-03,      -1.11735,0.0418406,0.0577372,-0.00293799
7700,9.0,25.0,0.0,   2.71037E-03,   10.0128E-03,      -1.12331,0.0417423,0.0581972,-0.00264466
7703,8.0,25.0,0.0,   2.41215E-03,   10.1045E-03,      -1.12860,0.0416548,0.0586076,-0.00235101
7704,7.0,25.0,0.0,   2.11278E-03,   10.1850E-03,      -1.13323,0.0415779,0.0589688,-0.00205717
7709,6.0,25.0,0.0,   1.81248E-03,   10.2544E-03,      -1.13721,0.0415115,0.0592811,-0.00176324
7710,5.0,25.0,0.0,   1.51143E-03,   10.3130E-03,      -1.14056,0.0414555,0.0595448,-0.00146929
7715,4.0,25.0,0.0,   1.20979E-03,   10.3608E-03,      -1.14329,0.0414099,0.0597602,-0.00117536
7718,3.0,25.0,0.0,   907.713E-06,   10.3978E-03,      -1.14541,0.0413744,0.0599275,-0.000881466
7719,2.0,25.0,0.0,   605.313E-06,   10.4242E-03,      -1.14691,0.0413492,0.0600468,-0.000587615
7724,1.0,25.0,0.0,   302.707E-06,   10.4401E-03,      -1.14781,0.041334,0.0601184,-0.000293798
7725,0.0,25.0,0.0,   4.64471E-15,   10.4453E-03,      -1.14811,0.041329,0.0601422,0.0
7730,-1.0,25.0,0.0,  -302.707E-06,   10.4401E-03,      -1.14781,0.041334,0.0601184,0.000293798
7733,-2.0,25.0,0.0,  -605.313E-06,   10.4242E-03,      -1.14691,0.0413492,0.0600468,0.000587615
7734,-3.0,25.0,0.0,  -907.713E-06,   10.3978E-03,      -1.14541,0.0413744,0.0599275,0.000881466
7739,-4.0,25.0,0.0,  -1.20979E-03,   10.3608E-03,      -1.14329,0.0414099,0.0597602,0.00117536
7740,-5.0,25.0,0.0,  -1.51143E-03,   10.3130E-03,      -1.14056,0.0414555,0.0595448,0.00146929
7745,-6.0,25.0,0.0,  -1.81248E-03,   10.2544E-03,      -1.13721,0.0415115,0.0592811,0.00176324
7748,-7.0,25.0,0.0,  -2.11278E-03,   10.1850E-03,      -1.13323,0.0415779,0.0589688,0.00205717
7749,-8.0,25.0,0.0,  -2.41215E-03,   10.1045E-03,      -1.12860,0.0416548,0.0586076,0.00235101
7754,-9.0,25.0,0.0,  -2.71037E-03,   10.0128E-03,      -1.12331,0.0417423,0.0581972,0.00264466
7755,-10.0,25.0,0.0,  -3.00718E-03,   9.90992E-03,      -1.11735,0.0418406,0.0577372,0.00293799
7760,-11.0,25.0,0.0,  -3.30229E-03,   9.79554E-03,      -1.11070,0.0419498,0.0572273,0.00323082
7763,-12.0,25.0,0.0,  -3.59536E-03,   9.66956E-03,      -1.10334,0.0420701,0.056667,0.00352291
7764,-13.0,25.0,0.0,  -3.88599E-03,   9.53182E-03,      -1.09525,0.0422017,0.0560561,0.00381396
7769,-14.0,25.0,0.0,  -4.17373E-03,   9.38217E-03,      -1.08641,0.0423448,0.0553941,0.0041036
7770,-15.0,25.0,0.0,  -4.45805E-03,   9.22047E-03,      -1.07679,0.0424995,0.0546808,0.00439137
7775,-16.0,25.0,0.0,  -4.73836E-03,   9.04659E-03,      -1.06636,0.0426661,0.053916,0.00467671
7778,-17.0,25.0,0.0,  -5.01395E-03,   8.86043E-03,      -1.05510,0.0428447,0.0530993,0.00495897
7779,-18.0,25.0,0.0,  -5.28404E-03,   8.66190E-03,      -1.04297,0.0430356,0.0522307,0.00523735
7784,-19.0,25.0,0.0,  -5.54774E-03,   8.45096E-03,      -1.02994,0.0432388,0.0513103,0.00551093
7785,-20.0,25.0,0.0,  -5.80404E-03,   8.22760E-03,      -1.01597,0.0434546,0.0503382,0.00577862
7790,-21.0,25.0,0.0,  -6.05178E-03,   7.99188E-03,      -1.00103,0.043683,0.0493147,0.00603917
7793,-22.0,25.0,0.0,  -6.28967E-03,   7.74392E-03,  -985.079E-03,0.0439241,0.0482404,0.00629115
7794,-23.0,25.0,0.0,  -6.51627E-03,   7.48389E-03,  -968.071E-03,0.0441778,0.0471162,0.00653293
7799,-24.0,25.0,0.0,  -6.72992E-03,   7.21207E-03,  -949.963E-03,0.044444,0.0459431,0.00676268
7800,-25.0,25.0,0.0,  -6.92881E-03,   6.92881E-03,  -930.709E-03,0.0447225,0.0447225,0.00697835
7805,-26.0,25.0,0.0,  -7.11091E-03,   6.63460E-03,  -910.260E-03,0.045013,0.0434564,0.00717767
7808,-27.0,25.0,0.0,  -7.27393E-03,   6.33000E-03,  -888.566E-03,0.0453148,0.0421471,0.00735817
7809,-28.0,25.0,0.0,  -7.41537E-03,   6.01575E-03,  -865.573E-03,0.0456275,0.0407974,0.00751719
7814,-29.0,25.0,0.0,  -7.53246E-03,   5.69270E-03,  -841.228E-03,0.04595,0.0394107,0.00765187
7815,-30.0,25.0,0.0,  -7.62211E-03,   5.36185E-03,  -815.474E-03,0.0462813,0.0379913,0.00775922
7820,-31.0,25.0,0.0,  -7.68099E-03,   5.02436E-03,  -788.254E-03,0.0466201,0.0365438,0.00783614
7823,-32.0,25.0,0.0,  -7.70540E-03,   4.68157E-03,  -759.509E-03,0.0469647,0.0350739,0.00787949
7824,-33.0,25.0,0.0,  -7.69135E-03,   4.33497E-03,  -729.181E-03,0.0473134,0.033588,0.00788615
7829,-34.0,25.0,0.0,  -7.63449E-03,   3.98622E-03,  -697.209E-03,0.047664,0.0320933,0.0078531
7830,-35.0,25.0,0.0,  -7.53016E-03,   3.63714E-03,  -663.533E-03,0.048014,0.0305979,0.00777756
7835,-36.0,25.0,0.0,  -7.37332E-03,   3.28972E-03,  -628.095E-03,0.0483606,0.0291107,0.00765705
7838,-37.0,25.0,0.0,  -7.15862E-03,   2.94609E-03,  -590.835E-03,0.0487002,0.0276411,0.00748955
7839,-38.0,25.0,0.0,  -6.88040E-03,   2.60849E-03,  -551.696E-03,0.0490282,0.0261992,0.00727365
7844,-39.0,25.0,0.0,  -6.53270E-03,   2.27930E-03,  -510.625E-03,0.0493375,0.0247946,0.00700885
7845,-40.0,25.0,0.0,  -6.10937E-03,   1.96095E-03,  -467.572E-03,0.0496156,0.023436,0.00669573
7850,-41.0,25.0,0.0,  -5.60419E-03,   1.65596E-03,  -422.492E-03,0.049838,0.0221282,0.00633667
7853,-42.0,25.0,0.0,  -5.01123E-03,   1.36690E-03,  -375.357E-03,0.0499518,0.0208679,0.00593644
7854,-43.0,25.0,0.0,  -4.32556E-03,   1.09640E-03,  -326.161E-03,0.0498384,0.0196312,0.005504
7859,-44.0,25.0,0.0,  -3.54504E-03,   847.204E-06,  -274.958E-03,0.0492236,0.0183471,0.00505385
7860,-45.0,25.0,0.0,  -2.67452E-03,   622.261E-06,  -221.925E-03,0.047466,0.0168341,0.0046095
7865,-46.0,25.0,0.0,  -1.73568E-03,   424.990E-06,  -167.536E-03,0.0430527,0.0146496,0.00420035
7868,-47.0,25.0,0.0,  -789.648E-06,   259.615E-06,  -112.945E-03,0.032401,0.0107345,0.00384958
7869,-48.0,25.0,0.0,   16.5991E-06,   131.373E-06,  -60.9199E-03,0.00700646,0.0025611,0.0034936
7874,-49.0,25.0,0.0,   386.434E-06,   45.2450E-06,  -18.0506E-03,-0.0533237,-0.0158899,0.00274036
7875,-50.0,25.0,0.0,   2.08000E-39,  -596.374E-42,           -0.,-0.0957751,-0.0287374,0.00142573
7880,50.0,24.0,0.0,  -2.14462E-39,  -616.382E-42,           -0.,-0.0968885,-0.0290713,-0.00139246
7883,49.0,24.0,0.0,  -397.624E-06,   44.4753E-06,  -18.3690E-03,-0.0533469,-0.0158852,-0.00263543
7884,48.0,24.0,0.0,  -16.0646E-06,   127.922E-06,  -61.9006E-03,0.00826281,0.00295143,-0.00333858
7889,47.0,24.0,0.0,   808.609E-06,   251.365E-06,  -114.598E-03,0.0338158,0.0111629,-0.00366961
7890,46.0,24.0,0.0,   1.77305E-03,   410.025E-06,  -169.830E-03,0.0443784,0.0150323,-0.0039997
7895,45.0,24.0,0.0,   2.72959E-03,   599.007E-06,  -224.850E-03,0.0486919,0.0171603,-0.00438631
7898,44.0,24.0,0.0,   3.61765E-03,   814.427E-06,  -278.527E-03,0.0503851,0.0186217,-0.00480643
7899,43.0,24.0,0.0,   4.41598E-03,   1.05317E-03,  -330.405E-03,0.050968,0.0198593,-0.0052324
7904,42.0,24.0,0.0,   5.11983E-03,   1.31254E-03,  -380.311E-03,0.0510708,0.0210522,-0.00564252
7905,41.0,24.0,0.0,   5.73121E-03,   1.59004E-03,  -428.195E-03,0.0509591,0.0222701,-0.00602352
7910,40.0,24.0,0.0,   6.25479E-03,   1.88325E-03,  -474.059E-03,0.0507456,0.0235361,-0.00636724
7913,39.0,24.0,0.0,   6.69622E-03,   2.18980E-03,  -517.929E-03,0.0504799,0.0248537,-0.00666921
7914,38.0,24.0,0.0,   7.06143E-03,   2.50735E-03,  -559.843E-03,0.0501843,0.0262182,-0.0069271
7919,37.0,24.0,0.0,   7.35631E-03,   2.83360E-03,  -599.846E-03,0.0498701,0.0276216,-0.00714012
7920,36.0,24.0,0.0,   7.58657E-03,   3.16632E-03,  -637.987E-03,0.0495437,0.0290545,-0.00730847
7925,35.0,24.0,0.0,   7.75769E-03,   3.50336E-03,  -674.316E-03,0.0492091,0.0305075,-0.00743315
7928,34.0,24.0,0.0,   7.87487E-03,   3.84269E-03,  -708.888E-03,0.0488696,0.0319713,-0.0075157
7929,33.0,24.0,0.0,   7.94302E-03,   4.18238E-03,  -741.756E-03,0.0485279,0.0334374,-0.00755814
7934,32.0,24.0,0.0,   7.96674E-03,   4.52064E-03,  -772.976E-03,0.0481862,0.0348978,-0.0075628
7935,31.0,24.0,0.0,   7.95034E-03,   4.85585E-03,  -802.603E-03,0.0478467,0.0363451,-0.00753225
7940,30.0,24.0,0.0,   7.89779E-03,   5.18650E-03,  -830.691E-03,0.0475111,0.0377729,-0.00746919
7943,29.0,24.0,0.0,   7.81279E-03,   5.51127E-03,  -857.298E-03,0.0471812,0.0391756,-0.00737641
7944,28.0,24.0,0.0,   7.69874E-03,   5.82896E-03,  -882.475E-03,0.0468583,0.040548,-0.00725669
7949,27.0,24.0,0.0,   7.55874E-03,   6.13854E-03,  -906.277E-03,0.0465437,0.0418859,-0.00711277
7950,26.0,24.0,0.0,   7.39566E-03,   6.43912E-03,  -928.757E-03,0.0462383,0.0431856,-0.00694726
7955,25.0,24.0,0.0,   7.21207E-03,   6.72992E-03,  -949.963E-03,0.0459431,0.044444,-0.00676268
7958,24.0,24.0,0.0,   7.01032E-03,   7.01032E-03,  -969.947E-03,0.0456586,0.0456586,-0.00656135
7959,23.0,24.0,0.0,   6.79255E-03,   7.27980E-03,  -988.755E-03,0.0453853,0.0468272,-0.00634545
7964,22.0,24.0,0.0,   6.56066E-03,   7.53795E-03,      -1.00643,0.0451238,0.0479481,-0.00611695
7965,21.0,24.0,0.0,   6.31637E-03,   7.78443E-03,      -1.02302,0.0448743,0.0490202,-0.00587765
7970,20.0,24.0,0.0,   6.06124E-03,   8.01903E-03,      -1.03857,0.0446369,0.0500424,-0.00562916
7973,19.0,24.0,0.0,   5.79663E-03,   8.24158E-03,      -1.05311,0.0444117,0.0510139,-0.00537291
7974,18.0,24.0,0.0,   5.52378E-03,   8.45199E-03,      -1.06668,0.0441989,0.0519343,-0.00511015
7979,17.0,24.0,0.0,   5.24378E-03,   8.65022E-03,      -1.07932,0.0439984,0.0528033,-0.004842
7980,16.0,24.0,0.0,   4.95760E-03,   8.83627E-03,      -1.09106,0.0438101,0.0536207,-0.00456941
7985,15.0,24.0,0.0,   4.66609E-03,   9.01018E-03,      -1.10194,0.0436341,0.0543866,-0.00429319
7988,14.0,24.0,0.0,   4.37001E-03,   9.17205E-03,      -1.11198,0.0434701,0.0551011,-0.00401406
7989,13.0,24.0,0.0,   4.07001E-03,   9.32196E-03,      -1.12121,0.0433181,0.0557644,-0.00373261
7994,12.0,24.0,0.0,   3.76669E-03,   9.46002E-03,      -1.12965,0.043178,0.0563767,-0.00344932
7995,11.0,24.0,0.0,   3.46054E-03,   9.58638E-03,      -1.13734,0.0430496,0.0569383,-0.00316462
8000,10.0,24.0,0.0,   3.15201E-03,   9.70117E-03,      -1.14428,0.0429328,0.0574495,-0.00287883
8003,9.0,24.0,0.0,   2.84149E-03,   9.80451E-03,      -1.15050,0.0428276,0.0579108,-0.00259224
8004,8.0,24.0,0.0,   2.52930E-03,   9.89655E-03,      -1.15603,0.0427337,0.0583224,-0.00230506
8009,7.0,24.0,0.0,   2.21574E-03,   9.97743E-03,      -1.16086,0.0426512,0.0586846,-0.00201745
8010,6.0,24.0,0.0,   1.90106E-03,   10.0472E-03,      -1.16502,0.0425798,0.0589979,-0.00172956
8015,5.0,24.0,0.0,   1.58548E-03,   10.1061E-03,      -1.16853,0.0425196,0.0592624,-0.00144148
8018,4.0,24.0,0.0,   1.26918E-03,   10.1542E-03,      -1.17138,0.0424704,0.0594785,-0.00115327
8019,3.0,24.0,0.0,   952.336E-06,   10.1914E-03,      -1.17359,0.0424322,0.0596463,-0.000864996
8024,2.0,24.0,0.0,   635.102E-06,   10.2180E-03,      -1.17516,0.042405,0.059766,-0.00057668
8025,1.0,24.0,0.0,   317.614E-06,   10.2339E-03,      -1.17611,0.0423887,0.0598378,-0.000288344
8030,0.0,24.0,0.0,   6.69004E-15,   10.2392E-03,      -1.17642,0.0423832,0.0598618,7.27596e-12
8033,-1.0,24.0,0.0,  -317.614E-06,   10.2339E-03,      -1.17611,0.0423887,0.0598378,0.000288344
8034,-2.0,24.0,0.0,  -635.102E-06,   10.2180E-03,      -1.17516,0.042405,0.059766,0.00057668
8039,-3.0,24.0,0.0,  -952.336E-06,   10.1914E-03,      -1.17359,0.0424322,0.0596463,0.000864996
8040,-4.0,24.0,0.0,  -1.26918E-03,   10.1542E-03,      -1.17138,0.0424704,0.0594785,0.00115327
8045,-5.0,24.0,0.0,  -1.58548E-03,   10.1061E-03,      -1.16853,0.0425196,0.0592624,0.00144148
8048,-6.0,24.0,0.0,  -1.90106E-03,   10.0472E-03,      -1.16502,0.0425798,0.0589979,0.00172956
8049,-7.0,24.0,0.0,  -2.21574E-03,   9.97743E-03,      -1.16086,0.0426512,0.0586846,0.00201745
8054,-8.0,24.0,0.0,  -2.52930E-03,   9.89655E-03,      -1.15603,0.0427337,0.0583224,0.00230506
8055,-9.0,24.0,0.0,  -2.84149E-03,   9.80451E-03,      -1.15050,0.0428276,0.0579108,0.00259224
8060,-10.0,24.0,0.0,  -3.15201E-03,   9.70117E-03,      -1.14428,0.0429328,0.0574495,0.00287883
8063,-11.0,24.0,0.0,  -3.46054E-03,   9.58638E-03,      -1.13734,0.0430496,0.0569383,0.00316462
8064,-12.0,24.0,0.0,  -3.76669E-03,   9.46002E-03,      -1.12965,0.043178,0.0563767,0.00344932
8069,-13.0,24.0,0.0,  -4.07001E-03,   9.32196E-03,      -1.12121,0.0433181,0.0557644,0.00373261
8070,-14.0,24.0,0.0,  -4.37001E-03,   9.17205E-03,      -1.11198,0.0434701,0.0551011,0.00401406
8075,-15.0,24.0,0.0,  -4.66609E-03,   9.01018E-03,      -1.10194,0.0436341,0.0543866,0.00429319
8078,-16.0,24.0,0.0,  -4.95760E-03,   8.83627E-03,      -1.09106,0.0438101,0.0536207,0.00456941
8079,-17.0,24.0,0.0,  -5.24378E-03,   8.65022E-03,      -1.07932,0.0439984,0.0528033,0.004842
8084,-18.0,24.0,0.0,  -5.52378E-03,   8.45199E-03,      -1.06668,0.0441989,0.0519343,0.00511015
8085,-19.0,24.0,0.0,  -5.79663E-03,   8.24158E-03,      -1.05311,0.0444117,0.0510139,0.00537291
8090,-20.0,24.0,0.0,  -6.06124E-03,   8.01903E-03,      -1.03857,0.0446369,0.0500424,0.00562916
8093,-21.0,24.0,0.0,  -6.31637E-03,   7.78443E-03,      -1.02302,0.0448743,0.0490202,0.00587765
8094,-22.0,24.0,0.0,  -6.56066E-03,   7.53795E-03,      -1.00643,0.0451238,0.0479481,0.00611695
8099,-23.0,24.0,0.0,  -6.79255E-03,   7.27980E-03,  -988.755E-03,0.0453853,0.0468272,0.00634545
8100,-24.0,24.0,0.0,  -7.01032E-03,   7.01032E-03,  -969.947E-03,0.0456586,0.0456586,0.00656135
8105,-25.0,24.0,0.0,  -7.21207E-03,   6.72992E-03,  -949.963E-03,0.0459431,0.044444,0.00676268
8108,-26.0,24.0,0.0,  -7.39566E-03,   6.43912E-03,  -928.757E-03,0.0462383,0.0431856,0.00694726
8109,-27.0,24.0,0.0,  -7.55874E-03,   6.13854E-03,  -906.277E-03,0.0465437,0.0418859,0.00711277
8114,-28.0,24.0,0.0,  -7.69874E-03,   5.82896E-03,  -882.475E-03,0.0468583,0.040548,0.00725669
8115,-29.0,24.0,0.0,  -7.81279E-03,   5.51127E-03,  -857.298E-03,0.0471812,0.0391756,0.00737641
8120,-30.0,24.0,0.0,  -7.89779E-03,   5.18650E-03,  -830.691E-03,0.0475111,0.0377729,0.00746919
8123,-31.0,24.0,0.0,  -7.95034E-03,   4.85585E-03,  -802.603E-03,0.0478467,0.0363451,0.00753225
8124,-32.0,24.0,0.0,  -7.96674E-03,   4.52064E-03,  -772.976E-03,0.0481862,0.0348978,0.0075628
8129,-33.0,24.0,0.0,  -7.94302E-03,   4.18238E-03,  -741.756E-03,0.0485279,0.0334374,0.00755814
8130,-34.0,24.0,0.0,  -7.87487E-03,   3.84269E-03,  -708.888E-03,0.0488696,0.0319713,0.0075157
8135,-35.0,24.0,0.0,  -7.75769E-03,   3.50336E-03,  -674.316E-03,0.0492091,0.0305075,0.00743315
8138,-36.0,24.0,0.0,  -7.58657E-03,   3.16632E-03,  -637.987E-03,0.0495437,0.0290545,0.00730847
8139,-37.0,24.0,0.0,  -7.35631E-03,   2.83360E-03,  -599.846E-03,0.0498701,0.0276216,0.00714012
8144,-38.0,24.0,0.0,  -7.06143E-03,   2.50735E-03,  -559.843E-03,0.0501843,0.0262182,0.0069271
8145,-39.0,24.0,0.0,  -6.69622E-03,   2.18980E-03,  -517.929E-03,0.0504799,0.0248537,0.00666921
8150,-40.0,24.0,0.0,  -6.25479E-03,   1.88325E-03,  -474.059E-03,0.0507456,0.0235361,0.00636724
8153,-41.0,24.0,0.0,  -5.73121E-03,   1.59004E-03,  -428.195E-03,0.0509591,0.0222701,0.00602352
8154,-42.0,24.0,0.0,  -5.11983E-03,   1.31254E-03,  -380.311E-03,0.0510708,0.0210522,0.00564252
8159,-43.0,24.0,0.0,  -4.41598E-03,   1.05317E-03,  -330.405E-03,0.050968,0.0198593,0.0052324
8160,-44.0,24.0,0.0,  -3.61765E-03,   814.427E-06,  -278.527E-03,0.0503851,0.0186217,0.00480643
8165,-45.0,24.0,0.0,  -2.72959E-03,   599.007E-06,  -224.850E-03,0.0486919,0.0171603,0.00438631
8168,-46.0,24.0,0.0,  -1.77305E-03,   410.025E-06,  -169.830E-03,0.0443784,0.0150323,0.0039997
8169,-47.0,24.0,0.0,  -808.609E-06,   251.365E-06,  -114.598E-03,0.0338158,0.0111629,0.00366961
8174,-48.0,24.0,0.0,   16.0646E-06,   127.922E-06,  -61.9006E-03,0.00826281,0.00295143,0.00333858
8175,-49.0,24.0,0.0,   397.624E-06,   44.4753E-06,  -18.3690E-03,-0.0533469,-0.0158852,0.00263543
8180,-50.0,24.0,0.0,   2.14462E-39,  -616.382E-42,           -0.,-0.0968885,-0.0290713,0.00139246
8183,50.0,23.0,0.0,  -2.20639E-39,  -635.675E-42,           -0.,-0.0979329,-0.0293844,-0.00135474
8184,49.0,23.0,0.0,  -408.223E-06,   43.5204E-06,  -18.6701E-03,-0.0533514,-0.0158766,-0.00252867
8189,48.0,23.0,0.0,  -15.3952E-06,   124.137E-06,  -62.8258E-03,0.00947277,0.00332547,-0.00318494
8190,47.0,23.0,0.0,   826.688E-06,   242.693E-06,  -116.154E-03,0.0351684,0.0115706,-0.00349301
8195,46.0,23.0,0.0,   1.80840E-03,   394.613E-06,  -171.985E-03,0.0456437,0.0153964,-0.00380374
8198,45.0,23.0,0.0,   2.78148E-03,   575.324E-06,  -227.594E-03,0.0498633,0.0174723,-0.00416892
8199,44.0,23.0,0.0,   3.68594E-03,   781.252E-06,  -281.872E-03,0.051497,0.0188866,-0.00456585
8204,43.0,23.0,0.0,   4.50094E-03,   1.00955E-03,  -334.379E-03,0.0520505,0.0200818,-0.00496852
8205,42.0,23.0,0.0,   5.22182E-03,   1.25777E-03,  -384.947E-03,0.0521437,0.021235,-0.00535688
8210,41.0,23.0,0.0,   5.85049E-03,   1.52361E-03,  -433.529E-03,0.0520337,0.0224142,-0.00571884
8213,40.0,23.0,0.0,   6.39140E-03,   1.80486E-03,  -480.124E-03,0.0518281,0.0236417,-0.00604694
8214,39.0,23.0,0.0,   6.84994E-03,   2.09932E-03,  -524.755E-03,0.0515733,0.0249212,-0.00633703
8219,38.0,23.0,0.0,   7.23176E-03,   2.40482E-03,  -567.456E-03,0.05129,0.0262482,-0.00658686
8220,37.0,23.0,0.0,   7.54250E-03,   2.71921E-03,  -608.266E-03,0.0509883,0.0276151,-0.00679552
8225,36.0,23.0,0.0,   7.78767E-03,   3.04038E-03,  -647.231E-03,0.0506739,0.0290131,-0.00696296
8228,35.0,23.0,0.0,   7.97256E-03,   3.36630E-03,  -684.396E-03,0.0503505,0.0304331,-0.00708986
8229,34.0,23.0,0.0,   8.10221E-03,   3.69502E-03,  -719.809E-03,0.050021,0.0318663,-0.0071774
8234,33.0,23.0,0.0,   8.18142E-03,   4.02469E-03,  -753.520E-03,0.0496879,0.0333042,-0.0072272
8235,32.0,23.0,0.0,   8.21471E-03,   4.35358E-03,  -785.580E-03,0.0493533,0.034739,-0.00724119
8240,31.0,23.0,0.0,   8.20632E-03,   4.68008E-03,  -816.040E-03,0.0490193,0.0361636,-0.00722155
8243,30.0,23.0,0.0,   8.16022E-03,   5.00273E-03,  -844.952E-03,0.0486876,0.0375713,-0.00717064
8244,29.0,23.0,0.0,   8.08010E-03,   5.32018E-03,  -872.366E-03,0.0483599,0.0389564,-0.0070909
8249,28.0,23.0,0.0,   7.96939E-03,   5.63125E-03,  -898.336E-03,0.0480378,0.0403138,-0.00698482
8250,27.0,23.0,0.0,   7.83122E-03,   5.93488E-03,  -922.910E-03,0.0477224,0.041639,-0.00685487
8255,26.0,23.0,0.0,   7.66850E-03,   6.23015E-03,  -946.139E-03,0.0474148,0.0429281,-0.00670347
8258,25.0,23.0,0.0,   7.48389E-03,   6.51627E-03,  -968.071E-03,0.0471162,0.0441778,-0.00653293
8259,24.0,23.0,0.0,   7.27980E-03,   6.79255E-03,  -988.755E-03,0.0468272,0.0453853,-0.00634545
8264,23.0,23.0,0.0,   7.05844E-03,   7.05844E-03,      -1.00824,0.0465484,0.0465484,-0.00614309
8265,22.0,23.0,0.0,   6.82180E-03,   7.31348E-03,      -1.02656,0.0462806,0.0476652,-0.00592773
8270,21.0,23.0,0.0,   6.57168E-03,   7.55732E-03,      -1.04376,0.046024,0.0487342,-0.00570112
8273,20.0,23.0,0.0,   6.30971E-03,   7.78967E-03,      -1.05990,0.0457791,0.0497542,-0.00546484
8274,19.0,23.0,0.0,   6.03734E-03,   8.01033E-03,      -1.07499,0.045546,0.0507244,-0.00522029
8279,18.0,23.0,0.0,   5.75589E-03,   8.21917E-03,      -1.08909,0.0453249,0.051644,-0.00496873
8280,17.0,23.0,0.0,   5.46652E-03,   8.41611E-03,      -1.10223,0.045116,0.0525128,-0.00471127
8285,16.0,23.0,0.0,   5.17026E-03,   8.60111E-03,      -1.11444,0.0449193,0.0533305,-0.00444888
8288,15.0,23.0,0.0,   4.86805E-03,   8.77420E-03,      -1.12575,0.0447349,0.0540969,-0.00418241
8289,14.0,23.0,0.0,   4.56070E-03,   8.93542E-03,      -1.13619,0.0445627,0.0548121,-0.00391258
8294,13.0,23.0,0.0,   4.24893E-03,   9.08483E-03,      -1.14579,0.0444027,0.0554763,-0.00364002
8295,12.0,23.0,0.0,   3.93337E-03,   9.22253E-03,      -1.15458,0.0442549,0.0560895,-0.00336525
8300,11.0,23.0,0.0,   3.61459E-03,   9.34863E-03,      -1.16258,0.0441193,0.0566522,-0.00308871
8303,10.0,23.0,0.0,   3.29308E-03,   9.46324E-03,      -1.16982,0.0439957,0.0571645,-0.00281079
8304,9.0,23.0,0.0,   2.96926E-03,   9.56648E-03,      -1.17630,0.0438841,0.0576268,-0.00253177
8309,8.0,23.0,0.0,   2.64351E-03,   9.65846E-03,      -1.18205,0.0437845,0.0580393,-0.00225191
8310,7.0,23.0,0.0,   2.31615E-03,   9.73931E-03,      -1.18709,0.0436968,0.0584025,-0.00197142
8315,6.0,23.0,0.0,   1.98747E-03,   9.80914E-03,      -1.19143,0.0436209,0.0587166,-0.00169044
8318,5.0,23.0,0.0,   1.65773E-03,   9.86804E-03,      -1.19508,0.0435568,0.0589818,-0.00140912
8319,4.0,23.0,0.0,   1.32713E-03,   9.91610E-03,      -1.19805,0.0435044,0.0591985,-0.00112754
8324,3.0,23.0,0.0,   995.894E-06,   9.95341E-03,      -1.20036,0.0434636,0.0593667,-0.000845789
8325,2.0,23.0,0.0,   664.183E-06,   9.98001E-03,      -1.20200,0.0434346,0.0594868,-0.000563918
8330,1.0,23.0,0.0,   332.167E-06,   9.99595E-03,      -1.20298,0.0434172,0.0595588,-0.000281976
8333,0.0,23.0,0.0,   9.16476E-15,   10.0013E-03,      -1.20331,0.0434113,0.0595828,-1.81899e-12
8334,-1.0,23.0,0.0,  -332.167E-06,   9.99595E-03,      -1.20298,0.0434172,0.0595588,0.000281976
8339,-2.0,23.0,0.0,  -664.183E-06,   9.98001E-03,      -1.20200,0.0434346,0.0594868,0.000563918
8340,-3.0,23.0,0.0,  -995.894E-06,   9.95341E-03,      -1.20036,0.0434636,0.0593667,0.000845789
8345,-4.0,23.0,0.0,  -1.32713E-03,   9.91610E-03,      -1.19805,0.0435044,0.0591985,0.00112754
8348,-5.0,23.0,0.0,  -1.65773E-03,   9.86804E-03,      -1.19508,0.0435568,0.0589818,0.00140912
8349,-6.0,23.0,0.0,  -1.98747E-03,   9.80914E-03,      -1.19143,0.0436209,0.0587166,0.00169044
8354,-7.0,23.0,0.0,  -2.31615E-03,   9.73931E-03,      -1.18709,0.0436968,0.0584025,0.00197142
8355,-8.0,23.0,0.0,  -2.64351E-03,   9.65846E-03,      -1.18205,0.0437845,0.0580393,0.00225191
8360,-9.0,23.0,0.0,  -2.96926E-03,   9.56648E-03,      -1.17630,0.0438841,0.0576268,0.00253177
8363,-10.0,23.0,0.0,  -3.29308E-03,   9.46324E-03,      -1.16982,0.0439957,0.0571645,0.00281079
8364,-11.0,23.0,0.0,  -3.61459E-03,   9.34863E-03,      -1.16258,0.0441193,0.0566522,0.00308871
8369,-12.0,23.0,0.0,  -3.93337E-03,   9.22253E-03,      -1.15458,0.0442549,0.0560895,0.00336525
8370,-13.0,23.0,0.0,  -4.24893E-03,   9.08483E-03,      -1.14579,0.0444027,0.0554763,0.00364002
8375,-14.0,23.0,0.0,  -4.56070E-03,   8.93542E-03,      -1.13619,0.0445627,0.0548121,0.00391258
8378,-15.0,23.0,0.0,  -4.86805E-03,   8.77420E-03,      -1.12575,0.0447349,0.0540969,0.00418241
8379,-16.0,23.0,0.0,  -5.17026E-03,   8.60111E-03,      -1.11444,0.0449193,0.0533305,0.00444888
8384,-17.0,23.0,0.0,  -5.46652E-03,   8.41611E-03,      -1.10223,0.045116,0.0525128,0.00471127
8385,-18.0,23.0,0.0,  -5.75589E-03,   8.21917E-03,      -1.08909,0.0453249,0.051644,0.00496873
8390,-19.0,23.0,0.0,  -6.03734E-03,   8.01033E-03,      -1.07499,0.045546,0.0507244,0.00522029
8393,-20.0,23.0,0.0,  -6.30971E-03,   7.78967E-03,      -1.05990,0.0457791,0.0497542,0.00546484
8394,-21.0,23.0,0.0,  -6.57168E-03,   7.55732E-03,      -1.04376,0.046024,0.0487342,0.00570112
8399,-22.0,23.0,0.0,  -6.82180E-03,   7.31348E-03,      -1.02656,0.0462806,0.0476652,0.00592773
8400,-23.0,23.0,0.0,  -7.05844E-03,   7.05844E-03,      -1.00824,0.0465484,0.0465485,0.00614308
8405,-24.0,23.0,0.0,  -7.27980E-03,   6.79255E-03,  -988.755E-03,0.0468272,0.0453853,0.00634545
8408,-25.0,23.0,0.0,  -7.48389E-03,   6.51627E-03,  -968.071E-03,0.0471162,0.0441778,0.00653293
8409,-26.0,23.0,0.0,  -7.66850E-03,   6.23015E-03,  -946.139E-03,0.0474148,0.0429281,0.00670347
8414,-27.0,23.0,0.0,  -7.83122E-03,   5.93488E-03,  -922.910E-03,0.0477224,0.041639,0.00685487
8415,-28.0,23.0,0.0,  -7.96939E-03,   5.63125E-03,  -898.336E-03,0.0480378,0.0403138,0.00698482
8420,-29.0,23.0,0.0,  -8.08010E-03,   5.32018E-03,  -872.366E-03,0.0483599,0.0389564,0.0070909
8423,-30.0,23.0,0.0,  -8.16022E-03,   5.00273E-03,  -844.952E-03,0.0486876,0.0375713,0.00717064
8424,-31.0,23.0,0.0,  -8.20632E-03,   4.68008E-03,  -816.040E-03,0.0490193,0.0361636,0.00722155
8429,-32.0,23.0,0.0,  -8.21471E-03,   4.35358E-03,  -785.580E-03,0.0493533,0.034739,0.00724119
8430,-33.0,23.0,0.0,  -8.18142E-03,   4.02469E-03,  -753.520E-03,0.0496879,0.0333042,0.0072272
8435,-34.0,23.0,0.0,  -8.10221E-03,   3.69502E-03,  -719.809E-03,0.050021,0.0318663,0.0071774
8438,-35.0,23.0,0.0,  -7.97256E-03,   3.36630E-03,  -684.396E-03,0.0503505,0.0304331,0.00708986
8439,-36.0,23.0,0.0,  -7.78767E-03,   3.04038E-03,  -647.231E-03,0.0506739,0.0290131,0.00696296
8444,-37.0,23.0,0.0,  -7.54250E-03,   2.71921E-03,  -608.266E-03,0.0509883,0.0276151,0.00679552
8445,-38.0,23.0,0.0,  -7.23176E-03,   2.40482E-03,  -567.456E-03,0.05129,0.0262482,0.00658686
8450,-39.0,23.0,0.0,  -6.84994E-03,   2.09932E-03,  -524.755E-03,0.0515733,0.0249212,0.00633703
8453,-40.0,23.0,0.0,  -6.39140E-03,   1.80486E-03,  -480.124E-03,0.0518281,0.0236417,0.00604694
8454,-41.0,23.0,0.0,  -5.85049E-03,   1.52361E-03,  -433.529E-03,0.0520337,0.0224142,0.00571884
8459,-42.0,23.0,0.0,  -5.22182E-03,   1.25777E-03,  -384.947E-03,0.0521437,0.021235,0.00535688
8460,-43.0,23.0,0.0,  -4.50094E-03,   1.00955E-03,  -334.379E-03,0.0520505,0.0200818,0.00496852
8465,-44.0,23.0,0.0,  -3.68594E-03,   781.252E-06,  -281.872E-03,0.051497,0.0188866,0.00456585
8468,-45.0,23.0,0.0,  -2.78148E-03,   575.324E-06,  -227.594E-03,0.0498633,0.0174723,0.00416892
8469,-46.0,23.0,0.0,  -1.80840E-03,   394.613E-06,  -171.985E-03,0.0456437,0.0153964,0.00380374
8474,-47.0,23.0,0.0,  -826.688E-06,   242.693E-06,  -116.154E-03,0.0351684,0.0115706,0.00349301
8475,-48.0,23.0,0.0,   15.3952E-06,   124.137E-06,  -62.8258E-03,0.00947277,0.00332547,0.00318494
8480,-49.0,23.0,0.0,   408.223E-06,   43.5204E-06,  -18.6701E-03,-0.0533514,-0.0158766,0.00252867
8483,-50.0,23.0,0.0,   2.20639E-39,  -635.675E-42,           -0.,-0.0979329,-0.0293844,0.00135474
8484,50.0,22.0,0.0,  -2.26533E-39,  -654.244E-42,           -0.,-0.0989114,-0.0296779,-0.00131318
8489,49.0,22.0,0.0,  -418.252E-06,   42.4040E-06,  -18.9545E-03,-0.0533397,-0.0158644,-0.0024205
8490,48.0,22.0,0.0,  -14.6277E-06,   120.064E-06,  -63.6974E-03,0.0106351,0.00368318,-0.00303275
8495,47.0,22.0,0.0,   843.876E-06,   233.660E-06,  -117.616E-03,0.0364587,0.011958,-0.00331959
8498,46.0,22.0,0.0,   1.84175E-03,   378.825E-06,  -174.007E-03,0.0468493,0.0157423,-0.00361208
8499,45.0,22.0,0.0,   2.83029E-03,   551.290E-06,  -230.165E-03,0.0509805,0.0177699,-0.0039568
8504,44.0,22.0,0.0,   3.75007E-03,   747.764E-06,  -285.005E-03,0.0525591,0.019141,-0.00433146
8505,43.0,22.0,0.0,   4.58065E-03,   965.646E-06,  -338.098E-03,0.0530857,0.0202976,-0.00471165
8510,42.0,22.0,0.0,   5.31748E-03,   1.20269E-03,  -389.284E-03,0.05317,0.0214147,-0.00507885
8513,41.0,22.0,0.0,   5.96237E-03,   1.45681E-03,  -438.516E-03,0.0530615,0.0225584,-0.00542204
8514,40.0,22.0,0.0,   6.51957E-03,   1.72596E-03,  -485.791E-03,0.0528629,0.0237506,-0.00573439
8519,39.0,22.0,0.0,   6.99423E-03,   2.00811E-03,  -531.132E-03,0.0526179,0.0249947,-0.00601209
8520,38.0,22.0,0.0,   7.39176E-03,   2.30123E-03,  -574.566E-03,0.0523455,0.0262867,-0.00625298
8525,37.0,22.0,0.0,   7.71758E-03,   2.60333E-03,  -616.131E-03,0.0520551,0.0276193,-0.00645607
8528,36.0,22.0,0.0,   7.97698E-03,   2.91242E-03,  -655.866E-03,0.0517517,0.0289842,-0.00662115
8529,35.0,22.0,0.0,   8.17508E-03,   3.22658E-03,  -693.812E-03,0.0514386,0.0303726,-0.00674864
8534,34.0,22.0,0.0,   8.31677E-03,   3.54396E-03,  -730.014E-03,0.0511185,0.0317761,-0.00683942
8535,33.0,22.0,0.0,   8.40674E-03,   3.86279E-03,  -764.517E-03,0.0507937,0.0331865,-0.00689479
8540,32.0,22.0,0.0,   8.44941E-03,   4.18138E-03,  -797.368E-03,0.0504661,0.0345962,-0.00691634
8543,31.0,22.0,0.0,   8.44899E-03,   4.49820E-03,  -828.613E-03,0.0501378,0.0359979,-0.00690592
8544,30.0,22.0,0.0,   8.40939E-03,   4.81178E-03,  -858.302E-03,0.0498105,0.0373854,-0.00686556
8549,29.0,22.0,0.0,   8.33430E-03,   5.12083E-03,  -886.482E-03,0.0494857,0.0387526,-0.00679741
8550,28.0,22.0,0.0,   8.22715E-03,   5.42414E-03,  -913.203E-03,0.0491651,0.0400944,-0.00670368
8555,27.0,22.0,0.0,   8.09111E-03,   5.72066E-03,  -938.510E-03,0.0488499,0.0414062,-0.00658661
8558,26.0,22.0,0.0,   7.92914E-03,   6.00944E-03,  -962.454E-03,0.0485413,0.0426839,-0.00644838
8559,25.0,22.0,0.0,   7.74392E-03,   6.28967E-03,  -985.079E-03,0.0482404,0.0439241,-0.00629115
8564,24.0,22.0,0.0,   7.53795E-03,   6.56066E-03,      -1.00643,0.0479481,0.0451238,-0.00611695
8565,23.0,22.0,0.0,   7.31348E-03,   6.82180E-03,      -1.02656,0.0476652,0.0462806,-0.00592773
8570,22.0,22.0,0.0,   7.07260E-03,   7.07260E-03,      -1.04550,0.0473924,0.0473924,-0.00572528
8573,21.0,22.0,0.0,   6.81717E-03,   7.31267E-03,      -1.06330,0.0471301,0.0484575,-0.00551128
8574,20.0,22.0,0.0,   6.54890E-03,   7.54169E-03,      -1.07999,0.0468789,0.0494746,-0.00528724
8579,19.0,22.0,0.0,   6.26931E-03,   7.75943E-03,      -1.09563,0.0466391,0.0504427,-0.00505456
8580,18.0,22.0,0.0,   5.97980E-03,   7.96570E-03,      -1.11023,0.046411,0.051361,-0.00481445
8585,17.0,22.0,0.0,   5.68159E-03,   8.16040E-03,      -1.12385,0.0461949,0.052229,-0.00456805
8588,16.0,22.0,0.0,   5.37579E-03,   8.34347E-03,      -1.13651,0.0459908,0.0530463,-0.0043163
8589,15.0,22.0,0.0,   5.06340E-03,   8.51489E-03,      -1.14824,0.0457991,0.0538127,-0.00406008
8594,14.0,22.0,0.0,   4.74528E-03,   8.67467E-03,      -1.15908,0.0456196,0.0545282,-0.00380013
8595,13.0,22.0,0.0,   4.42223E-03,   8.82285E-03,      -1.16905,0.0454526,0.0551929,-0.00353708
8600,12.0,22.0,0.0,   4.09494E-03,   8.95951E-03,      -1.17817,0.045298,0.0558068,-0.0032715
8601,11.0,22.0,0.0,   3.76400E-03,   9.08472E-03,      -1.18648,0.0451558,0.0563702,-0.00300384
8606,10.0,22.0,0.0,   3.42996E-03,   9.19858E-03,      -1.19399,0.0450261,0.0568832,-0.0027345
8607,9.0,22.0,0.0,   3.09330E-03,   9.30120E-03,      -1.20073,0.0449089,0.0573463,-0.00246382
8612,8.0,22.0,0.0,   2.75442E-03,   9.39267E-03,      -1.20671,0.044804,0.0577596,-0.00219208
8615,7.0,22.0,0.0,   2.41370E-03,   9.47309E-03,      -1.21194,0.0447116,0.0581235,-0.00191949
8616,6.0,22.0,0.0,   2.07145E-03,   9.54257E-03,      -1.21645,0.0446316,0.0584383,-0.00164625
8621,5.0,22.0,0.0,   1.72796E-03,   9.60120E-03,      -1.22025,0.0445639,0.0587041,-0.00137252
8622,4.0,22.0,0.0,   1.38349E-03,   9.64905E-03,      -1.22334,0.0445086,0.0589212,-0.0010984
8627,3.0,22.0,0.0,   1.03825E-03,   9.68619E-03,      -1.22573,0.0444655,0.0590899,-0.00082402
8630,2.0,22.0,0.0,   692.467E-06,   9.71268E-03,      -1.22744,0.0444348,0.0592102,-0.000549446
8631,1.0,22.0,0.0,   346.322E-06,   9.72856E-03,      -1.22846,0.0444164,0.0592824,-0.000274752
8636,0.0,22.0,0.0,   6.68637E-15,   9.73385E-03,      -1.22880,0.0444103,0.0593065,3.63798e-12
8637,-1.0,22.0,0.0,  -346.322E-06,   9.72856E-03,      -1.22846,0.0444164,0.0592824,0.000274752
8642,-2.0,22.0,0.0,  -692.467E-06,   9.71268E-03,      -1.22744,0.0444348,0.0592102,0.000549445
8645,-3.0,22.0,0.0,  -1.03825E-03,   9.68619E-03,      -1.22573,0.0444655,0.0590899,0.00082402
8646,-4.0,22.0,0.0,  -1.38349E-03,   9.64905E-03,      -1.22334,0.0445086,0.0589212,0.0010984
8651,-5.0,22.0,0.0,  -1.72796E-03,   9.60120E-03,      -1.22025,0.0445639,0.0587041,0.00137252
8652,-6.0,22.0,0.0,  -2.07145E-03,   9.54257E-03,      -1.21645,0.0446316,0.0584382,0.00164625
8657,-7.0,22.0,0.0,  -2.41370E-03,   9.47309E-03,      -1.21194,0.0447116,0.0581235,0.00191949
8660,-8.0,22.0,0.0,  -2.75442E-03,   9.39267E-03,      -1.20671,0.044804,0.0577596,0.00219208
8661,-9.0,22.0,0.0,  -3.09330E-03,   9.30120E-03,      -1.20073,0.0449089,0.0573463,0.00246382
8666,-10.0,22.0,0.0,  -3.42996E-03,   9.19858E-03,      -1.19399,0.0450261,0.0568832,0.0027345
8667,-11.0,22.0,0.0,  -3.76400E-03,   9.08472E-03,      -1.18648,0.0451558,0.0563702,0.00300384
8672,-12.0,22.0,0.0,  -4.09494E-03,   8.95951E-03,      -1.17817,0.045298,0.0558068,0.0032715
8675,-13.0,22.0,0.0,  -4.42223E-03,   8.82285E-03,      -1.16905,0.0454526,0.0551929,0.00353708
8676,-14.0,22.0,0.0,  -4.74528E-03,   8.67467E-03,      -1.15908,0.0456196,0.0545282,0.00380013
8681,-15.0,22.0,0.0,  -5.06340E-03,   8.51489E-03,      -1.14824,0.0457991,0.0538127,0.00406008
8682,-16.0,22.0,0.0,  -5.37579E-03,   8.34347E-03,      -1.13651,0.0459908,0.0530463,0.0043163
8687,-17.0,22.0,0.0,  -5.68159E-03,   8.16040E-03,      -1.12385,0.0461949,0.052229,0.00456805
8690,-18.0,22.0,0.0,  -5.97980E-03,   7.96570E-03,      -1.11023,0.046411,0.051361,0.00481445
8691,-19.0,22.0,0.0,  -6.26931E-03,   7.75943E-03,      -1.09563,0.0466391,0.0504427,0.00505455
8696,-20.0,22.0,0.0,  -6.54890E-03,   7.54169E-03,      -1.07999,0.0468789,0.0494746,0.00528724
8697,-21.0,22.0,0.0,  -6.81717E-03,   7.31267E-03,      -1.06330,0.0471301,0.0484575,0.00551128
8702,-22.0,22.0,0.0,  -7.07260E-03,   7.07260E-03,      -1.04550,0.0473924,0.0473924,0.00572528
8705,-23.0,22.0,0.0,  -7.31348E-03,   6.82180E-03,      -1.02656,0.0476652,0.0462806,0.00592773
8706,-24.0,22.0,0.0,  -7.53795E-03,   6.56066E-03,      -1.00643,0.0479481,0.0451238,0.00611695
8711,-25.0,22.0,0.0,  -7.74392E-03,   6.28967E-03,  -985.079E-03,0.0482404,0.0439241,0.00629115
8712,-26.0,22.0,0.0,  -7.92914E-03,   6.00944E-03,  -962.454E-03,0.0485413,0.0426839,0.00644838
8717,-27.0,22.0,0.0,  -8.09111E-03,   5.72066E-03,  -938.510E-03,0.0488499,0.0414062,0.00658661
8720,-28.0,22.0,0.0,  -8.22715E-03,   5.42414E-03,  -913.203E-03,0.0491651,0.0400944,0.00670368
8721,-29.0,22.0,0.0,  -8.33430E-03,   5.12083E-03,  -886.482E-03,0.0494857,0.0387526,0.00679741
8726,-30.0,22.0,0.0,  -8.40939E-03,   4.81178E-03,  -858.302E-03,0.0498105,0.0373854,0.00686556
8727,-31.0,22.0,0.0,  -8.44899E-03,   4.49820E-03,  -828.613E-03,0.0501378,0.0359979,0.00690592
8732,-32.0,22.0,0.0,  -8.44941E-03,   4.18138E-03,  -797.368E-03,0.0504661,0.0345962,0.00691634
8735,-33.0,22.0,0.0,  -8.40674E-03,   3.86279E-03,  -764.517E-03,0.0507937,0.0331865,0.00689479
8736,-34.0,22.0,0.0,  -8.31677E-03,   3.54396E-03,  -730.014E-03,0.0511185,0.0317761,0.00683942
8741,-35.0,22.0,0.0,  -8.17508E-03,   3.22658E-03,  -693.812E-03,0.0514386,0.0303726,0.00674864
8742,-36.0,22.0,0.0,  -7.97698E-03,   2.91242E-03,  -655.866E-03,0.0517517,0.0289842,0.00662115
8747,-37.0,22.0,0.0,  -7.71758E-03,   2.60333E-03,  -616.131E-03,0.0520551,0.0276193,0.00645607
8750,-38.0,22.0,0.0,  -7.39176E-03,   2.30123E-03,  -574.566E-03,0.0523455,0.0262867,0.00625298
8751,-39.0,22.0,0.0,  -6.99423E-03,   2.00811E-03,  -531.132E-03,0.0526179,0.0249947,0.00601209
8756,-40.0,22.0,0.0,  -6.51957E-03,   1.72596E-03,  -485.791E-03,0.0528629,0.0237506,0.00573439
8757,-41.0,22.0,0.0,  -5.96237E-03,   1.45681E-03,  -438.516E-03,0.0530615,0.0225584,0.00542204
8762,-42.0,22.0,0.0,  -5.31748E-03,   1.20269E-03,  -389.284E-03,0.0531701,0.0214147,0.00507885
8765,-43.0,22.0,0.0,  -4.58065E-03,   965.646E-06,  -338.098E-03,0.0530857,0.0202976,0.00471165
8766,-44.0,22.0,0.0,  -3.75007E-03,   747.764E-06,  -285.005E-03,0.0525591,0.019141,0.00433146
8771,-45.0,22.0,0.0,  -2.83029E-03,   551.290E-06,  -230.165E-03,0.0509805,0.0177699,0.0039568
8772,-46.0,22.0,0.0,  -1.84175E-03,   378.825E-06,  -174.007E-03,0.0468493,0.0157423,0.00361208
8777,-47.0,22.0,0.0,  -843.876E-06,   233.660E-06,  -117.616E-03,0.0364587,0.011958,0.00331959
8780,-48.0,22.0,0.0,   14.6277E-06,   120.064E-06,  -63.6974E-03,0.0106351,0.00368318,0.00303275
8781,-49.0,22.0,0.0,   418.252E-06,   42.4040E-06,  -18.9545E-03,-0.0533397,-0.0158644,0.0024205
8786,-50.0,22.0,0.0,   2.26533E-39,  -654.244E-42,           -0.,-0.0989114,-0.0296779,0.00131318
8787,50.0,21.0,0.0,  -2.32147E-39,  -672.084E-42,           -0.,-0.0998269,-0.0299524,-0.0012683
8792,49.0,21.0,0.0,  -427.730E-06,   41.1463E-06,  -19.2227E-03,-0.0533144,-0.0158494,-0.00231128
8795,48.0,21.0,0.0,  -13.7926E-06,   115.739E-06,  -64.5177E-03,0.0117486,0.00402455,-0.00288207
8796,47.0,21.0,0.0,   860.171E-06,   224.318E-06,  -118.989E-03,0.037687,0.0123256,-0.00314918
8801,46.0,21.0,0.0,   1.87317E-03,   362.721E-06,  -175.902E-03,0.0479955,0.0160703,-0.00342438
8802,45.0,21.0,0.0,   2.87612E-03,   526.970E-06,  -232.573E-03,0.0520439,0.0180529,-0.00374948
8807,44.0,21.0,0.0,   3.81020E-03,   714.034E-06,  -287.936E-03,0.0535714,0.0193845,-0.00410272
8810,43.0,21.0,0.0,   4.65533E-03,   921.535E-06,  -341.575E-03,0.0540734,0.020506,-0.0044612
8811,42.0,21.0,0.0,   5.40707E-03,   1.14742E-03,  -393.337E-03,0.0541497,0.02159,-0.00480783
8816,41.0,21.0,0.0,   6.06715E-03,   1.38977E-03,  -443.174E-03,0.0540423,0.0227012,-0.00513255
8817,40.0,21.0,0.0,   6.63964E-03,   1.64671E-03,  -491.084E-03,0.0538499,0.0238609,-0.00542914
8822,39.0,21.0,0.0,   7.12946E-03,   1.91637E-03,  -537.085E-03,0.0536136,0.0250723,-0.0056941
8825,38.0,21.0,0.0,   7.54183E-03,   2.19686E-03,  -581.204E-03,0.0533511,0.0263316,-0.00592537
8826,37.0,21.0,0.0,   7.88193E-03,   2.48631E-03,  -623.472E-03,0.0530708,0.027632,-0.00612193
8831,36.0,21.0,0.0,   8.15486E-03,   2.78288E-03,  -663.925E-03,0.0527774,0.0289656,-0.00628345
8832,35.0,21.0,0.0,   8.36558E-03,   3.08475E-03,  -702.602E-03,0.0524739,0.0303239,-0.00641015
8837,34.0,21.0,0.0,   8.51885E-03,   3.39015E-03,  -739.542E-03,0.0521626,0.0316989,-0.00650268
8840,33.0,21.0,0.0,   8.61922E-03,   3.69741E-03,  -774.788E-03,0.0518456,0.0330827,-0.00656206
8841,32.0,21.0,0.0,   8.67105E-03,   4.00492E-03,  -808.381E-03,0.051525,0.0344677,-0.0065896
8846,31.0,21.0,0.0,   8.67846E-03,   4.31118E-03,  -840.366E-03,0.0512024,0.035847,-0.00658687
8847,30.0,21.0,0.0,   8.64535E-03,   4.61477E-03,  -870.787E-03,0.0508796,0.0372142,-0.0065556
8852,29.0,21.0,0.0,   8.57536E-03,   4.91442E-03,  -899.691E-03,0.0505582,0.0385633,-0.00649769
8855,28.0,21.0,0.0,   8.47194E-03,   5.20895E-03,  -927.121E-03,0.0502397,0.0398892,-0.0064151
8856,27.0,21.0,0.0,   8.33828E-03,   5.49729E-03,  -953.125E-03,0.0499255,0.0411871,-0.00630982
8861,26.0,21.0,0.0,   8.17734E-03,   5.77851E-03,  -977.747E-03,0.0496168,0.042453,-0.00618386
8862,25.0,21.0,0.0,   7.99188E-03,   6.05178E-03,      -1.00103,0.0493147,0.043683,-0.00603917
8867,24.0,21.0,0.0,   7.78443E-03,   6.31637E-03,      -1.02302,0.0490202,0.0448743,-0.00587765
8870,23.0,21.0,0.0,   7.55732E-03,   6.57168E-03,      -1.04376,0.0487342,0.046024,-0.00570112
8871,22.0,21.0,0.0,   7.31267E-03,   6.81717E-03,      -1.06330,0.0484575,0.0471301,-0.00551128
8876,21.0,21.0,0.0,   7.05243E-03,   7.05243E-03,      -1.08166,0.0481907,0.0481907,-0.00530971
8877,20.0,21.0,0.0,   6.77837E-03,   7.27711E-03,      -1.09890,0.0479343,0.0492042,-0.00509788
8882,19.0,21.0,0.0,   6.49209E-03,   7.49093E-03,      -1.11505,0.047689,0.0501696,-0.00487713
8885,18.0,21.0,0.0,   6.19503E-03,   7.69369E-03,      -1.13015,0.047455,0.051086,-0.00464866
8886,17.0,21.0,0.0,   5.88852E-03,   7.88526E-03,      -1.14422,0.0472327,0.0519526,-0.00441357
8891,16.0,21.0,0.0,   5.57371E-03,   8.06553E-03,      -1.15732,0.0470223,0.0527691,-0.00417282
8892,15.0,21.0,0.0,   5.25166E-03,   8.23446E-03,      -1.16946,0.0468242,0.0535351,-0.00392727
8897,14.0,21.0,0.0,   4.92331E-03,   8.39204E-03,      -1.18068,0.0466384,0.0542504,-0.00367767
8900,13.0,21.0,0.0,   4.58949E-03,   8.53828E-03,      -1.19100,0.0464652,0.0549152,-0.00342468
8901,12.0,21.0,0.0,   4.25096E-03,   8.67323E-03,      -1.20045,0.0463045,0.0555294,-0.00316886
8906,11.0,21.0,0.0,   3.90836E-03,   8.79694E-03,      -1.20906,0.0461566,0.0560932,-0.0029107
8907,10.0,21.0,0.0,   3.56229E-03,   8.90950E-03,      -1.21684,0.0460214,0.0566068,-0.00265062
8912,9.0,21.0,0.0,   3.21326E-03,   9.01099E-03,      -1.22382,0.0458991,0.0570705,-0.00238896
8915,8.0,21.0,0.0,   2.86174E-03,   9.10149E-03,      -1.23002,0.0457895,0.0574844,-0.00212604
8916,7.0,21.0,0.0,   2.50812E-03,   9.18110E-03,      -1.23544,0.0456929,0.0578488,-0.0018621
8921,6.0,21.0,0.0,   2.15276E-03,   9.24989E-03,      -1.24012,0.0456091,0.058164,-0.00159735
8922,5.0,21.0,0.0,   1.79598E-03,   9.30795E-03,      -1.24405,0.0455382,0.0584303,-0.00133197
8927,4.0,21.0,0.0,   1.43807E-03,   9.35535E-03,      -1.24726,0.0454802,0.0586479,-0.0010661
8930,3.0,21.0,0.0,   1.07929E-03,   9.39215E-03,      -1.24974,0.0454351,0.0588168,-0.000799866
8931,2.0,21.0,0.0,   719.872E-06,   9.41840E-03,      -1.25151,0.0454029,0.0589374,-0.000533379
8936,1.0,21.0,0.0,   360.038E-06,   9.43414E-03,      -1.25257,0.0453836,0.0590097,-0.000266729
8937,0.0,21.0,0.0,   5.85303E-15,   9.43938E-03,      -1.25292,0.0453771,0.0590338,1.81899e-12
8942,-1.0,21.0,0.0,  -360.038E-06,   9.43414E-03,      -1.25257,0.0453836,0.0590097,0.000266729
8945,-2.0,21.0,0.0,  -719.872E-06,   9.41840E-03,      -1.25151,0.0454029,0.0589374,0.000533379
8946,-3.0,21.0,0.0,  -1.07929E-03,   9.39215E-03,      -1.24974,0.0454351,0.0588168,0.000799866
8951,-4.0,21.0,0.0,  -1.43807E-03,   9.35535E-03,      -1.24726,0.0454802,0.0586479,0.0010661
8952,-5.0,21.0,0.0,  -1.79598E-03,   9.30795E-03,      -1.24405,0.0455382,0.0584303,0.00133197
8957,-6.0,21.0,0.0,  -2.15276E-03,   9.24989E-03,      -1.24012,0.0456091,0.058164,0.00159735
8960,-7.0,21.0,0.0,  -2.50812E-03,   9.18110E-03,      -1.23544,0.0456929,0.0578488,0.0018621
8961,-8.0,21.0,0.0,  -2.86174E-03,   9.10149E-03,      -1.23002,0.0457895,0.0574844,0.00212604
8966,-9.0,21.0,0.0,  -3.21326E-03,   9.01099E-03,      -1.22382,0.0458991,0.0570705,0.00238896
8967,-10.0,21.0,0.0,  -3.56229E-03,   8.90950E-03,      -1.21684,0.0460214,0.0566068,0.00265062
8972,-11.0,21.0,0.0,  -3.90836E-03,   8.79694E-03,      -1.20906,0.0461566,0.0560932,0.0029107
8975,-12.0,21.0,0.0,  -4.25096E-03,   8.67323E-03,      -1.20045,0.0463045,0.0555294,0.00316886
8976,-13.0,21.0,0.0,  -4.58949E-03,   8.53828E-03,      -1.19100,0.0464652,0.0549152,0.00342468
8981,-14.0,21.0,0.0,  -4.92331E-03,   8.39204E-03,      -1.18068,0.0466384,0.0542504,0.00367767
8982,-15.0,21.0,0.0,  -5.25166E-03,   8.23446E-03,      -1.16946,0.0468242,0.0535351,0.00392727
8987,-16.0,21.0,0.0,  -5.57371E-03,   8.06553E-03,      -1.15732,0.0470223,0.0527691,0.00417282
8990,-17.0,21.0,0.0,  -5.88852E-03,   7.88526E-03,      -1.14422,0.0472327,0.0519526,0.00441357
8991,-18.0,21.0,0.0,  -6.19503E-03,   7.69369E-03,      -1.13015,0.047455,0.051086,0.00464866
8996,-19.0,21.0,0.0,  -6.49209E-03,   7.49093E-03,      -1.11505,0.047689,0.0501696,0.00487713
8997,-20.0,21.0,0.0,  -6.77837E-03,   7.27711E-03,      -1.09890,0.0479343,0.0492042,0.00509788
9002,-21.0,21.0,0.0,  -7.05243E-03,   7.05243E-03,      -1.08166,0.0481907,0.0481907,0.00530971
9005,-22.0,21.0,0.0,  -7.31267E-03,   6.81717E-03,      -1.06330,0.0484575,0.0471301,0.00551128
9006,-23.0,21.0,0.0,  -7.55732E-03,   6.57168E-03,      -1.04376,0.0487342,0.046024,0.00570112
9011,-24.0,21.0,0.0,  -7.78443E-03,   6.31637E-03,      -1.02302,0.0490202,0.0448743,0.00587765
9012,-25.0,21.0,0.0,  -7.99188E-03,   6.05178E-03,      -1.00103,0.0493147,0.043683,0.00603917
9017,-26.0,21.0,0.0,  -8.17734E-03,   5.77851E-03,  -977.747E-03,0.0496168,0.042453,0.00618386
9020,-27.0,21.0,0.0,  -8.33828E-03,   5.49729E-03,  -953.125E-03,0.0499255,0.0411871,0.00630982
9021,-28.0,21.0,0.0,  -8.47194E-03,   5.20895E-03,  -927.121E-03,0.0502397,0.0398892,0.0064151
9026,-29.0,21.0,0.0,  -8.57536E-03,   4.91442E-03,  -899.691E-03,0.0505582,0.0385633,0.00649769
9027,-30.0,21.0,0.0,  -8.64535E-03,   4.61477E-03,  -870.787E-03,0.0508796,0.0372142,0.0065556
9032,-31.0,21.0,0.0,  -8.67846E-03,   4.31118E-03,  -840.366E-03,0.0512024,0.035847,0.00658687
9035,-32.0,21.0,0.0,  -8.67105E-03,   4.00492E-03,  -808.381E-03,0.051525,0.0344677,0.0065896
9036,-33.0,21.0,0.0,  -8.61922E-03,   3.69741E-03,  -774.788E-03,0.0518456,0.0330827,0.00656206
9041,-34.0,21.0,0.0,  -8.51885E-03,   3.39015E-03,  -739.542E-03,0.0521626,0.0316989,0.00650268
9042,-35.0,21.0,0.0,  -8.36558E-03,   3.08475E-03,  -702.602E-03,0.0524739,0.0303239,0.00641015
9047,-36.0,21.0,0.0,  -8.15486E-03,   2.78288E-03,  -663.925E-03,0.0527774,0.0289656,0.00628345
9050,-37.0,21.0,0.0,  -7.88193E-03,   2.48631E-03,  -623.472E-03,0.0530708,0.027632,0.00612193
9051,-38.0,21.0,0.0,  -7.54183E-03,   2.19686E-03,  -581.204E-03,0.0533511,0.0263316,0.00592537
9056,-39.0,21.0,0.0,  -7.12946E-03,   1.91637E-03,  -537.085E-03,0.0536136,0.0250723,0.0056941
9057,-40.0,21.0,0.0,  -6.63964E-03,   1.64671E-03,  -491.084E-03,0.0538499,0.0238609,0.00542914
9062,-41.0,21.0,0.0,  -6.06715E-03,   1.38977E-03,  -443.174E-03,0.0540423,0.0227012,0.00513255
9065,-42.0,21.0,0.0,  -5.40707E-03,   1.14742E-03,  -393.337E-03,0.0541497,0.02159,0.00480783
9066,-43.0,21.0,0.0,  -4.65533E-03,   921.535E-06,  -341.575E-03,0.0540734,0.020506,0.0044612
9071,-44.0,21.0,0.0,  -3.81020E-03,   714.034E-06,  -287.936E-03,0.0535714,0.0193845,0.00410272
9072,-45.0,21.0,0.0,  -2.87612E-03,   526.970E-06,  -232.573E-03,0.0520439,0.0180529,0.00374948
9077,-46.0,21.0,0.0,  -1.87317E-03,   362.721E-06,  -175.902E-03,0.0479955,0.0160703,0.00342438
9080,-47.0,21.0,0.0,  -860.171E-06,   224.318E-06,  -118.989E-03,0.037687,0.0123256,0.00314918
9081,-48.0,21.0,0.0,   13.7926E-06,   115.739E-06,  -64.5177E-03,0.0117486,0.00402455,0.00288207
9086,-49.0,21.0,0.0,   427.730E-06,   41.1463E-06,  -19.2227E-03,-0.0533144,-0.0158494,0.00231128
9087,-50.0,21.0,0.0,   2.32147E-39,  -672.084E-42,           -0.,-0.0998269,-0.0299524,0.0012683
9092,50.0,20.0,0.0,  -2.37484E-39,  -689.189E-42,           -0.,-0.100682,-0.0302089,-0.00122054
9095,49.0,20.0,0.0,  -436.675E-06,   39.7649E-06,  -19.4753E-03,-0.0532776,-0.015832,-0.00220127
9096,48.0,20.0,0.0,  -12.9154E-06,   111.196E-06,  -65.2884E-03,0.0128126,0.0043496,-0.00273292
9101,47.0,20.0,0.0,   875.573E-06,   214.710E-06,  -120.276E-03,0.0388537,0.0126735,-0.0029816
9102,46.0,20.0,0.0,   1.90269E-03,   346.354E-06,  -177.676E-03,0.049083,0.0163807,-0.00324032
9107,45.0,20.0,0.0,   2.91908E-03,   502.422E-06,  -234.825E-03,0.0530537,0.0183216,-0.00354655
9110,44.0,20.0,0.0,   3.86648E-03,   680.125E-06,  -290.676E-03,0.0545341,0.0196169,-0.00387913
9111,43.0,20.0,0.0,   4.72518E-03,   877.284E-06,  -344.824E-03,0.0550135,0.0207063,-0.00421661
9116,42.0,20.0,0.0,   5.49085E-03,   1.09203E-03,  -397.122E-03,0.0550824,0.0217601,-0.00454323
9117,41.0,20.0,0.0,   6.16513E-03,   1.32259E-03,  -447.522E-03,0.054976,0.0228415,-0.00484983
9122,40.0,20.0,0.0,   6.75194E-03,   1.56725E-03,  -496.022E-03,0.0547891,0.0239711,-0.00513073
9125,39.0,20.0,0.0,   7.25601E-03,   1.82427E-03,  -542.638E-03,0.0545606,0.0251522,-0.00538272
9126,38.0,20.0,0.0,   7.68233E-03,   2.09192E-03,  -587.393E-03,0.0543069,0.0263812,-0.00560386
9131,37.0,20.0,0.0,   8.03591E-03,   2.36844E-03,  -630.317E-03,0.0540358,0.0276514,-0.00579314
9132,36.0,20.0,0.0,   8.32168E-03,   2.65211E-03,  -671.440E-03,0.0537515,0.0289555,-0.00595011
9137,35.0,20.0,0.0,   8.54442E-03,   2.94123E-03,  -710.799E-03,0.0534567,0.0302853,-0.00607487
9140,34.0,20.0,0.0,   8.70876E-03,   3.23413E-03,  -748.430E-03,0.0531536,0.0316331,-0.00616787
9141,33.0,20.0,0.0,   8.81915E-03,   3.52920E-03,  -784.369E-03,0.0528441,0.0329912,-0.0062299
9146,32.0,20.0,0.0,   8.87985E-03,   3.82493E-03,  -818.658E-03,0.0525301,0.0343523,-0.00626205
9147,31.0,20.0,0.0,   8.89491E-03,   4.11986E-03,  -851.337E-03,0.0522132,0.0357096,-0.00626563
9152,30.0,20.0,0.0,   8.86820E-03,   4.41265E-03,  -882.448E-03,0.0518951,0.0370568,-0.00624215
9155,29.0,20.0,0.0,   8.80334E-03,   4.70202E-03,  -912.033E-03,0.0515774,0.0383879,-0.00619323
9156,28.0,20.0,0.0,   8.70375E-03,   4.98684E-03,  -940.134E-03,0.0512615,0.0396978,-0.00612063
9161,27.0,20.0,0.0,   8.57264E-03,   5.26606E-03,  -966.796E-03,0.0509489,0.0409816,-0.00602612
9162,26.0,20.0,0.0,   8.41299E-03,   5.53874E-03,  -992.060E-03,0.0506407,0.0422351,-0.00591152
9167,25.0,20.0,0.0,   8.22760E-03,   5.80404E-03,      -1.01597,0.0503382,0.0434546,-0.00577862
9170,24.0,20.0,0.0,   8.01903E-03,   6.06124E-03,      -1.03857,0.0500424,0.0446369,-0.00562916
9171,23.0,20.0,0.0,   7.78967E-03,   6.30971E-03,      -1.05990,0.0497542,0.0457791,-0.00546484
9176,22.0,20.0,0.0,   7.54169E-03,   6.54890E-03,      -1.07999,0.0494746,0.0468789,-0.00528724
9177,21.0,20.0,0.0,   7.27711E-03,   6.77837E-03,      -1.09890,0.0492042,0.0479343,-0.00509788
9182,20.0,20.0,0.0,   6.99774E-03,   6.99774E-03,      -1.11666,0.0489438,0.0489438,-0.00489815
9185,19.0,20.0,0.0,   6.70527E-03,   7.20673E-03,      -1.13330,0.0486939,0.049906,-0.00468933
9186,18.0,20.0,0.0,   6.40120E-03,   7.40509E-03,      -1.14887,0.0484549,0.0508199,-0.00447259
9191,17.0,20.0,0.0,   6.08690E-03,   7.59266E-03,      -1.16339,0.0482274,0.0516846,-0.004249
9192,16.0,20.0,0.0,   5.76360E-03,   7.76931E-03,      -1.17690,0.0480117,0.0524998,-0.00401952
9197,15.0,20.0,0.0,   5.43243E-03,   7.93498E-03,      -1.18943,0.0478081,0.0532649,-0.00378498
9200,14.0,20.0,0.0,   5.09436E-03,   8.08962E-03,      -1.20101,0.0476168,0.0539798,-0.00354614
9201,13.0,20.0,0.0,   4.75031E-03,   8.23323E-03,      -1.21168,0.0474381,0.0546443,-0.00330366
9206,12.0,20.0,0.0,   4.40106E-03,   8.36583E-03,      -1.22144,0.0472722,0.0552585,-0.00305811
9207,11.0,20.0,0.0,   4.04732E-03,   8.48746E-03,      -1.23034,0.0471192,0.0558225,-0.00281
9212,10.0,20.0,0.0,   3.68973E-03,   8.59818E-03,      -1.23838,0.0469791,0.0563364,-0.00255976
9215,9.0,20.0,0.0,   3.32885E-03,   8.69805E-03,      -1.24560,0.0468522,0.0568003,-0.00230775
9216,8.0,20.0,0.0,   2.96518E-03,   8.78715E-03,      -1.25201,0.0467386,0.0572146,-0.0020543
9221,7.0,20.0,0.0,   2.59916E-03,   8.86555E-03,      -1.25762,0.0466381,0.0575794,-0.00179967
9222,6.0,20.0,0.0,   2.23118E-03,   8.93332E-03,      -1.26246,0.046551,0.057895,-0.00154409
9227,5.0,20.0,0.0,   1.86160E-03,   8.99053E-03,      -1.26653,0.0464772,0.0581616,-0.00128777
9230,4.0,20.0,0.0,   1.49074E-03,   9.03725E-03,      -1.26985,0.0464168,0.0583795,-0.00103085
9231,3.0,20.0,0.0,   1.11890E-03,   9.07352E-03,      -1.27242,0.0463698,0.0585487,-0.000773503
9236,2.0,20.0,0.0,   746.323E-06,   9.09940E-03,      -1.27425,0.0463362,0.0586695,-0.000515837
9237,1.0,20.0,0.0,   373.278E-06,   9.11492E-03,      -1.27534,0.0463161,0.0587419,-0.000257968
9242,0.0,20.0,0.0,   6.45585E-15,   9.12009E-03,      -1.27571,0.0463094,0.058766,1.81899e-12
9245,-1.0,20.0,0.0,  -373.278E-06,   9.11492E-03,      -1.27534,0.0463161,0.0587419,0.000257968
9246,-2.0,20.0,0.0,  -746.323E-06,   9.09940E-03,      -1.27425,0.0463363,0.0586695,0.000515837
9251,-3.0,20.0,0.0,  -1.11890E-03,   9.07352E-03,      -1.27242,0.0463698,0.0585487,0.000773503
9252,-4.0,20.0,0.0,  -1.49074E-03,   9.03725E-03,      -1.26985,0.0464168,0.0583795,0.00103085
9257,-5.0,20.0,0.0,  -1.86160E-03,   8.99053E-03,      -1.26653,0.0464772,0.0581616,0.00128777
9260,-6.0,20.0,0.0,  -2.23118E-03,   8.93332E-03,      -1.26246,0.046551,0.057895,0.00154409
9261,-7.0,20.0,0.0,  -2.59916E-03,   8.86555E-03,      -1.25762,0.0466381,0.0575794,0.00179967
9266,-8.0,20.0,0.0,  -2.96518E-03,   8.78715E-03,      -1.25201,0.0467386,0.0572146,0.0020543
9267,-9.0,20.0,0.0,  -3.32885E-03,   8.69805E-03,      -1.24560,0.0468522,0.0568003,0.00230775
9272,-10.0,20.0,0.0,  -3.68973E-03,   8.59818E-03,      -1.23838,0.0469791,0.0563364,0.00255976
9275,-11.0,20.0,0.0,  -4.04732E-03,   8.48746E-03,      -1.23034,0.0471192,0.0558225,0.00281
9276,-12.0,20.0,0.0,  -4.40106E-03,   8.36583E-03,      -1.22144,0.0472722,0.0552585,0.00305811
9281,-13.0,20.0,0.0,  -4.75031E-03,   8.23323E-03,      -1.21168,0.0474381,0.0546443,0.00330366
9282,-14.0,20.0,0.0,  -5.09436E-03,   8.08962E-03,      -1.20101,0.0476168,0.0539798,0.00354614
9287,-15.0,20.0,0.0,  -5.43243E-03,   7.93498E-03,      -1.18943,0.0478081,0.0532649,0.00378498
9290,-16.0,20.0,0.0,  -5.76360E-03,   7.76931E-03,      -1.17690,0.0480117,0.0524998,0.00401952
9291,-17.0,20.0,0.0,  -6.08690E-03,   7.59266E-03,      -1.16339,0.0482274,0.0516846,0.004249
9296,-18.0,20.0,0.0,  -6.40120E-03,   7.40509E-03,      -1.14887,0.0484549,0.0508199,0.00447259
9297,-19.0,20.0,0.0,  -6.70527E-03,   7.20673E-03,      -1.13330,0.0486939,0.049906,0.00468933
9302,-20.0,20.0,0.0,  -6.99774E-03,   6.99774E-03,      -1.11666,0.0489438,0.0489438,0.00489815
9305,-21.0,20.0,0.0,  -7.27711E-03,   6.77837E-03,      -1.09890,0.0492042,0.0479343,0.00509788
9306,-22.0,20.0,0.0,  -7.54169E-03,   6.54890E-03,      -1.07999,0.0494746,0.0468789,0.00528724
9311,-23.0,20.0,0.0,  -7.78967E-03,   6.30971E-03,      -1.05990,0.0497542,0.0457791,0.00546484
9312,-24.0,20.0,0.0,  -8.01903E-03,   6.06124E-03,      -1.03857,0.0500424,0.0446369,0.00562916
9317,-25.0,20.0,0.0,  -8.22760E-03,   5.80404E-03,      -1.01597,0.0503382,0.0434546,0.00577862
9320,-26.0,20.0,0.0,  -8.41299E-03,   5.53874E-03,  -992.060E-03,0.0506407,0.0422351,0.00591152
9321,-27.0,20.0,0.0,  -8.57264E-03,   5.26606E-03,  -966.796E-03,0.0509489,0.0409816,0.00602612
9326,-28.0,20.0,0.0,  -8.70375E-03,   4.98684E-03,  -940.134E-03,0.0512615,0.0396978,0.00612063
9327,-29.0,20.0,0.0,  -8.80334E-03,   4.70202E-03,  -912.033E-03,0.0515774,0.0383879,0.00619323
9332,-30.0,20.0,0.0,  -8.86820E-03,   4.41265E-03,  -882.448E-03,0.0518951,0.0370568,0.00624215
9335,-31.0,20.0,0.0,  -8.89491E-03,   4.11986E-03,  -851.337E-03,0.0522132,0.0357096,0.00626563
9336,-32.0,20.0,0.0,  -8.87985E-03,   3.82493E-03,  -818.658E-03,0.0525301,0.0343523,0.00626205
9341,-33.0,20.0,0.0,  -8.81915E-03,   3.52920E-03,  -784.369E-03,0.0528441,0.0329912,0.0062299
9342,-34.0,20.0,0.0,  -8.70876E-03,   3.23413E-03,  -748.430E-03,0.0531536,0.0316331,0.00616787
9347,-35.0,20.0,0.0,  -8.54442E-03,   2.94123E-03,  -710.799E-03,0.0534567,0.0302853,0.00607487
9350,-36.0,20.0,0.0,  -8.32168E-03,   2.65211E-03,  -671.440E-03,0.0537515,0.0289555,0.00595011
9351,-37.0,20.0,0.0,  -8.03591E-03,   2.36844E-03,  -630.317E-03,0.0540358,0.0276514,0.00579314
9356,-38.0,20.0,0.0,  -7.68233E-03,   2.09192E-03,  -587.393E-03,0.0543069,0.0263812,0.00560386
9357,-39.0,20.0,0.0,  -7.25601E-03,   1.82427E-03,  -542.638E-03,0.0545606,0.0251522,0.00538272
9362,-40.0,20.0,0.0,  -6.75194E-03,   1.56725E-03,  -496.022E-03,0.0547891,0.0239711,0.00513073
9365,-41.0,20.0,0.0,  -6.16513E-03,   1.32259E-03,  -447.522E-03,0.054976,0.0228415,0.00484983
9366,-42.0,20.0,0.0,  -5.49085E-03,   1.09203E-03,  -397.122E-03,0.0550824,0.0217601,0.00454323
9371,-43.0,20.0,0.0,  -4.72518E-03,   877.284E-06,  -344.824E-03,0.0550135,0.0207063,0.00421661
9372,-44.0,20.0,0.0,  -3.86648E-03,   680.125E-06,  -290.676E-03,0.0545341,0.0196169,0.00387913
9377,-45.0,20.0,0.0,  -2.91908E-03,   502.422E-06,  -234.825E-03,0.0530537,0.0183216,0.00354655
9380,-46.0,20.0,0.0,  -1.90269E-03,   346.354E-06,  -177.676E-03,0.049083,0.0163807,0.00324032
9381,-47.0,20.0,0.0,  -875.573E-06,   214.710E-06,  -120.276E-03,0.0388537,0.0126735,0.0029816
9386,-48.0,20.0,0.0,   12.9154E-06,   111.196E-06,  -65.2884E-03,0.0128126,0.0043496,0.00273292
9387,-49.0,20.0,0.0,   436.675E-06,   39.7649E-06,  -19.4753E-03,-0.0532776,-0.015832,0.00220127
9392,-50.0,20.0,0.0,   2.37484E-39,  -689.189E-42,           -0.,-0.100682,-0.0302089,0.00122054
9395,50.0,19.0,0.0,  -2.42548E-39,  -705.561E-42,           -0.,-0.10148,-0.030448,-0.0011703
9396,49.0,19.0,0.0,  -445.102E-06,   38.2750E-06,  -19.7127E-03,-0.0532315,-0.0158127,-0.00209073
9401,48.0,19.0,0.0,  -12.0172E-06,   106.463E-06,  -66.0113E-03,0.0138263,0.00465835,-0.00258532
9402,47.0,19.0,0.0,   890.091E-06,   204.875E-06,  -121.481E-03,0.0399592,0.0130022,-0.00281669
9407,46.0,19.0,0.0,   1.93037E-03,   329.767E-06,  -179.335E-03,0.0501123,0.0166738,-0.00305964
9410,45.0,19.0,0.0,   2.95927E-03,   477.692E-06,  -236.928E-03,0.0540103,0.018576,-0.00334764
9411,44.0,19.0,0.0,   3.91906E-03,   646.084E-06,  -293.233E-03,0.0554472,0.0198379,-0.00366024
9416,43.0,19.0,0.0,   4.79040E-03,   832.951E-06,  -347.855E-03,0.055906,0.020898,-0.00397738
9417,42.0,19.0,0.0,   5.56905E-03,   1.03658E-03,  -400.651E-03,0.0559681,0.0219241,-0.00428455
9422,41.0,19.0,0.0,   6.25659E-03,   1.25535E-03,  -451.575E-03,0.0558627,0.0229782,-0.00457338
9425,40.0,19.0,0.0,   6.85679E-03,   1.48768E-03,  -500.624E-03,0.0556806,0.0240802,-0.00483871
9426,39.0,19.0,0.0,   7.37420E-03,   1.73196E-03,  -547.812E-03,0.055459,0.0252332,-0.0050776
9431,38.0,19.0,0.0,   7.81363E-03,   1.98660E-03,  -593.159E-03,0.0552132,0.0264339,-0.00528824
9432,37.0,19.0,0.0,   8.17991E-03,   2.24995E-03,  -636.692E-03,0.0549503,0.027676,-0.00546961
9437,36.0,19.0,0.0,   8.47779E-03,   2.52042E-03,  -678.439E-03,0.0546743,0.0289523,-0.00562124
9440,35.0,19.0,0.0,   8.71193E-03,   2.79640E-03,  -718.434E-03,0.0543875,0.0302552,-0.00574309
9441,34.0,19.0,0.0,   8.88682E-03,   3.07633E-03,  -756.708E-03,0.054092,0.0315771,-0.00583547
9446,33.0,19.0,0.0,   9.00680E-03,   3.35869E-03,  -793.297E-03,0.0537896,0.0329106,-0.00589899
9447,32.0,19.0,0.0,   9.07604E-03,   3.64204E-03,  -828.237E-03,0.0534819,0.0342487,-0.00593454
9452,31.0,19.0,0.0,   9.09854E-03,   3.92498E-03,  -861.566E-03,0.0531706,0.0355847,-0.00594322
9455,30.0,19.0,0.0,   9.07810E-03,   4.20622E-03,  -893.323E-03,0.0528572,0.0369122,-0.00592632
9456,29.0,19.0,0.0,   9.01832E-03,   4.48454E-03,  -923.548E-03,0.0525433,0.0382256,-0.00588526
9461,28.0,19.0,0.0,   8.92261E-03,   4.75883E-03,  -952.281E-03,0.0522303,0.0395195,-0.00582158
9462,27.0,19.0,0.0,   8.79418E-03,   5.02806E-03,  -979.563E-03,0.0519197,0.0407892,-0.00573688
9467,26.0,19.0,0.0,   8.63602E-03,   5.29131E-03,      -1.00543,0.0516126,0.0420302,-0.00563279
9470,25.0,19.0,0.0,   8.45096E-03,   5.54774E-03,      -1.02994,0.0513103,0.0432388,-0.00551093
9471,24.0,19.0,0.0,   8.24158E-03,   5.79663E-03,      -1.05311,0.0510139,0.0444117,-0.00537291
9476,23.0,19.0,0.0,   8.01033E-03,   6.03734E-03,      -1.07499,0.0507244,0.045546,-0.00522029
9477,22.0,19.0,0.0,   7.75943E-03,   6.26931E-03,      -1.09563,0.0504427,0.0466391,-0.00505455
9482,21.0,19.0,0.0,   7.49093E-03,   6.49209E-03,      -1.11505,0.0501696,0.047689,-0.00487713
9485,20.0,19.0,0.0,   7.20673E-03,   6.70527E-03,      -1.13330,0.049906,0.0486939,-0.00468933
9486,19.0,19.0,0.0,   6.90854E-03,   6.90854E-03,      -1.15042,0.0496524,0.0496524,-0.00449238
9491,18.0,19.0,0.0,   6.59795E-03,   7.10166E-03,      -1.16643,0.0494094,0.0505633,-0.00428741
9492,17.0,19.0,0.0,   6.27638E-03,   7.28442E-03,      -1.18137,0.0491775,0.0514259,-0.00407544
9497,16.0,19.0,0.0,   5.94513E-03,   7.45668E-03,      -1.19529,0.0489573,0.0522393,-0.00385741
9500,15.0,19.0,0.0,   5.60535E-03,   7.61834E-03,      -1.20819,0.048749,0.0530032,-0.00363416
9501,14.0,19.0,0.0,   5.25811E-03,   7.76934E-03,      -1.22013,0.048553,0.0537172,-0.00340641
9506,13.0,19.0,0.0,   4.90435E-03,   7.90967E-03,      -1.23112,0.0483696,0.0543812,-0.00317483
9507,12.0,19.0,0.0,   4.54492E-03,   8.03931E-03,      -1.24119,0.048199,0.0549951,-0.00294
9512,11.0,19.0,0.0,   4.18058E-03,   8.15829E-03,      -1.25036,0.0480415,0.0555589,-0.00270242
9515,10.0,19.0,0.0,   3.81200E-03,   8.26665E-03,      -1.25866,0.0478972,0.0560728,-0.00246253
9516,9.0,19.0,0.0,   3.43980E-03,   8.36444E-03,      -1.26610,0.0477663,0.0565369,-0.00222072
9521,8.0,19.0,0.0,   3.06450E-03,   8.45171E-03,      -1.27271,0.0476489,0.0569514,-0.00197732
9522,7.0,19.0,0.0,   2.68660E-03,   8.52852E-03,      -1.27851,0.0475451,0.0573164,-0.00173261
9527,6.0,19.0,0.0,   2.30652E-03,   8.59495E-03,      -1.28350,0.047455,0.0576322,-0.00148684
9530,5.0,19.0,0.0,   1.92466E-03,   8.65103E-03,      -1.28770,0.0473787,0.0578991,-0.00124021
9531,4.0,19.0,0.0,   1.54137E-03,   8.69684E-03,      -1.29112,0.0473161,0.0581172,-0.000992912
9536,3.0,19.0,0.0,   1.15697E-03,   8.73242E-03,      -1.29378,0.0472674,0.0582866,-0.000745106
9537,2.0,19.0,0.0,   771.755E-06,   8.75781E-03,      -1.29567,0.0472326,0.0584075,-0.000496934
9542,1.0,19.0,0.0,   386.009E-06,   8.77303E-03,      -1.29680,0.0472118,0.05848,-0.000248525
9545,0.0,19.0,0.0,   5.68254E-15,   8.77810E-03,      -1.29717,0.0472048,0.0585041,-1.81899e-12
9546,-1.0,19.0,0.0,  -386.009E-06,   8.77303E-03,      -1.29680,0.0472118,0.05848,0.000248525
9551,-2.0,19.0,0.0,  -771.755E-06,   8.75781E-03,      -1.29567,0.0472326,0.0584075,0.000496934
9552,-3.0,19.0,0.0,  -1.15697E-03,   8.73242E-03,      -1.29378,0.0472674,0.0582866,0.000745106
9557,-4.0,19.0,0.0,  -1.54137E-03,   8.69684E-03,      -1.29112,0.0473161,0.0581172,0.000992912
9558,-5.0,19.0,0.0,  -1.92466E-03,   8.65103E-03,      -1.28770,0.0473787,0.0578991,0.00124021
9563,-6.0,19.0,0.0,  -2.30652E-03,   8.59495E-03,      -1.28350,0.047455,0.0576322,0.00148684
9564,-7.0,19.0,0.0,  -2.68660E-03,   8.52852E-03,      -1.27851,0.0475451,0.0573164,0.00173261
9569,-8.0,19.0,0.0,  -3.06450E-03,   8.45171E-03,      -1.27271,0.0476489,0.0569514,0.00197732
9572,-9.0,19.0,0.0,  -3.43980E-03,   8.36444E-03,      -1.26610,0.0477663,0.0565369,0.00222072
9573,-10.0,19.0,0.0,  -3.81200E-03,   8.26665E-03,      -1.25866,0.0478972,0.0560728,0.00246253
9578,-11.0,19.0,0.0,  -4.18058E-03,   8.15829E-03,      -1.25036,0.0480415,0.0555589,0.00270242
9579,-12.0,19.0,0.0,  -4.54492E-03,   8.03931E-03,      -1.24119,0.048199,0.0549951,0.00294
9584,-13.0,19.0,0.0,  -4.90435E-03,   7.90967E-03,      -1.23112,0.0483696,0.0543812,0.00317483
9587,-14.0,19.0,0.0,  -5.25811E-03,   7.76934E-03,      -1.22013,0.048553,0.0537172,0.00340641
9588,-15.0,19.0,0.0,  -5.60535E-03,   7.61834E-03,      -1.20819,0.048749,0.0530032,0.00363416
9593,-16.0,19.0,0.0,  -5.94513E-03,   7.45668E-03,      -1.19529,0.0489573,0.0522393,0.00385741
9594,-17.0,19.0,0.0,  -6.27638E-03,   7.28442E-03,      -1.18137,0.0491775,0.0514259,0.00407544
9599,-18.0,19.0,0.0,  -6.59795E-03,   7.10166E-03,      -1.16643,0.0494094,0.0505633,0.00428741
9602,-19.0,19.0,0.0,  -6.90854E-03,   6.90854E-03,      -1.15042,0.0496524,0.0496524,0.00449238
9603,-20.0,19.0,0.0,  -7.20673E-03,   6.70527E-03,      -1.13330,0.049906,0.0486939,0.00468933
9608,-21.0,19.0,0.0,  -7.49093E-03,   6.49209E-03,      -1.11505,0.0501696,0.047689,0.00487713
9609,-22.0,19.0,0.0,  -7.75943E-03,   6.26931E-03,      -1.09563,0.0504427,0.0466391,0.00505455
9614,-23.0,19.0,0.0,  -8.01033E-03,   6.03734E-03,      -1.07499,0.0507244,0.045546,0.00522029
9617,-24.0,19.0,0.0,  -8.24158E-03,   5.79663E-03,      -1.05311,0.0510139,0.0444117,0.00537291
9618,-25.0,19.0,0.0,  -8.45096E-03,   5.54774E-03,      -1.02994,0.0513103,0.0432388,0.00551093
9623,-26.0,19.0,0.0,  -8.63602E-03,   5.29131E-03,      -1.00543,0.0516126,0.0420302,0.00563279
9624,-27.0,19.0,0.0,  -8.79418E-03,   5.02806E-03,  -979.563E-03,0.0519197,0.0407892,0.00573688
9629,-28.0,19.0,0.0,  -8.92261E-03,   4.75883E-03,  -952.281E-03,0.0522303,0.0395195,0.00582158
9632,-29.0,19.0,0.0,  -9.01832E-03,   4.48454E-03,  -923.548E-03,0.0525433,0.0382256,0.00588526
9633,-30.0,19.0,0.0,  -9.07810E-03,   4.20622E-03,  -893.323E-03,0.0528572,0.0369122,0.00592632
9638,-31.0,19.0,0.0,  -9.09854E-03,   3.92498E-03,  -861.566E-03,0.0531706,0.0355847,0.00594322
9639,-32.0,19.0,0.0,  -9.07604E-03,   3.64204E-03,  -828.237E-03,0.0534819,0.0342487,0.00593454
9644,-33.0,19.0,0.0,  -9.00680E-03,   3.35869E-03,  -793.297E-03,0.0537896,0.0329106,0.00589899
9647,-34.0,19.0,0.0,  -8.88682E-03,   3.07633E-03,  -756.708E-03,0.054092,0.0315771,0.00583547
9648,-35.0,19.0,0.0,  -8.71193E-03,   2.79640E-03,  -718.434E-03,0.0543875,0.0302552,0.00574309
9653,-36.0,19.0,0.0,  -8.47779E-03,   2.52042E-03,  -678.439E-03,0.0546743,0.0289523,0.00562124
9654,-37.0,19.0,0.0,  -8.17991E-03,   2.24995E-03,  -636.692E-03,0.0549503,0.027676,0.00546961
9659,-38.0,19.0,0.0,  -7.81363E-03,   1.98660E-03,  -593.159E-03,0.0552132,0.0264339,0.00528824
9662,-39.0,19.0,0.0,  -7.37420E-03,   1.73196E-03,  -547.812E-03,0.055459,0.0252332,0.0050776
9663,-40.0,19.0,0.0,  -6.85679E-03,   1.48768E-03,  -500.624E-03,0.0556806,0.0240802,0.00483871
9668,-41.0,19.0,0.0,  -6.25659E-03,   1.25535E-03,  -451.575E-03,0.0558627,0.0229782,0.00457338
9669,-42.0,19.0,0.0,  -5.56905E-03,   1.03658E-03,  -400.651E-03,0.0559681,0.0219241,0.00428455
9674,-43.0,19.0,0.0,  -4.79040E-03,   832.951E-06,  -347.855E-03,0.055906,0.020898,0.00397738
9677,-44.0,19.0,0.0,  -3.91906E-03,   646.084E-06,  -293.233E-03,0.0554472,0.0198379,0.00366024
9678,-45.0,19.0,0.0,  -2.95927E-03,   477.692E-06,  -236.928E-03,0.0540103,0.018576,0.00334764
9683,-46.0,19.0,0.0,  -1.93037E-03,   329.767E-06,  -179.335E-03,0.0501123,0.0166738,0.00305964
9684,-47.0,19.0,0.0,  -890.091E-06,   204.875E-06,  -121.481E-03,0.0399592,0.0130022,0.00281669
9689,-48.0,19.0,0.0,   12.0172E-06,   106.463E-06,  -66.0113E-03,0.0138264,0.00465835,0.00258532
9692,-49.0,19.0,0.0,   445.102E-06,   38.2750E-06,  -19.7127E-03,-0.0532315,-0.0158127,0.00209073
9693,-50.0,19.0,0.0,   2.42548E-39,  -705.561E-42,           -0.,-0.10148,-0.030448,0.0011703
9698,50.0,18.0,0.0,  -2.47342E-39,  -721.196E-42,           -0.,-0.102222,-0.0306707,-0.0011179
9699,49.0,18.0,0.0,  -453.025E-06,   36.6895E-06,  -19.9354E-03,-0.053178,-0.0157918,-0.00197985
9704,48.0,18.0,0.0,  -11.1153E-06,   101.565E-06,  -66.6879E-03,0.0147892,0.00495084,-0.00243925
9707,47.0,18.0,0.0,   903.732E-06,   194.846E-06,  -122.607E-03,0.0410037,0.013312,-0.00265431
9708,46.0,18.0,0.0,   1.95626E-03,   312.998E-06,  -180.883E-03,0.051084,0.0169499,-0.00288207
9713,45.0,18.0,0.0,   2.99677E-03,   452.821E-06,  -238.890E-03,0.0549142,0.0188162,-0.00315242
9714,44.0,18.0,0.0,   3.96808E-03,   611.955E-06,  -295.616E-03,0.056311,0.0200475,-0.00344565
9719,43.0,18.0,0.0,   4.85117E-03,   788.579E-06,  -350.679E-03,0.0567509,0.0210807,-0.00374306
9722,42.0,18.0,0.0,   5.64190E-03,   981.122E-06,  -403.937E-03,0.0568069,0.0220815,-0.00403128
9723,41.0,18.0,0.0,   6.34179E-03,   1.18811E-03,  -455.348E-03,0.0567022,0.0231105,-0.0043027
9728,40.0,18.0,0.0,   6.95448E-03,   1.40807E-03,  -504.906E-03,0.0565245,0.024187,-0.00455263
9729,39.0,18.0,0.0,   7.48436E-03,   1.63955E-03,  -552.624E-03,0.056309,0.0253141,-0.00477836
9734,38.0,18.0,0.0,   7.93606E-03,   1.88104E-03,  -598.521E-03,0.0560702,0.0264885,-0.00497822
9737,37.0,18.0,0.0,   8.31426E-03,   2.13104E-03,  -642.620E-03,0.0558148,0.0277044,-0.00515122
9738,36.0,18.0,0.0,   8.62356E-03,   2.38804E-03,  -684.948E-03,0.0555463,0.0289547,-0.00529684
9743,35.0,18.0,0.0,   8.86847E-03,   2.65056E-03,  -725.534E-03,0.0552669,0.0302322,-0.00541498
9744,34.0,18.0,0.0,   9.05336E-03,   2.91713E-03,  -764.407E-03,0.0549784,0.0315296,-0.00550581
9749,33.0,18.0,0.0,   9.18248E-03,   3.18633E-03,  -801.601E-03,0.0546825,0.0328397,-0.00556981
9752,32.0,18.0,0.0,   9.25991E-03,   3.45677E-03,  -837.149E-03,0.0543808,0.0341558,-0.0056077
9753,31.0,18.0,0.0,   9.28958E-03,   3.72714E-03,  -871.086E-03,0.0540748,0.0354712,-0.00562041
9758,30.0,18.0,0.0,   9.27524E-03,   3.99620E-03,  -903.449E-03,0.0537661,0.0367797,-0.00560903
9759,29.0,18.0,0.0,   9.22046E-03,   4.26278E-03,  -934.274E-03,0.0534561,0.0380757,-0.0055748
9764,28.0,18.0,0.0,   9.12863E-03,   4.52581E-03,  -963.599E-03,0.0531462,0.0393539,-0.00551908
9767,27.0,18.0,0.0,   9.00295E-03,   4.78428E-03,  -991.464E-03,0.0528379,0.0406094,-0.00544329
9768,26.0,18.0,0.0,   8.84643E-03,   5.03730E-03,      -1.01791,0.0525323,0.0418379,-0.00534889
9773,25.0,18.0,0.0,   8.66190E-03,   5.28404E-03,      -1.04297,0.0522307,0.0430356,-0.00523735
9774,24.0,18.0,0.0,   8.45199E-03,   5.52378E-03,      -1.06668,0.0519343,0.0441989,-0.00511015
9779,23.0,18.0,0.0,   8.21917E-03,   5.75589E-03,      -1.08909,0.051644,0.0453249,-0.00496873
9782,22.0,18.0,0.0,   7.96570E-03,   5.97980E-03,      -1.11023,0.051361,0.046411,-0.00481445
9783,21.0,18.0,0.0,   7.69369E-03,   6.19503E-03,      -1.13015,0.051086,0.047455,-0.00464866
9788,20.0,18.0,0.0,   7.40509E-03,   6.40120E-03,      -1.14887,0.0508199,0.0484549,-0.00447259
9789,19.0,18.0,0.0,   7.10166E-03,   6.59795E-03,      -1.16643,0.0505633,0.0494094,-0.00428741
9794,18.0,18.0,0.0,   6.78503E-03,   6.78503E-03,      -1.18287,0.050317,0.050317,-0.00409418
9797,17.0,18.0,0.0,   6.45669E-03,   6.96222E-03,      -1.19822,0.0500816,0.051177,-0.00389391
9798,16.0,18.0,0.0,   6.11799E-03,   7.12935E-03,      -1.21251,0.0498575,0.0519883,-0.00368748
9803,15.0,18.0,0.0,   5.77014E-03,   7.28631E-03,      -1.22578,0.0496453,0.0527507,-0.0034757
9804,14.0,18.0,0.0,   5.41425E-03,   7.43302E-03,      -1.23805,0.0494453,0.0534635,-0.00325932
9809,13.0,18.0,0.0,   5.05133E-03,   7.56944E-03,      -1.24935,0.0492578,0.0541267,-0.00303897
9812,12.0,18.0,0.0,   4.68226E-03,   7.69554E-03,      -1.25971,0.0490833,0.05474,-0.00281522
9813,11.0,18.0,0.0,   4.30786E-03,   7.81133E-03,      -1.26915,0.0489219,0.0553035,-0.0025886
9818,10.0,18.0,0.0,   3.92884E-03,   7.91683E-03,      -1.27769,0.0487738,0.0558172,-0.00235953
9819,9.0,18.0,0.0,   3.54586E-03,   8.01207E-03,      -1.28535,0.0486394,0.0562812,-0.00212841
9824,8.0,18.0,0.0,   3.15949E-03,   8.09711E-03,      -1.29216,0.0485188,0.0566956,-0.00189558
9827,7.0,18.0,0.0,   2.77025E-03,   8.17199E-03,      -1.29812,0.048412,0.0570608,-0.00166133
9828,6.0,18.0,0.0,   2.37862E-03,   8.23675E-03,      -1.30326,0.0483192,0.0573767,-0.00142593
9833,5.0,18.0,0.0,   1.98502E-03,   8.29145E-03,      -1.30759,0.0482406,0.0576437,-0.00118958
9834,4.0,18.0,0.0,   1.58984E-03,   8.33614E-03,      -1.31112,0.0481761,0.0578619,-0.000952496
9839,3.0,18.0,0.0,   1.19342E-03,   8.37085E-03,      -1.31385,0.048126,0.0580314,-0.000714845
9842,2.0,18.0,0.0,   796.107E-06,   8.39561E-03,      -1.31580,0.0480901,0.0581524,-0.000476784
9843,1.0,18.0,0.0,   398.199E-06,   8.41046E-03,      -1.31696,0.0480685,0.058225,-0.000238457
9848,0.0,18.0,0.0,   5.65300E-15,   8.41541E-03,      -1.31735,0.0480614,0.0582491,-3.63798e-12
9849,-1.0,18.0,0.0,  -398.199E-06,   8.41046E-03,      -1.31696,0.0480685,0.058225,0.000238457
9854,-2.0,18.0,0.0,  -796.107E-06,   8.39561E-03,      -1.31580,0.0480901,0.0581524,0.000476784
9857,-3.0,18.0,0.0,  -1.19342E-03,   8.37085E-03,      -1.31385,0.048126,0.0580314,0.000714845
9858,-4.0,18.0,0.0,  -1.58984E-03,   8.33614E-03,      -1.31112,0.0481761,0.0578619,0.000952496
9863,-5.0,18.0,0.0,  -1.98502E-03,   8.29145E-03,      -1.30759,0.0482406,0.0576437,0.00118958
9864,-6.0,18.0,0.0,  -2.37862E-03,   8.23675E-03,      -1.30326,0.0483192,0.0573767,0.00142593
9869,-7.0,18.0,0.0,  -2.77025E-03,   8.17199E-03,      -1.29812,0.048412,0.0570608,0.00166133
9872,-8.0,18.0,0.0,  -3.15949E-03,   8.09711E-03,      -1.29216,0.0485188,0.0566956,0.00189558
9873,-9.0,18.0,0.0,  -3.54586E-03,   8.01207E-03,      -1.28535,0.0486394,0.0562812,0.00212841
9878,-10.0,18.0,0.0,  -3.92884E-03,   7.91683E-03,      -1.27769,0.0487738,0.0558172,0.00235953
9879,-11.0,18.0,0.0,  -4.30786E-03,   7.81133E-03,      -1.26915,0.0489219,0.0553035,0.0025886
9884,-12.0,18.0,0.0,  -4.68226E-03,   7.69554E-03,      -1.25971,0.0490833,0.05474,0.00281522
9887,-13.0,18.0,0.0,  -5.05133E-03,   7.56944E-03,      -1.24935,0.0492578,0.0541267,0.00303897
9888,-14.0,18.0,0.0,  -5.41425E-03,   7.43302E-03,      -1.23805,0.0494453,0.0534635,0.00325932
9893,-15.0,18.0,0.0,  -5.77014E-03,   7.28631E-03,      -1.22578,0.0496453,0.0527507,0.00347571
9894,-16.0,18.0,0.0,  -6.11799E-03,   7.12935E-03,      -1.21251,0.0498575,0.0519883,0.00368748
9899,-17.0,18.0,0.0,  -6.45669E-03,   6.96222E-03,      -1.19822,0.0500816,0.051177,0.00389391
9902,-18.0,18.0,0.0,  -6.78503E-03,   6.78503E-03,      -1.18287,0.050317,0.050317,0.00409418
9903,-19.0,18.0,0.0,  -7.10166E-03,   6.59795E-03,      -1.16643,0.0505633,0.0494094,0.00428741
9908,-20.0,18.0,0.0,  -7.40509E-03,   6.40120E-03,      -1.14887,0.0508199,0.0484549,0.00447259
9909,-21.0,18.0,0.0,  -7.69369E-03,   6.19503E-03,      -1.13015,0.051086,0.047455,0.00464866
9914,-22.0,18.0,0.0,  -7.96570E-03,   5.97980E-03,      -1.11023,0.051361,0.046411,0.00481445
9917,-23.0,18.0,0.0,  -8.21917E-03,   5.75589E-03,      -1.08909,0.051644,0.0453249,0.00496873
9918,-24.0,18.0,0.0,  -8.45199E-03,   5.52378E-03,      -1.06668,0.0519343,0.0441989,0.00511015
9923,-25.0,18.0,0.0,  -8.66190E-03,   5.28404E-03,      -1.04297,0.0522307,0.0430356,0.00523735
9924,-26.0,18.0,0.0,  -8.84643E-03,   5.03730E-03,      -1.01791,0.0525323,0.0418379,0.00534889
9929,-27.0,18.0,0.0,  -9.00295E-03,   4.78428E-03,  -991.464E-03,0.0528379,0.0406094,0.00544329
9932,-28.0,18.0,0.0,  -9.12863E-03,   4.52581E-03,  -963.599E-03,0.0531462,0.0393539,0.00551908
9933,-29.0,18.0,0.0,  -9.22046E-03,   4.26278E-03,  -934.274E-03,0.0534561,0.0380757,0.0055748
9938,-30.0,18.0,0.0,  -9.27524E-03,   3.99620E-03,  -903.449E-03,0.0537661,0.0367797,0.00560903
9939,-31.0,18.0,0.0,  -9.28958E-03,   3.72714E-03,  -871.086E-03,0.0540748,0.0354711,0.00562041
9944,-32.0,18.0,0.0,  -9.25991E-03,   3.45677E-03,  -837.149E-03,0.0543808,0.0341558,0.0056077
9947,-33.0,18.0,0.0,  -9.18248E-03,   3.18633E-03,  -801.601E-03,0.0546825,0.0328397,0.00556981
9948,-34.0,18.0,0.0,  -9.05336E-03,   2.91713E-03,  -764.407E-03,0.0549784,0.0315296,0.00550581
9953,-35.0,18.0,0.0,  -8.86847E-03,   2.65056E-03,  -725.534E-03,0.0552669,0.0302322,0.00541498
9954,-36.0,18.0,0.0,  -8.62356E-03,   2.38804E-03,  -684.948E-03,0.0555463,0.0289547,0.00529684
9959,-37.0,18.0,0.0,  -8.31426E-03,   2.13104E-03,  -642.620E-03,0.0558148,0.0277044,0.00515122
9962,-38.0,18.0,0.0,  -7.93606E-03,   1.88104E-03,  -598.521E-03,0.0560702,0.0264885,0.00497822
9963,-39.0,18.0,0.0,  -7.48436E-03,   1.63955E-03,  -552.624E-03,0.056309,0.0253141,0.00477836
9968,-40.0,18.0,0.0,  -6.95448E-03,   1.40807E-03,  -504.906E-03,0.0565245,0.024187,0.00455263
9969,-41.0,18.0,0.0,  -6.34179E-03,   1.18811E-03,  -455.348E-03,0.0567022,0.0231105,0.0043027
9974,-42.0,18.0,0.0,  -5.64190E-03,   981.122E-06,  -403.937E-03,0.0568069,0.0220815,0.00403128
9977,-43.0,18.0,0.0,  -4.85117E-03,   788.579E-06,  -350.679E-03,0.0567509,0.0210807,0.00374306
9978,-44.0,18.0,0.0,  -3.96808E-03,   611.955E-06,  -295.616E-03,0.056311,0.0200475,0.00344565
9983,-45.0,18.0,0.0,  -2.99677E-03,   452.821E-06,  -238.890E-03,0.0549142,0.0188162,0.00315242
9984,-46.0,18.0,0.0,  -1.95626E-03,   312.998E-06,  -180.883E-03,0.051084,0.0169499,0.00288207
9989,-47.0,18.0,0.0,  -903.732E-06,   194.846E-06,  -122.607E-03,0.0410037,0.013312,0.00265431
9992,-48.0,18.0,0.0,   11.1153E-06,   101.565E-06,  -66.6879E-03,0.0147892,0.00495084,0.00243925
9993,-49.0,18.0,0.0,   453.025E-06,   36.6895E-06,  -19.9354E-03,-0.053178,-0.0157918,0.00197985
9998,-50.0,18.0,0.0,   2.47342E-39,  -721.196E-42,           -0.,-0.102222,-0.0306707,0.0011179
9999,50.0,17.0,0.0,  -2.51869E-39,  -736.095E-42,           -0.,-0.102912,-0.0308774,-0.00106362
10004,49.0,17.0,0.0,  -460.457E-06,   35.0197E-06,  -20.1437E-03,-0.0531187,-0.0157699,-0.00186877
10007,48.0,17.0,0.0,  -10.2241E-06,   96.5230E-06,  -67.3199E-03,0.0157007,0.00522712,-0.0022947
10008,47.0,17.0,0.0,   916.510E-06,   184.651E-06,  -123.656E-03,0.041988,0.0136033,-0.00249429
10013,46.0,17.0,0.0,   1.98041E-03,   296.079E-06,  -182.324E-03,0.0519989,0.0172094,-0.00270739
10014,45.0,17.0,0.0,   3.03169E-03,   427.841E-06,  -240.715E-03,0.0557659,0.0190424,-0.00296058
10019,44.0,17.0,0.0,   4.01367E-03,   577.771E-06,  -297.833E-03,0.0571257,0.0202456,-0.003235
10022,43.0,17.0,0.0,   4.90767E-03,   744.205E-06,  -353.304E-03,0.0575484,0.0212542,-0.00351323
10023,42.0,17.0,0.0,   5.70962E-03,   925.706E-06,  -406.991E-03,0.0575988,0.0222318,-0.00378299
10028,41.0,17.0,0.0,   6.42098E-03,   1.12092E-03,  -458.853E-03,0.0574947,0.0232377,-0.00403735
10029,40.0,17.0,0.0,   7.04529E-03,   1.32851E-03,  -508.883E-03,0.0573208,0.0242907,-0.00427205
10034,39.0,17.0,0.0,   7.58679E-03,   1.54712E-03,  -557.093E-03,0.0571108,0.0253939,-0.00448463
10037,38.0,17.0,0.0,   8.04996E-03,   1.77536E-03,  -603.499E-03,0.0568784,0.026544,-0.00467351
10038,37.0,17.0,0.0,   8.43932E-03,   2.01185E-03,  -648.123E-03,0.0566297,0.0277354,-0.00483776
10043,36.0,17.0,0.0,   8.75933E-03,   2.25518E-03,  -690.990E-03,0.0563679,0.0289615,-0.00497685
10044,35.0,17.0,0.0,   9.01438E-03,   2.50398E-03,  -732.124E-03,0.0560952,0.0302152,-0.0050906
10049,34.0,17.0,0.0,   9.20872E-03,   2.75686E-03,  -771.555E-03,0.0558131,0.0314895,-0.00517911
10052,33.0,17.0,0.0,   9.34651E-03,   3.01249E-03,  -809.311E-03,0.0555234,0.0327775,-0.00524273
10053,32.0,17.0,0.0,   9.43174E-03,   3.26958E-03,  -845.425E-03,0.0552273,0.0340725,-0.00528204
10058,31.0,17.0,0.0,   9.46829E-03,   3.52687E-03,  -879.929E-03,0.0549264,0.0353682,-0.00529783
10059,30.0,17.0,0.0,   9.45984E-03,   3.78319E-03,  -912.856E-03,0.0546222,0.0366584,-0.00529102
10064,29.0,17.0,0.0,   9.40993E-03,   4.03743E-03,  -944.242E-03,0.0543161,0.0379375,-0.0052627
10067,28.0,17.0,0.0,   9.32193E-03,   4.28854E-03,  -974.122E-03,0.0540094,0.0392003,-0.00521405
10068,27.0,17.0,0.0,   9.19904E-03,   4.53557E-03,      -1.00253,0.0537035,0.040442,-0.00514633
10073,26.0,17.0,0.0,   9.04426E-03,   4.77764E-03,      -1.02951,0.0533997,0.0416581,-0.00506086
10074,25.0,17.0,0.0,   8.86043E-03,   5.01395E-03,      -1.05510,0.0530993,0.0428447,-0.00495897
10079,24.0,17.0,0.0,   8.65022E-03,   5.24378E-03,      -1.07932,0.0528033,0.0439984,-0.004842
10082,23.0,17.0,0.0,   8.41611E-03,   5.46652E-03,      -1.10223,0.0525128,0.045116,-0.00471127
10083,22.0,17.0,0.0,   8.16040E-03,   5.68159E-03,      -1.12385,0.052229,0.0461949,-0.00456805
10088,21.0,17.0,0.0,   7.88526E-03,   5.88852E-03,      -1.14422,0.0519526,0.0472327,-0.00441357
10089,20.0,17.0,0.0,   7.59266E-03,   6.08690E-03,      -1.16339,0.0516846,0.0482274,-0.004249
10094,19.0,17.0,0.0,   7.28442E-03,   6.27638E-03,      -1.18137,0.0514259,0.0491775,-0.00407544
10097,18.0,17.0,0.0,   6.96222E-03,   6.45669E-03,      -1.19822,0.051177,0.0500816,-0.00389391
10098,17.0,17.0,0.0,   6.62759E-03,   6.62759E-03,      -1.21395,0.0509386,0.0509386,-0.00370534
10103,16.0,17.0,0.0,   6.28195E-03,   6.78891E-03,      -1.22861,0.0507114,0.0517476,-0.0035106
10104,15.0,17.0,0.0,   5.92655E-03,   6.94052E-03,      -1.24222,0.0504958,0.0525081,-0.00331047
10109,14.0,17.0,0.0,   5.56255E-03,   7.08231E-03,      -1.25481,0.0502924,0.0532195,-0.00310566
10112,13.0,17.0,0.0,   5.19100E-03,   7.21422E-03,      -1.26641,0.0501015,0.0538816,-0.0028968
10113,12.0,17.0,0.0,   4.81284E-03,   7.33623E-03,      -1.27704,0.0499235,0.0544941,-0.00268447
10118,11.0,17.0,0.0,   4.42893E-03,   7.44832E-03,      -1.28673,0.0497587,0.055057,-0.00246915
10119,10.0,17.0,0.0,   4.04003E-03,   7.55049E-03,      -1.29550,0.0496075,0.0555703,-0.00225131
10124,9.0,17.0,0.0,   3.64683E-03,   7.64277E-03,      -1.30338,0.04947,0.0560341,-0.00203131
10127,8.0,17.0,0.0,   3.24995E-03,   7.72518E-03,      -1.31037,0.0493464,0.0564484,-0.00180952
10128,7.0,17.0,0.0,   2.84994E-03,   7.79777E-03,      -1.31650,0.049237,0.0568135,-0.00158622
10133,6.0,17.0,0.0,   2.44733E-03,   7.86058E-03,      -1.32178,0.049142,0.0571295,-0.00136169
10134,5.0,17.0,0.0,   2.04255E-03,   7.91364E-03,      -1.32623,0.0490613,0.0573965,-0.00113616
10139,4.0,17.0,0.0,   1.63604E-03,   7.95699E-03,      -1.32986,0.0489952,0.0576147,-0.000909825
10142,3.0,17.0,0.0,   1.22818E-03,   7.99067E-03,      -1.33267,0.0489437,0.0577843,-0.000682882
10143,2.0,17.0,0.0,   819.328E-06,   8.01471E-03,      -1.33467,0.0489068,0.0579053,-0.000455495
10148,1.0,17.0,0.0,   409.825E-06,   8.02912E-03,      -1.33587,0.0488847,0.0579779,-0.000227819
10149,0.0,17.0,0.0,   744.958E-18,   8.03393E-03,      -1.33627,0.0488773,0.058002,-3.63798e-12
10154,-1.0,17.0,0.0,  -409.825E-06,   8.02912E-03,      -1.33587,0.0488847,0.0579779,0.000227819
10157,-2.0,17.0,0.0,  -819.328E-06,   8.01471E-03,      -1.33467,0.0489068,0.0579053,0.000455495
10158,-3.0,17.0,0.0,  -1.22818E-03,   7.99067E-03,      -1.33267,0.0489437,0.0577843,0.000682882
10163,-4.0,17.0,0.0,  -1.63604E-03,   7.95699E-03,      -1.32986,0.0489952,0.0576147,0.000909825
10164,-5.0,17.0,0.0,  -2.04255E-03,   7.91364E-03,      -1.32623,0.0490613,0.0573965,0.00113616
10169,-6.0,17.0,0.0,  -2.44733E-03,   7.86058E-03,      -1.32178,0.049142,0.0571295,0.00136169
10172,-7.0,17.0,0.0,  -2.84994E-03,   7.79777E-03,      -1.31650,0.049237,0.0568135,0.00158622
10173,-8.0,17.0,0.0,  -3.24995E-03,   7.72518E-03,      -1.31037,0.0493464,0.0564484,0.00180952
10178,-9.0,17.0,0.0,  -3.64683E-03,   7.64277E-03,      -1.30338,0.04947,0.0560341,0.00203131
10179,-10.0,17.0,0.0,  -4.04003E-03,   7.55049E-03,      -1.29550,0.0496075,0.0555703,0.00225131
10184,-11.0,17.0,0.0,  -4.42893E-03,   7.44832E-03,      -1.28673,0.0497587,0.055057,0.00246915
10187,-12.0,17.0,0.0,  -4.81284E-03,   7.33623E-03,      -1.27704,0.0499235,0.0544941,0.00268447
10188,-13.0,17.0,0.0,  -5.19100E-03,   7.21422E-03,      -1.26641,0.0501015,0.0538816,0.0028968
10193,-14.0,17.0,0.0,  -5.56255E-03,   7.08231E-03,      -1.25481,0.0502924,0.0532195,0.00310566
10194,-15.0,17.0,0.0,  -5.92655E-03,   6.94052E-03,      -1.24222,0.0504958,0.0525081,0.00331047
10199,-16.0,17.0,0.0,  -6.28195E-03,   6.78891E-03,      -1.22861,0.0507114,0.0517476,0.0035106
10202,-17.0,17.0,0.0,  -6.62759E-03,   6.62759E-03,      -1.21395,0.0509386,0.0509386,0.00370534
10203,-18.0,17.0,0.0,  -6.96222E-03,   6.45669E-03,      -1.19822,0.051177,0.0500816,0.00389391
10208,-19.0,17.0,0.0,  -7.28442E-03,   6.27638E-03,      -1.18137,0.0514258,0.0491775,0.00407544
10209,-20.0,17.0,0.0,  -7.59266E-03,   6.08690E-03,      -1.16339,0.0516846,0.0482274,0.004249
10214,-21.0,17.0,0.0,  -7.88526E-03,   5.88852E-03,      -1.14422,0.0519526,0.0472327,0.00441357
10217,-22.0,17.0,0.0,  -8.16040E-03,   5.68159E-03,      -1.12385,0.052229,0.0461949,0.00456805
10218,-23.0,17.0,0.0,  -8.41611E-03,   5.46652E-03,      -1.10223,0.0525128,0.045116,0.00471127
10223,-24.0,17.0,0.0,  -8.65022E-03,   5.24378E-03,      -1.07932,0.0528033,0.0439984,0.004842
10224,-25.0,17.0,0.0,  -8.86043E-03,   5.01395E-03,      -1.05510,0.0530993,0.0428447,0.00495897
10229,-26.0,17.0,0.0,  -9.04426E-03,   4.77764E-03,      -1.02951,0.0533998,0.0416581,0.00506086
10232,-27.0,17.0,0.0,  -9.19904E-03,   4.53557E-03,      -1.00253,0.0537035,0.040442,0.00514633
10233,-28.0,17.0,0.0,  -9.32193E-03,   4.28854E-03,  -974.122E-03,0.0540094,0.0392003,0.00521405
10238,-29.0,17.0,0.0,  -9.40993E-03,   4.03743E-03,  -944.242E-03,0.0543161,0.0379375,0.0052627
10239,-30.0,17.0,0.0,  -9.45984E-03,   3.78319E-03,  -912.856E-03,0.0546222,0.0366584,0.00529102
10244,-31.0,17.0,0.0,  -9.46829E-03,   3.52687E-03,  -879.929E-03,0.0549264,0.0353682,0.00529783
10247,-32.0,17.0,0.0,  -9.43174E-03,   3.26958E-03,  -845.425E-03,0.0552273,0.0340725,0.00528204
10248,-33.0,17.0,0.0,  -9.34651E-03,   3.01249E-03,  -809.311E-03,0.0555234,0.0327775,0.00524273
10253,-34.0,17.0,0.0,  -9.20872E-03,   2.75686E-03,  -771.555E-03,0.0558131,0.0314895,0.00517911
10254,-35.0,17.0,0.0,  -9.01438E-03,   2.50398E-03,  -732.124E-03,0.0560952,0.0302152,0.0050906
10259,-36.0,17.0,0.0,  -8.75933E-03,   2.25518E-03,  -690.990E-03,0.0563679,0.0289615,0.00497685
10262,-37.0,17.0,0.0,  -8.43932E-03,   2.01185E-03,  -648.123E-03,0.0566297,0.0277354,0.00483776
10263,-38.0,17.0,0.0,  -8.04996E-03,   1.77536E-03,  -603.499E-03,0.0568784,0.026544,0.00467351
10268,-39.0,17.0,0.0,  -7.58679E-03,   1.54712E-03,  -557.093E-03,0.0571108,0.0253939,0.00448463
10269,-40.0,17.0,0.0,  -7.04529E-03,   1.32851E-03,  -508.883E-03,0.0573208,0.0242907,0.00427205
10274,-41.0,17.0,0.0,  -6.42098E-03,   1.12092E-03,  -458.853E-03,0.0574947,0.0232377,0.00403735
10277,-42.0,17.0,0.0,  -5.70962E-03,   925.706E-06,  -406.991E-03,0.0575988,0.0222318,0.00378299
10278,-43.0,17.0,0.0,  -4.90767E-03,   744.205E-06,  -353.304E-03,0.0575484,0.0212542,0.00351323
10283,-44.0,17.0,0.0,  -4.01367E-03,   577.771E-06,  -297.833E-03,0.0571257,0.0202456,0.003235
10284,-45.0,17.0,0.0,  -3.03169E-03,   427.841E-06,  -240.715E-03,0.0557659,0.0190424,0.00296058
10289,-46.0,17.0,0.0,  -1.98041E-03,   296.079E-06,  -182.324E-03,0.0519989,0.0172094,0.00270739
10292,-47.0,17.0,0.0,  -916.510E-06,   184.651E-06,  -123.656E-03,0.041988,0.0136033,0.00249429
10293,-48.0,17.0,0.0,   10.2241E-06,   96.5230E-06,  -67.3199E-03,0.0157007,0.00522712,0.00229469
10298,-49.0,17.0,0.0,   460.457E-06,   35.0197E-06,  -20.1437E-03,-0.0531187,-0.0157699,0.00186877
10299,-50.0,17.0,0.0,   2.51869E-39,  -736.095E-42,           -0.,-0.102912,-0.0308774,0.00106362
10304,50.0,16.0,0.0,  -2.56130E-39,  -750.258E-42,           -0.,-0.103551,-0.031069,-0.00100769
10307,49.0,16.0,0.0,  -467.410E-06,   33.2754E-06,  -20.3380E-03,-0.0530553,-0.0157473,-0.00175763
10308,48.0,16.0,0.0,  -9.35500E-06,   91.3543E-06,  -67.9086E-03,0.0165606,0.00548723,-0.00215161
10313,47.0,16.0,0.0,   928.438E-06,   174.314E-06,  -124.632E-03,0.0429123,0.0138764,-0.00233649
10314,46.0,16.0,0.0,   2.00287E-03,   279.035E-06,  -183.663E-03,0.0528574,0.0174524,-0.00253537
10319,45.0,16.0,0.0,   3.06411E-03,   402.779E-06,  -242.409E-03,0.0565657,0.0192547,-0.00277185
10322,44.0,16.0,0.0,   4.05597E-03,   543.560E-06,  -299.890E-03,0.0578916,0.0204321,-0.00302795
10323,43.0,16.0,0.0,   4.96005E-03,   699.857E-06,  -355.738E-03,0.0582986,0.0214182,-0.00328751
10328,42.0,16.0,0.0,   5.77239E-03,   870.361E-06,  -409.823E-03,0.0583438,0.0223746,-0.00353926
10329,41.0,16.0,0.0,   6.49440E-03,   1.05383E-03,  -462.102E-03,0.0582402,0.0233594,-0.0037769
10334,40.0,16.0,0.0,   7.12950E-03,   1.24904E-03,  -512.569E-03,0.0580699,0.0243908,-0.00399656
10337,39.0,16.0,0.0,   7.68180E-03,   1.45474E-03,  -561.233E-03,0.0578648,0.0254719,-0.00419601
10338,38.0,16.0,0.0,   8.15564E-03,   1.66966E-03,  -608.111E-03,0.057638,0.0265995,-0.00437379
10343,37.0,16.0,0.0,   8.55541E-03,   1.89252E-03,  -653.221E-03,0.0573953,0.0277683,-0.004529
10344,36.0,16.0,0.0,   8.88544E-03,   2.12201E-03,  -696.585E-03,0.0571397,0.0289717,-0.00466113
10349,35.0,16.0,0.0,   9.14999E-03,   2.35686E-03,  -738.228E-03,0.056873,0.0302031,-0.00476994
10352,34.0,16.0,0.0,   9.35322E-03,   2.59577E-03,  -778.175E-03,0.0565968,0.0314558,-0.00485546
10353,33.0,16.0,0.0,   9.49919E-03,   2.83751E-03,  -816.454E-03,0.0563127,0.0327229,-0.00491796
10358,32.0,16.0,0.0,   9.59183E-03,   3.08085E-03,  -853.093E-03,0.0560219,0.033998,-0.00495791
10359,31.0,16.0,0.0,   9.63492E-03,   3.32463E-03,  -888.124E-03,0.0557259,0.0352748,-0.00497594
10364,30.0,16.0,0.0,   9.63212E-03,   3.56772E-03,  -921.577E-03,0.055426,0.0365475,-0.00497287
10367,29.0,16.0,0.0,   9.58693E-03,   3.80907E-03,  -953.485E-03,0.0551236,0.0378104,-0.00494962
10368,28.0,16.0,0.0,   9.50268E-03,   4.04770E-03,  -983.883E-03,0.0548202,0.0390583,-0.00490723
10373,27.0,16.0,0.0,   9.38256E-03,   4.28267E-03,      -1.01280,0.0545169,0.0402864,-0.00484683
10374,26.0,16.0,0.0,   9.22959E-03,   4.51315E-03,      -1.04029,0.0542151,0.0414903,-0.00476959
10379,25.0,16.0,0.0,   9.04659E-03,   4.73836E-03,      -1.06636,0.0539159,0.0426661,-0.00467671
10382,24.0,16.0,0.0,   8.83627E-03,   4.95760E-03,      -1.09106,0.0536207,0.0438101,-0.00456941
10383,23.0,16.0,0.0,   8.60111E-03,   5.17026E-03,      -1.11444,0.0533305,0.0449193,-0.00444888
10388,22.0,16.0,0.0,   8.34347E-03,   5.37579E-03,      -1.13651,0.0530463,0.0459908,-0.0043163
10389,21.0,16.0,0.0,   8.06553E-03,   5.57371E-03,      -1.15732,0.0527691,0.0470223,-0.00417282
10394,20.0,16.0,0.0,   7.76931E-03,   5.76360E-03,      -1.17690,0.0524998,0.0480117,-0.00401952
10397,19.0,16.0,0.0,   7.45668E-03,   5.94513E-03,      -1.19529,0.0522393,0.0489573,-0.00385741
10398,18.0,16.0,0.0,   7.12935E-03,   6.11799E-03,      -1.21251,0.0519883,0.0498575,-0.00368748
10403,17.0,16.0,0.0,   6.78891E-03,   6.28195E-03,      -1.22861,0.0517476,0.0507114,-0.0035106
10404,16.0,16.0,0.0,   6.43682E-03,   6.43682E-03,      -1.24361,0.0515178,0.0515178,-0.00332759
10409,15.0,16.0,0.0,   6.07437E-03,   6.58245E-03,      -1.25754,0.0512995,0.0522762,-0.00313922
10412,14.0,16.0,0.0,   5.70279E-03,   6.71873E-03,      -1.27043,0.0510932,0.052986,-0.00294616
10413,13.0,16.0,0.0,   5.32316E-03,   6.84560E-03,      -1.28231,0.0508994,0.0536467,-0.00274902
10418,12.0,16.0,0.0,   4.93646E-03,   6.96299E-03,      -1.29321,0.0507185,0.0542583,-0.00254836
10419,11.0,16.0,0.0,   4.54360E-03,   7.07089E-03,      -1.30314,0.0505508,0.0548204,-0.00234467
10424,10.0,16.0,0.0,   4.14539E-03,   7.16929E-03,      -1.31213,0.0503968,0.0553332,-0.00213839
10427,9.0,16.0,0.0,   3.74254E-03,   7.25819E-03,      -1.32021,0.0502566,0.0557965,-0.0019299
10428,8.0,16.0,0.0,   3.33572E-03,   7.33762E-03,      -1.32738,0.0501306,0.0562106,-0.00171955
10433,7.0,16.0,0.0,   2.92553E-03,   7.40760E-03,      -1.33366,0.0500189,0.0565755,-0.00150764
10434,6.0,16.0,0.0,   2.51251E-03,   7.46817E-03,      -1.33908,0.0499218,0.0568914,-0.00129445
10439,5.0,16.0,0.0,   2.09715E-03,   7.51935E-03,      -1.34365,0.0498394,0.0571583,-0.0010802
10442,4.0,16.0,0.0,   1.67990E-03,   7.56117E-03,      -1.34736,0.0497717,0.0573765,-0.000865109
10443,3.0,16.0,0.0,   1.26117E-03,   7.59367E-03,      -1.35025,0.0497191,0.057546,-0.000649376
10448,2.0,16.0,0.0,   841.372E-06,   7.61686E-03,      -1.35230,0.0496814,0.0576671,-0.000433173
10449,1.0,16.0,0.0,   420.862E-06,   7.63077E-03,      -1.35353,0.0496587,0.0577397,-0.000216662
10454,0.0,16.0,0.0,  -312.477E-18,   7.63540E-03,      -1.35394,0.0496512,0.0577638,0.0
10457,-1.0,16.0,0.0,  -420.862E-06,   7.63077E-03,      -1.35353,0.0496587,0.0577397,0.000216662
10458,-2.0,16.0,0.0,  -841.372E-06,   7.61686E-03,      -1.35230,0.0496814,0.0576671,0.000433173
10463,-3.0,16.0,0.0,  -1.26117E-03,   7.59367E-03,      -1.35025,0.0497191,0.057546,0.000649376
10464,-4.0,16.0,0.0,  -1.67990E-03,   7.56117E-03,      -1.34736,0.0497717,0.0573765,0.000865109
10469,-5.0,16.0,0.0,  -2.09715E-03,   7.51935E-03,      -1.34365,0.0498394,0.0571583,0.0010802
10472,-6.0,16.0,0.0,  -2.51251E-03,   7.46817E-03,      -1.33908,0.0499218,0.0568913,0.00129445
10473,-7.0,16.0,0.0,  -2.92553E-03,   7.40760E-03,      -1.33366,0.0500189,0.0565755,0.00150764
10478,-8.0,16.0,0.0,  -3.33572E-03,   7.33762E-03,      -1.32738,0.0501306,0.0562106,0.00171955
10479,-9.0,16.0,0.0,  -3.74254E-03,   7.25819E-03,      -1.32021,0.0502566,0.0557965,0.0019299
10484,-10.0,16.0,0.0,  -4.14539E-03,   7.16929E-03,      -1.31213,0.0503968,0.0553332,0.00213839
10487,-11.0,16.0,0.0,  -4.54360E-03,   7.07089E-03,      -1.30314,0.0505508,0.0548204,0.00234467
10488,-12.0,16.0,0.0,  -4.93646E-03,   6.96299E-03,      -1.29321,0.0507185,0.0542583,0.00254836
10493,-13.0,16.0,0.0,  -5.32316E-03,   6.84560E-03,      -1.28231,0.0508994,0.0536467,0.00274902
10494,-14.0,16.0,0.0,  -5.70279E-03,   6.71873E-03,      -1.27043,0.0510932,0.052986,0.00294616
10499,-15.0,16.0,0.0,  -6.07437E-03,   6.58245E-03,      -1.25754,0.0512995,0.0522762,0.00313922
10502,-16.0,16.0,0.0,  -6.43682E-03,   6.43682E-03,      -1.24361,0.0515178,0.0515178,0.00332759
10503,-17.0,16.0,0.0,  -6.78891E-03,   6.28195E-03,      -1.22861,0.0517476,0.0507114,0.0035106
10508,-18.0,16.0,0.0,  -7.12935E-03,   6.11799E-03,      -1.21251,0.0519883,0.0498575,0.00368748
10509,-19.0,16.0,0.0,  -7.45668E-03,   5.94513E-03,      -1.19529,0.0522393,0.0489573,0.00385741
10514,-20.0,16.0,0.0,  -7.76931E-03,   5.76360E-03,      -1.17690,0.0524998,0.0480117,0.00401952
10515,-21.0,16.0,0.0,  -8.06553E-03,   5.57371E-03,      -1.15732,0.0527691,0.0470223,0.00417282
10520,-22.0,16.0,0.0,  -8.34347E-03,   5.37579E-03,      -1.13651,0.0530463,0.0459908,0.0043163
10521,-23.0,16.0,0.0,  -8.60111E-03,   5.17026E-03,      -1.11444,0.0533305,0.0449193,0.00444888
10526,-24.0,16.0,0.0,  -8.83627E-03,   4.95760E-03,      -1.09106,0.0536207,0.0438101,0.00456941
10529,-25.0,16.0,0.0,  -9.04659E-03,   4.73836E-03,      -1.06636,0.0539159,0.0426661,0.00467671
10530,-26.0,16.0,0.0,  -9.22959E-03,   4.51315E-03,      -1.04029,0.0542151,0.0414903,0.00476959
10535,-27.0,16.0,0.0,  -9.38256E-03,   4.28267E-03,      -1.01280,0.0545169,0.0402864,0.00484683
10536,-28.0,16.0,0.0,  -9.50268E-03,   4.04770E-03,  -983.883E-03,0.0548202,0.0390583,0.00490723
10541,-29.0,16.0,0.0,  -9.58693E-03,   3.80907E-03,  -953.485E-03,0.0551236,0.0378104,0.00494962
10544,-30.0,16.0,0.0,  -9.63212E-03,   3.56772E-03,  -921.577E-03,0.055426,0.0365475,0.00497287
10545,-31.0,16.0,0.0,  -9.63492E-03,   3.32463E-03,  -888.124E-03,0.0557259,0.0352748,0.00497594
10550,-32.0,16.0,0.0,  -9.59183E-03,   3.08085E-03,  -853.093E-03,0.0560219,0.033998,0.00495791
10551,-33.0,16.0,0.0,  -9.49919E-03,   2.83751E-03,  -816.454E-03,0.0563127,0.0327229,0.00491796
10556,-34.0,16.0,0.0,  -9.35322E-03,   2.59577E-03,  -778.175E-03,0.0565968,0.0314558,0.00485546
10559,-35.0,16.0,0.0,  -9.14999E-03,   2.35686E-03,  -738.228E-03,0.056873,0.0302031,0.00476994
10560,-36.0,16.0,0.0,  -8.88544E-03,   2.12201E-03,  -696.585E-03,0.0571397,0.0289717,0.00466113
10565,-37.0,16.0,0.0,  -8.55541E-03,   1.89252E-03,  -653.221E-03,0.0573953,0.0277683,0.004529
10566,-38.0,16.0,0.0,  -8.15564E-03,   1.66966E-03,  -608.111E-03,0.057638,0.0265995,0.00437379
10571,-39.0,16.0,0.0,  -7.68180E-03,   1.45474E-03,  -561.233E-03,0.0578648,0.0254719,0.00419601
10574,-40.0,16.0,0.0,  -7.12950E-03,   1.24904E-03,  -512.569E-03,0.0580699,0.0243908,0.00399656
10575,-41.0,16.0,0.0,  -6.49440E-03,   1.05383E-03,  -462.102E-03,0.0582402,0.0233594,0.0037769
10580,-42.0,16.0,0.0,  -5.77239E-03,   870.361E-06,  -409.823E-03,0.0583438,0.0223746,0.00353926
10581,-43.0,16.0,0.0,  -4.96005E-03,   699.857E-06,  -355.738E-03,0.0582986,0.0214182,0.00328751
10586,-44.0,16.0,0.0,  -4.05597E-03,   543.560E-06,  -299.890E-03,0.0578916,0.0204321,0.00302795
10589,-45.0,16.0,0.0,  -3.06411E-03,   402.779E-06,  -242.409E-03,0.0565657,0.0192547,0.00277185
10590,-46.0,16.0,0.0,  -2.00287E-03,   279.035E-06,  -183.663E-03,0.0528574,0.0174524,0.00253537
10595,-47.0,16.0,0.0,  -928.438E-06,   174.314E-06,  -124.632E-03,0.0429123,0.0138764,0.00233649
10596,-48.0,16.0,0.0,   9.35500E-06,   91.3543E-06,  -67.9086E-03,0.0165606,0.00548723,0.00215161
10601,-49.0,16.0,0.0,   467.410E-06,   33.2754E-06,  -20.3380E-03,-0.0530553,-0.0157473,0.00175763
10604,-50.0,16.0,0.0,   2.56130E-39,  -750.258E-42,           -0.,-0.103551,-0.031069,0.00100769
10605,50.0,15.0,0.0,  -2.60130E-39,  -763.687E-42,           -0.,-0.104141,-0.031246,-0.000950326
10610,49.0,15.0,0.0,  -473.893E-06,   31.4650E-06,  -20.5188E-03,-0.0529893,-0.0157244,-0.00164652
10611,48.0,15.0,0.0,  -8.51725E-06,   86.0751E-06,  -68.4553E-03,0.0173685,0.00573121,-0.00200994
10616,47.0,15.0,0.0,   939.532E-06,   163.854E-06,  -125.537E-03,0.0437773,0.0141315,-0.00218077
10619,46.0,15.0,0.0,   2.02369E-03,   261.890E-06,  -184.903E-03,0.0536602,0.0176795,-0.00236581
10620,45.0,15.0,0.0,   3.09411E-03,   377.658E-06,  -243.978E-03,0.0573142,0.0194533,-0.00258596
10625,44.0,15.0,0.0,   4.09508E-03,   509.343E-06,  -301.793E-03,0.0586089,0.020607,-0.00282419
10626,43.0,15.0,0.0,   5.00848E-03,   655.558E-06,  -357.991E-03,0.0590017,0.0215726,-0.00306554
10631,42.0,15.0,0.0,   5.83041E-03,   815.111E-06,  -412.442E-03,0.0590422,0.0225096,-0.00329969
10634,41.0,15.0,0.0,   6.56226E-03,   986.869E-06,  -465.105E-03,0.0589391,0.023475,-0.00352094
10635,40.0,15.0,0.0,   7.20734E-03,   1.16971E-03,  -515.975E-03,0.0587718,0.0244866,-0.00372577
10640,39.0,15.0,0.0,   7.76965E-03,   1.36248E-03,  -565.059E-03,0.0585711,0.0255474,-0.00391215
10641,38.0,15.0,0.0,   8.25340E-03,   1.56402E-03,  -612.372E-03,0.0583493,0.0266542,-0.00407874
10646,37.0,15.0,0.0,   8.66284E-03,   1.77315E-03,  -657.930E-03,0.058112,0.027802,-0.0042247
10649,36.0,15.0,0.0,   9.00220E-03,   1.98866E-03,  -701.755E-03,0.0578619,0.0289845,-0.00434951
10650,35.0,15.0,0.0,   9.27563E-03,   2.20937E-03,  -743.867E-03,0.0576007,0.0301952,-0.00445292
10655,34.0,15.0,0.0,   9.48719E-03,   2.43408E-03,  -784.292E-03,0.0573299,0.0314275,-0.0045349
10656,33.0,15.0,0.0,   9.64085E-03,   2.66164E-03,  -823.053E-03,0.057051,0.032675,-0.00459565
10661,32.0,15.0,0.0,   9.74046E-03,   2.89091E-03,  -860.179E-03,0.056765,0.0339314,-0.00463554
10664,31.0,15.0,0.0,   9.78976E-03,   3.12079E-03,  -895.698E-03,0.0564735,0.0351904,-0.0046551
10665,30.0,15.0,0.0,   9.79234E-03,   3.35022E-03,  -929.639E-03,0.0561778,0.0364464,-0.00465501
10670,29.0,15.0,0.0,   9.75167E-03,   3.57823E-03,  -962.032E-03,0.0558791,0.0376937,-0.0046361
10671,28.0,15.0,0.0,   9.67106E-03,   3.80385E-03,  -992.911E-03,0.0555788,0.0389273,-0.00459926
10676,27.0,15.0,0.0,   9.55368E-03,   4.02623E-03,      -1.02231,0.0552781,0.0401423,-0.00454549
10679,26.0,15.0,0.0,   9.40253E-03,   4.24454E-03,      -1.05026,0.0549784,0.0413344,-0.00447583
10680,25.0,15.0,0.0,   9.22047E-03,   4.45805E-03,      -1.07679,0.0546808,0.0424995,-0.00439137
10685,24.0,15.0,0.0,   9.01018E-03,   4.66609E-03,      -1.10194,0.0543866,0.0436341,-0.00429319
10686,23.0,15.0,0.0,   8.77420E-03,   4.86805E-03,      -1.12575,0.0540969,0.0447349,-0.00418241
10691,22.0,15.0,0.0,   8.51489E-03,   5.06340E-03,      -1.14824,0.0538127,0.0457991,-0.00406008
10694,21.0,15.0,0.0,   8.23446E-03,   5.25166E-03,      -1.16946,0.0535351,0.0468242,-0.00392727
10695,20.0,15.0,0.0,   7.93498E-03,   5.43243E-03,      -1.18943,0.0532649,0.0478081,-0.00378498
10700,19.0,15.0,0.0,   7.61834E-03,   5.60535E-03,      -1.20819,0.0530032,0.048749,-0.00363416
10701,18.0,15.0,0.0,   7.28631E-03,   5.77014E-03,      -1.22578,0.0527507,0.0496453,-0.00347571
10706,17.0,15.0,0.0,   6.94052E-03,   5.92655E-03,      -1.24222,0.0525081,0.0504958,-0.00331047
10709,16.0,15.0,0.0,   6.58245E-03,   6.07437E-03,      -1.25754,0.0522762,0.0512995,-0.00313922
10710,15.0,15.0,0.0,   6.21347E-03,   6.21347E-03,      -1.27178,0.0520557,0.0520557,-0.00296268
10715,14.0,15.0,0.0,   5.83482E-03,   6.34371E-03,      -1.28496,0.051847,0.0527636,-0.00278149
10716,13.0,15.0,0.0,   5.44764E-03,   6.46500E-03,      -1.29710,0.0516507,0.0534229,-0.00259625
10721,12.0,15.0,0.0,   5.05296E-03,   6.57730E-03,      -1.30824,0.0514673,0.0540332,-0.00240749
10724,11.0,15.0,0.0,   4.65171E-03,   6.68056E-03,      -1.31840,0.0512972,0.0545945,-0.00221569
10725,10.0,15.0,0.0,   4.24475E-03,   6.77476E-03,      -1.32760,0.0511407,0.0551065,-0.00202127
10730,9.0,15.0,0.0,   3.83284E-03,   6.85991E-03,      -1.33587,0.0509982,0.0555694,-0.00182462
10731,8.0,15.0,0.0,   3.41668E-03,   6.93601E-03,      -1.34321,0.0508701,0.055983,-0.00162608
10736,7.0,15.0,0.0,   2.99689E-03,   7.00307E-03,      -1.34964,0.0507564,0.0563476,-0.00142594
10739,6.0,15.0,0.0,   2.57406E-03,   7.06113E-03,      -1.35519,0.0506575,0.0566633,-0.00122449
10740,5.0,15.0,0.0,   2.14871E-03,   7.11019E-03,      -1.35986,0.0505735,0.0569301,-0.00102195
10745,4.0,15.0,0.0,   1.72132E-03,   7.15030E-03,      -1.36367,0.0505046,0.0571482,-0.000818548
10746,3.0,15.0,0.0,   1.29235E-03,   7.18147E-03,      -1.36662,0.0504509,0.0573177,-0.000614476
10751,2.0,15.0,0.0,   862.201E-06,   7.20371E-03,      -1.36872,0.0504125,0.0574387,-0.000409916
10754,1.0,15.0,0.0,   431.291E-06,   7.21706E-03,      -1.36998,0.0503894,0.0575113,-0.000205037
10755,0.0,15.0,0.0,  -935.770E-18,   7.22150E-03,      -1.37040,0.0503817,0.0575354,-1.81899e-12
10760,-1.0,15.0,0.0,  -431.291E-06,   7.21706E-03,      -1.36998,0.0503894,0.0575113,0.000205037
10761,-2.0,15.0,0.0,  -862.201E-06,   7.20371E-03,      -1.36872,0.0504125,0.0574387,0.000409916
10766,-3.0,15.0,0.0,  -1.29235E-03,   7.18147E-03,      -1.36662,0.0504509,0.0573177,0.000614476
10769,-4.0,15.0,0.0,  -1.72132E-03,   7.15030E-03,      -1.36367,0.0505046,0.0571482,0.000818548
10770,-5.0,15.0,0.0,  -2.14871E-03,   7.11019E-03,      -1.35986,0.0505735,0.0569301,0.00102195
10775,-6.0,15.0,0.0,  -2.57406E-03,   7.06113E-03,      -1.35519,0.0506575,0.0566633,0.00122449
10776,-7.0,15.0,0.0,  -2.99689E-03,   7.00307E-03,      -1.34964,0.0507564,0.0563476,0.00142594
10781,-8.0,15.0,0.0,  -3.41668E-03,   6.93601E-03,      -1.34321,0.0508701,0.055983,0.00162608
10784,-9.0,15.0,0.0,  -3.83284E-03,   6.85991E-03,      -1.33587,0.0509982,0.0555694,0.00182462
10785,-10.0,15.0,0.0,  -4.24475E-03,   6.77476E-03,      -1.32760,0.0511407,0.0551065,0.00202127
10790,-11.0,15.0,0.0,  -4.65171E-03,   6.68056E-03,      -1.31840,0.0512972,0.0545945,0.00221569
10791,-12.0,15.0,0.0,  -5.05296E-03,   6.57730E-03,      -1.30824,0.0514673,0.0540332,0.00240749
10796,-13.0,15.0,0.0,  -5.44764E-03,   6.46500E-03,      -1.29710,0.0516507,0.0534229,0.00259625
10799,-14.0,15.0,0.0,  -5.83482E-03,   6.34371E-03,      -1.28496,0.051847,0.0527636,0.00278149
10800,-15.0,15.0,0.0,  -6.21347E-03,   6.21347E-03,      -1.27178,0.0520557,0.0520557,0.00296268
10805,-16.0,15.0,0.0,  -6.58245E-03,   6.07437E-03,      -1.25754,0.0522762,0.0512995,0.00313922
10806,-17.0,15.0,0.0,  -6.94052E-03,   5.92655E-03,      -1.24222,0.0525081,0.0504958,0.00331047
10811,-18.0,15.0,0.0,  -7.28631E-03,   5.77014E-03,      -1.22578,0.0527507,0.0496453,0.0034757
10814,-19.0,15.0,0.0,  -7.61834E-03,   5.60535E-03,      -1.20819,0.0530032,0.048749,0.00363416
10815,-20.0,15.0,0.0,  -7.93498E-03,   5.43243E-03,      -1.18943,0.0532649,0.0478081,0.00378498
10820,-21.0,15.0,0.0,  -8.23446E-03,   5.25166E-03,      -1.16946,0.0535351,0.0468242,0.00392727
10821,-22.0,15.0,0.0,  -8.51489E-03,   5.06340E-03,      -1.14824,0.0538127,0.0457991,0.00406008
10826,-23.0,15.0,0.0,  -8.77420E-03,   4.86805E-03,      -1.12575,0.0540969,0.0447349,0.00418241
10829,-24.0,15.0,0.0,  -9.01018E-03,   4.66609E-03,      -1.10194,0.0543866,0.0436341,0.00429319
10830,-25.0,15.0,0.0,  -9.22047E-03,   4.45805E-03,      -1.07679,0.0546808,0.0424995,0.00439137
10835,-26.0,15.0,0.0,  -9.40253E-03,   4.24454E-03,      -1.05026,0.0549784,0.0413344,0.00447583
10836,-27.0,15.0,0.0,  -9.55368E-03,   4.02623E-03,      -1.02231,0.0552781,0.0401423,0.00454549
10841,-28.0,15.0,0.0,  -9.67106E-03,   3.80385E-03,  -992.911E-03,0.0555788,0.0389273,0.00459926
10844,-29.0,15.0,0.0,  -9.75167E-03,   3.57823E-03,  -962.032E-03,0.0558791,0.0376937,0.0046361
10845,-30.0,15.0,0.0,  -9.79234E-03,   3.35022E-03,  -929.639E-03,0.0561778,0.0364464,0.00465501
10850,-31.0,15.0,0.0,  -9.78976E-03,   3.12079E-03,  -895.698E-03,0.0564735,0.0351904,0.0046551
10851,-32.0,15.0,0.0,  -9.74046E-03,   2.89091E-03,  -860.179E-03,0.056765,0.0339314,0.00463554
10856,-33.0,15.0,0.0,  -9.64085E-03,   2.66164E-03,  -823.053E-03,0.057051,0.032675,0.00459565
10859,-34.0,15.0,0.0,  -9.48719E-03,   2.43408E-03,  -784.292E-03,0.0573299,0.0314275,0.0045349
10860,-35.0,15.0,0.0,  -9.27563E-03,   2.20937E-03,  -743.867E-03,0.0576007,0.0301952,0.00445292
10865,-36.0,15.0,0.0,  -9.00220E-03,   1.98866E-03,  -701.755E-03,0.0578619,0.0289845,0.00434951
10866,-37.0,15.0,0.0,  -8.66284E-03,   1.77315E-03,  -657.930E-03,0.058112,0.027802,0.0042247
10871,-38.0,15.0,0.0,  -8.25340E-03,   1.56402E-03,  -612.372E-03,0.0583493,0.0266542,0.00407874
10874,-39.0,15.0,0.0,  -7.76965E-03,   1.36248E-03,  -565.059E-03,0.0585711,0.0255474,0.00391215
10875,-40.0,15.0,0.0,  -7.20734E-03,   1.16971E-03,  -515.975E-03,0.0587718,0.0244866,0.00372577
10880,-41.0,15.0,0.0,  -6.56226E-03,   986.869E-06,  -465.105E-03,0.0589391,0.023475,0.00352094
10881,-42.0,15.0,0.0,  -5.83041E-03,   815.111E-06,  -412.442E-03,0.0590422,0.0225096,0.00329969
10886,-43.0,15.0,0.0,  -5.00848E-03,   655.558E-06,  -357.991E-03,0.0590017,0.0215726,0.00306554
10889,-44.0,15.0,0.0,  -4.09508E-03,   509.343E-06,  -301.793E-03,0.0586089,0.020607,0.00282419
10890,-45.0,15.0,0.0,  -3.09411E-03,   377.658E-06,  -243.978E-03,0.0573142,0.0194533,0.00258596
10895,-46.0,15.0,0.0,  -2.02369E-03,   261.890E-06,  -184.903E-03,0.0536602,0.0176795,0.00236581
10896,-47.0,15.0,0.0,  -939.532E-06,   163.854E-06,  -125.537E-03,0.0437773,0.0141315,0.00218077
10901,-48.0,15.0,0.0,   8.51725E-06,   86.0751E-06,  -68.4553E-03,0.0173685,0.00573121,0.00200994
10904,-49.0,15.0,0.0,   473.893E-06,   31.4650E-06,  -20.5188E-03,-0.0529893,-0.0157244,0.00164652
10905,-50.0,15.0,0.0,   2.60130E-39,  -763.687E-42,           -0.,-0.104141,-0.031246,0.000950326
10910,50.0,14.0,0.0,  -2.63870E-39,  -776.384E-42,           -0.,-0.104684,-0.0314089,-0.000891701
10911,49.0,14.0,0.0,  -479.917E-06,   29.5958E-06,  -20.6863E-03,-0.0529219,-0.0157014,-0.0015355
10916,48.0,14.0,0.0,  -7.71819E-06,   80.6987E-06,  -68.9612E-03,0.0181242,0.00595913,-0.00186962
10919,47.0,14.0,0.0,   949.808E-06,   153.289E-06,  -126.373E-03,0.0445835,0.0143689,-0.00202697
10920,46.0,14.0,0.0,   2.04291E-03,   244.662E-06,  -186.049E-03,0.054408,0.0178907,-0.0021985
10925,45.0,14.0,0.0,   3.12178E-03,   352.496E-06,  -245.425E-03,0.0580117,0.0196384,-0.00240267
10926,44.0,14.0,0.0,   4.13113E-03,   475.137E-06,  -303.549E-03,0.0592781,0.0207705,-0.00262343
10931,43.0,14.0,0.0,   5.05309E-03,   611.324E-06,  -360.068E-03,0.0596578,0.0217172,-0.00284699
10934,42.0,14.0,0.0,   5.88386E-03,   759.973E-06,  -414.856E-03,0.0596942,0.0226365,-0.00306394
10935,41.0,14.0,0.0,   6.62477E-03,   920.052E-06,  -467.874E-03,0.0595914,0.0235842,-0.00326909
10940,40.0,14.0,0.0,   7.27906E-03,   1.09053E-03,  -519.114E-03,0.0594268,0.0245777,-0.00345928
10941,39.0,14.0,0.0,   7.85061E-03,   1.27037E-03,  -568.584E-03,0.05923,0.0256198,-0.00363267
10946,38.0,14.0,0.0,   8.34351E-03,   1.45849E-03,  -616.296E-03,0.0590128,0.0267075,-0.00378803
10949,37.0,14.0,0.0,   8.76191E-03,   1.65381E-03,  -662.267E-03,0.0587803,0.027836,-0.00392457
10950,36.0,14.0,0.0,   9.10993E-03,   1.85523E-03,  -706.515E-03,0.0585351,0.028999,-0.00404178
10955,35.0,14.0,0.0,   9.39161E-03,   2.06165E-03,  -749.060E-03,0.0582789,0.0301905,-0.00413941
10956,34.0,14.0,0.0,   9.61093E-03,   2.27197E-03,  -789.924E-03,0.058013,0.031404,-0.00421739
10961,33.0,14.0,0.0,   9.77178E-03,   2.48511E-03,  -829.131E-03,0.0577387,0.0326332,-0.00427585
10964,32.0,14.0,0.0,   9.87793E-03,   2.70002E-03,  -866.706E-03,0.0574573,0.0338719,-0.00431508
10965,31.0,14.0,0.0,   9.93307E-03,   2.91567E-03,  -902.676E-03,0.05717,0.0351142,-0.00433554
10970,30.0,14.0,0.0,   9.94075E-03,   3.13108E-03,  -937.067E-03,0.0568781,0.0363544,-0.0043378
10971,29.0,14.0,0.0,   9.90439E-03,   3.34532E-03,  -969.910E-03,0.0565829,0.037587,-0.00432256
10976,28.0,14.0,0.0,   9.82728E-03,   3.55751E-03,      -1.00123,0.0562856,0.0388069,-0.00429062
10979,27.0,14.0,0.0,   9.71256E-03,   3.76680E-03,      -1.03107,0.0559876,0.0400093,-0.00424286
10980,26.0,14.0,0.0,   9.56324E-03,   3.97245E-03,      -1.05945,0.05569,0.04119,-0.00418019
10985,25.0,14.0,0.0,   9.38217E-03,   4.17373E-03,      -1.08641,0.0553941,0.0423448,-0.0041036
10986,24.0,14.0,0.0,   9.17205E-03,   4.37001E-03,      -1.11198,0.0551011,0.0434701,-0.00401406
10991,23.0,14.0,0.0,   8.93542E-03,   4.56070E-03,      -1.13619,0.0548121,0.0445627,-0.00391258
10992,22.0,14.0,0.0,   8.67467E-03,   4.74528E-03,      -1.15908,0.0545282,0.0456196,-0.00380013
10997,21.0,14.0,0.0,   8.39204E-03,   4.92331E-03,      -1.18068,0.0542504,0.0466384,-0.00367767
10998,20.0,14.0,0.0,   8.08962E-03,   5.09436E-03,      -1.20101,0.0539798,0.0476168,-0.00354614
11003,19.0,14.0,0.0,   7.76934E-03,   5.25811E-03,      -1.22013,0.0537172,0.048553,-0.00340641
11006,18.0,14.0,0.0,   7.43302E-03,   5.41425E-03,      -1.23805,0.0534635,0.0494453,-0.00325932
11007,17.0,14.0,0.0,   7.08231E-03,   5.56255E-03,      -1.25481,0.0532195,0.0502924,-0.00310566
11012,16.0,14.0,0.0,   6.71873E-03,   5.70279E-03,      -1.27043,0.052986,0.0510932,-0.00294616
11013,15.0,14.0,0.0,   6.34371E-03,   5.83482E-03,      -1.28496,0.0527636,0.051847,-0.00278149
11018,14.0,14.0,0.0,   5.95851E-03,   5.95851E-03,      -1.29840,0.0525529,0.0525529,-0.00261227
11021,13.0,14.0,0.0,   5.56432E-03,   6.07376E-03,      -1.31080,0.0523546,0.0532106,-0.00243907
11022,12.0,14.0,0.0,   5.16220E-03,   6.18051E-03,      -1.32217,0.0521691,0.0538197,-0.00226239
11027,11.0,14.0,0.0,   4.75313E-03,   6.27871E-03,      -1.33255,0.0519969,0.0543799,-0.0020827
11028,10.0,14.0,0.0,   4.33800E-03,   6.36833E-03,      -1.34194,0.0518384,0.0548911,-0.00190041
11033,9.0,14.0,0.0,   3.91761E-03,   6.44936E-03,      -1.35038,0.051694,0.0553533,-0.00171589
11036,8.0,14.0,0.0,   3.49270E-03,   6.52180E-03,      -1.35788,0.0515639,0.0557665,-0.00152947
11037,7.0,14.0,0.0,   3.06392E-03,   6.58566E-03,      -1.36446,0.0514486,0.0561307,-0.00134145
11042,6.0,14.0,0.0,   2.63189E-03,   6.64096E-03,      -1.37012,0.0513481,0.0564461,-0.0011521
11043,5.0,14.0,0.0,   2.19716E-03,   6.68770E-03,      -1.37490,0.0512628,0.0567127,-0.000961653
11048,4.0,14.0,0.0,   1.76026E-03,   6.72591E-03,      -1.37879,0.0511928,0.0569307,-0.000770328
11051,3.0,14.0,0.0,   1.32164E-03,   6.75562E-03,      -1.38181,0.0511382,0.0571001,-0.000578322
11052,2.0,14.0,0.0,   881.781E-06,   6.77682E-03,      -1.38396,0.0510991,0.057221,-0.000385819
11057,1.0,14.0,0.0,   441.095E-06,   6.78953E-03,      -1.38524,0.0510756,0.0572935,-0.00019299
11058,0.0,14.0,0.0,  -588.364E-18,   6.79377E-03,      -1.38567,0.0510678,0.0573177,1.81899e-12
11063,-1.0,14.0,0.0,  -441.095E-06,   6.78953E-03,      -1.38524,0.0510756,0.0572935,0.00019299
11066,-2.0,14.0,0.0,  -881.781E-06,   6.77682E-03,      -1.38396,0.0510991,0.057221,0.000385819
11067,-3.0,14.0,0.0,  -1.32164E-03,   6.75562E-03,      -1.38181,0.0511382,0.0571001,0.000578322
11072,-4.0,14.0,0.0,  -1.76026E-03,   6.72591E-03,      -1.37879,0.0511928,0.0569307,0.000770328
11073,-5.0,14.0,0.0,  -2.19716E-03,   6.68770E-03,      -1.37490,0.0512628,0.0567127,0.000961653
11078,-6.0,14.0,0.0,  -2.63189E-03,   6.64096E-03,      -1.37012,0.0513481,0.0564461,0.0011521
11081,-7.0,14.0,0.0,  -3.06392E-03,   6.58566E-03,      -1.36446,0.0514486,0.0561307,0.00134145
11082,-8.0,14.0,0.0,  -3.49270E-03,   6.52180E-03,      -1.35788,0.0515639,0.0557665,0.00152947
11087,-9.0,14.0,0.0,  -3.91761E-03,   6.44936E-03,      -1.35038,0.051694,0.0553533,0.00171589
11088,-10.0,14.0,0.0,  -4.33800E-03,   6.36833E-03,      -1.34194,0.0518384,0.0548911,0.00190041
11093,-11.0,14.0,0.0,  -4.75313E-03,   6.27871E-03,      -1.33255,0.0519969,0.0543799,0.0020827
11096,-12.0,14.0,0.0,  -5.16220E-03,   6.18051E-03,      -1.32217,0.0521691,0.0538197,0.00226239
11097,-13.0,14.0,0.0,  -5.56432E-03,   6.07376E-03,      -1.31080,0.0523546,0.0532106,0.00243907
11102,-14.0,14.0,0.0,  -5.95851E-03,   5.95851E-03,      -1.29840,0.0525529,0.0525529,0.00261227
11103,-15.0,14.0,0.0,  -6.34371E-03,   5.83482E-03,      -1.28496,0.0527636,0.051847,0.00278149
11108,-16.0,14.0,0.0,  -6.71873E-03,   5.70279E-03,      -1.27043,0.052986,0.0510932,0.00294616
11111,-17.0,14.0,0.0,  -7.08231E-03,   5.56255E-03,      -1.25481,0.0532195,0.0502924,0.00310566
11112,-18.0,14.0,0.0,  -7.43302E-03,   5.41425E-03,      -1.23805,0.0534635,0.0494453,0.00325932
11117,-19.0,14.0,0.0,  -7.76934E-03,   5.25811E-03,      -1.22013,0.0537172,0.048553,0.00340641
11118,-20.0,14.0,0.0,  -8.08962E-03,   5.09436E-03,      -1.20101,0.0539798,0.0476168,0.00354614
11123,-21.0,14.0,0.0,  -8.39204E-03,   4.92331E-03,      -1.18068,0.0542504,0.0466384,0.00367767
11126,-22.0,14.0,0.0,  -8.67467E-03,   4.74528E-03,      -1.15908,0.0545282,0.0456196,0.00380013
11127,-23.0,14.0,0.0,  -8.93542E-03,   4.56070E-03,      -1.13619,0.0548121,0.0445627,0.00391258
11132,-24.0,14.0,0.0,  -9.17205E-03,   4.37001E-03,      -1.11198,0.0551011,0.0434701,0.00401406
11133,-25.0,14.0,0.0,  -9.38217E-03,   4.17373E-03,      -1.08641,0.0553941,0.0423448,0.0041036
11138,-26.0,14.0,0.0,  -9.56324E-03,   3.97245E-03,      -1.05945,0.05569,0.04119,0.00418019
11141,-27.0,14.0,0.0,  -9.71256E-03,   3.76680E-03,      -1.03107,0.0559876,0.0400093,0.00424286
11142,-28.0,14.0,0.0,  -9.82728E-03,   3.55751E-03,      -1.00123,0.0562856,0.0388069,0.00429062
11147,-29.0,14.0,0.0,  -9.90439E-03,   3.34532E-03,  -969.910E-03,0.0565829,0.037587,0.00432256
11148,-30.0,14.0,0.0,  -9.94075E-03,   3.13108E-03,  -937.067E-03,0.0568781,0.0363544,0.0043378
11153,-31.0,14.0,0.0,  -9.93307E-03,   2.91567E-03,  -902.676E-03,0.05717,0.0351142,0.00433554
11156,-32.0,14.0,0.0,  -9.87793E-03,   2.70002E-03,  -866.706E-03,0.0574573,0.0338719,0.00431508
11157,-33.0,14.0,0.0,  -9.77178E-03,   2.48511E-03,  -829.131E-03,0.0577387,0.0326332,0.00427585
11162,-34.0,14.0,0.0,  -9.61093E-03,   2.27197E-03,  -789.924E-03,0.058013,0.031404,0.00421739
11163,-35.0,14.0,0.0,  -9.39161E-03,   2.06165E-03,  -749.060E-03,0.0582789,0.0301905,0.00413941
11168,-36.0,14.0,0.0,  -9.10993E-03,   1.85523E-03,  -706.515E-03,0.0585351,0.028999,0.00404178
11171,-37.0,14.0,0.0,  -8.76191E-03,   1.65381E-03,  -662.267E-03,0.0587803,0.027836,0.00392457
11172,-38.0,14.0,0.0,  -8.34351E-03,   1.45849E-03,  -616.296E-03,0.0590128,0.0267075,0.00378803
11177,-39.0,14.0,0.0,  -7.85061E-03,   1.27037E-03,  -568.584E-03,0.05923,0.0256198,0.00363267
11178,-40.0,14.0,0.0,  -7.27906E-03,   1.09053E-03,  -519.114E-03,0.0594268,0.0245777,0.00345928
11183,-41.0,14.0,0.0,  -6.62477E-03,   920.052E-06,  -467.874E-03,0.0595914,0.0235842,0.00326909
11186,-42.0,14.0,0.0,  -5.88386E-03,   759.973E-06,  -414.856E-03,0.0596942,0.0226365,0.00306394
11187,-43.0,14.0,0.0,  -5.05309E-03,   611.324E-06,  -360.068E-03,0.0596578,0.0217172,0.00284699
11192,-44.0,14.0,0.0,  -4.13113E-03,   475.137E-06,  -303.549E-03,0.0592781,0.0207705,0.00262343
11193,-45.0,14.0,0.0,  -3.12178E-03,   352.496E-06,  -245.425E-03,0.0580117,0.0196384,0.00240267
11198,-46.0,14.0,0.0,  -2.04291E-03,   244.662E-06,  -186.049E-03,0.054408,0.0178907,0.0021985
11201,-47.0,14.0,0.0,  -949.808E-06,   153.289E-06,  -126.373E-03,0.0445835,0.0143689,0.00202697
11202,-48.0,14.0,0.0,   7.71819E-06,   80.6987E-06,  -68.9612E-03,0.0181242,0.00595913,0.00186962
11207,-49.0,14.0,0.0,   479.917E-06,   29.5958E-06,  -20.6863E-03,-0.0529219,-0.0157014,0.0015355
11208,-50.0,14.0,0.0,   2.63870E-39,  -776.384E-42,           -0.,-0.104684,-0.0314089,0.000891702
11213,50.0,13.0,0.0,  -2.67354E-39,  -788.351E-42,           -0.,-0.105182,-0.0315584,-0.000831969
11216,49.0,13.0,0.0,  -485.491E-06,   27.6745E-06,  -20.8409E-03,-0.0528544,-0.0156788,-0.00142463
11217,48.0,13.0,0.0,  -6.96351E-06,   75.2371E-06,  -69.4274E-03,0.0188278,0.00617104,-0.00173058
11222,47.0,13.0,0.0,   959.283E-06,   142.635E-06,  -127.143E-03,0.0453314,0.0145888,-0.00187495
11223,46.0,13.0,0.0,   2.06059E-03,   227.366E-06,  -187.102E-03,0.0551013,0.0180863,-0.00203327
11228,45.0,13.0,0.0,   3.14720E-03,   327.307E-06,  -246.756E-03,0.0586589,0.01981,-0.00222176
11231,44.0,13.0,0.0,   4.16422E-03,   440.955E-06,  -305.162E-03,0.0598993,0.0209224,-0.00242541
11232,43.0,13.0,0.0,   5.09404E-03,   567.167E-06,  -361.976E-03,0.0602673,0.0218521,-0.00263156
11237,42.0,13.0,0.0,   5.93290E-03,   704.960E-06,  -417.073E-03,0.0602998,0.0227552,-0.00283164
11238,41.0,13.0,0.0,   6.68213E-03,   853.396E-06,  -470.415E-03,0.0601974,0.0236867,-0.00302099
11243,40.0,13.0,0.0,   7.34487E-03,   1.01154E-03,  -521.995E-03,0.0600351,0.0246636,-0.00319674
11246,39.0,13.0,0.0,   7.92491E-03,   1.17844E-03,  -571.819E-03,0.0598418,0.0256886,-0.00335723
11247,38.0,13.0,0.0,   8.42624E-03,   1.35312E-03,  -619.898E-03,0.0596286,0.0267589,-0.00350133
11252,37.0,13.0,0.0,   8.85291E-03,   1.53458E-03,  -666.247E-03,0.0594004,0.0278695,-0.00362832
11253,36.0,13.0,0.0,   9.20891E-03,   1.72181E-03,  -710.883E-03,0.0591596,0.0290147,-0.00373772
11258,35.0,13.0,0.0,   9.49823E-03,   1.91381E-03,  -753.825E-03,0.0589079,0.0301884,-0.00382925
11261,34.0,13.0,0.0,   9.72474E-03,   2.10957E-03,  -795.092E-03,0.0586465,0.0313845,-0.00390284
11262,33.0,13.0,0.0,   9.89227E-03,   2.30809E-03,  -834.708E-03,0.0583765,0.0325967,-0.00395855
11267,32.0,13.0,0.0,   10.0045E-03,   2.50840E-03,  -872.696E-03,0.0580992,0.033819,-0.00399662
11268,31.0,13.0,0.0,   10.0651E-03,   2.70954E-03,  -909.080E-03,0.0578158,0.0350456,-0.00401743
11273,30.0,13.0,0.0,   10.0776E-03,   2.91061E-03,  -943.886E-03,0.0575275,0.036271,-0.00402146
11276,29.0,13.0,0.0,   10.0453E-03,   3.11074E-03,  -977.142E-03,0.0572356,0.0374896,-0.00400932
11277,28.0,13.0,0.0,   9.97153E-03,   3.30909E-03,      -1.00888,0.0569412,0.0386966,-0.00398171
11282,27.0,13.0,0.0,   9.85938E-03,   3.50489E-03,      -1.03912,0.0566457,0.0398871,-0.00393939
11283,26.0,13.0,0.0,   9.71186E-03,   3.69741E-03,      -1.06790,0.0563503,0.0410568,-0.00388318
11288,25.0,13.0,0.0,   9.53182E-03,   3.88599E-03,      -1.09525,0.0560561,0.0422017,-0.00381396
11291,24.0,13.0,0.0,   9.32196E-03,   4.07001E-03,      -1.12121,0.0557644,0.0433181,-0.00373261
11292,23.0,13.0,0.0,   9.08483E-03,   4.24893E-03,      -1.14579,0.0554763,0.0444027,-0.00364002
11297,22.0,13.0,0.0,   8.82285E-03,   4.42223E-03,      -1.16905,0.0551929,0.0454526,-0.00353708
11298,21.0,13.0,0.0,   8.53828E-03,   4.58949E-03,      -1.19100,0.0549152,0.0464652,-0.00342468
11303,20.0,13.0,0.0,   8.23323E-03,   4.75031E-03,      -1.21168,0.0546443,0.0474381,-0.00330366
11306,19.0,13.0,0.0,   7.90967E-03,   4.90435E-03,      -1.23112,0.0543812,0.0483696,-0.00317483
11307,18.0,13.0,0.0,   7.56944E-03,   5.05133E-03,      -1.24935,0.0541267,0.0492578,-0.00303897
11312,17.0,13.0,0.0,   7.21422E-03,   5.19100E-03,      -1.26641,0.0538816,0.0501015,-0.0028968
11313,16.0,13.0,0.0,   6.84560E-03,   5.32316E-03,      -1.28231,0.0536467,0.0508994,-0.00274902
11318,15.0,13.0,0.0,   6.46500E-03,   5.44764E-03,      -1.29710,0.0534229,0.0516507,-0.00259625
11321,14.0,13.0,0.0,   6.07376E-03,   5.56432E-03,      -1.31080,0.0532106,0.0523546,-0.00243907
11322,13.0,13.0,0.0,   5.67308E-03,   5.67308E-03,      -1.32343,0.0530106,0.0530106,-0.00227802
11327,12.0,13.0,0.0,   5.26408E-03,   5.77387E-03,      -1.33502,0.0528233,0.0536183,-0.00211357
11328,11.0,13.0,0.0,   4.84775E-03,   5.86661E-03,      -1.34560,0.0526494,0.0541773,-0.00194618
11333,10.0,13.0,0.0,   4.42503E-03,   5.95129E-03,      -1.35518,0.0524892,0.0546877,-0.00177624
11336,9.0,13.0,0.0,   3.99676E-03,   6.02787E-03,      -1.36378,0.052343,0.0551491,-0.00160409
11337,8.0,13.0,0.0,   3.56369E-03,   6.09636E-03,      -1.37143,0.0522114,0.0555618,-0.00143008
11342,7.0,13.0,0.0,   3.12653E-03,   6.15675E-03,      -1.37813,0.0520946,0.0559256,-0.00125447
11343,6.0,13.0,0.0,   2.68592E-03,   6.20905E-03,      -1.38392,0.0519928,0.0562406,-0.00107754
11348,5.0,13.0,0.0,   2.24244E-03,   6.25327E-03,      -1.38879,0.0519063,0.0565069,-0.000899524
11351,4.0,13.0,0.0,   1.79664E-03,   6.28943E-03,      -1.39276,0.0518353,0.0567247,-0.000720626
11352,3.0,13.0,0.0,   1.34903E-03,   6.31754E-03,      -1.39583,0.0517799,0.056894,-0.000541047
11357,2.0,13.0,0.0,   900.085E-06,   6.33760E-03,      -1.39803,0.0517403,0.0570148,-0.00036097
11358,1.0,13.0,0.0,   450.260E-06,   6.34964E-03,      -1.39934,0.0517165,0.0570873,-0.000180566
11363,0.0,13.0,0.0,  -3.07921E-15,   6.35365E-03,      -1.39978,0.0517085,0.0571115,0.0
11366,-1.0,13.0,0.0,  -450.260E-06,   6.34964E-03,      -1.39934,0.0517165,0.0570873,0.000180566
11367,-2.0,13.0,0.0,  -900.085E-06,   6.33760E-03,      -1.39803,0.0517403,0.0570148,0.00036097
11372,-3.0,13.0,0.0,  -1.34903E-03,   6.31754E-03,      -1.39583,0.0517799,0.056894,0.000541047
11373,-4.0,13.0,0.0,  -1.79664E-03,   6.28943E-03,      -1.39276,0.0518353,0.0567247,0.000720626
11378,-5.0,13.0,0.0,  -2.24244E-03,   6.25327E-03,      -1.38879,0.0519063,0.0565069,0.000899524
11381,-6.0,13.0,0.0,  -2.68592E-03,   6.20905E-03,      -1.38392,0.0519928,0.0562406,0.00107754
11382,-7.0,13.0,0.0,  -3.12653E-03,   6.15675E-03,      -1.37813,0.0520946,0.0559256,0.00125447
11387,-8.0,13.0,0.0,  -3.56369E-03,   6.09636E-03,      -1.37143,0.0522114,0.0555618,0.00143008
11388,-9.0,13.0,0.0,  -3.99676E-03,   6.02787E-03,      -1.36378,0.052343,0.0551491,0.00160409
11393,-10.0,13.0,0.0,  -4.42503E-03,   5.95129E-03,      -1.35518,0.0524892,0.0546877,0.00177624
11396,-11.0,13.0,0.0,  -4.84775E-03,   5.86661E-03,      -1.34560,0.0526494,0.0541773,0.00194618
11397,-12.0,13.0,0.0,  -5.26408E-03,   5.77387E-03,      -1.33502,0.0528233,0.0536183,0.00211357
11402,-13.0,13.0,0.0,  -5.67308E-03,   5.67308E-03,      -1.32343,0.0530106,0.0530106,0.00227802
11403,-14.0,13.0,0.0,  -6.07376E-03,   5.56432E-03,      -1.31080,0.0532106,0.0523546,0.00243907
11408,-15.0,13.0,0.0,  -6.46500E-03,   5.44764E-03,      -1.29710,0.0534229,0.0516507,0.00259625
11411,-16.0,13.0,0.0,  -6.84560E-03,   5.32316E-03,      -1.28231,0.0536467,0.0508994,0.00274902
11412,-17.0,13.0,0.0,  -7.21422E-03,   5.19100E-03,      -1.26641,0.0538816,0.0501015,0.0028968
11417,-18.0,13.0,0.0,  -7.56944E-03,   5.05133E-03,      -1.24935,0.0541267,0.0492578,0.00303897
11418,-19.0,13.0,0.0,  -7.90967E-03,   4.90435E-03,      -1.23112,0.0543812,0.0483696,0.00317483
11423,-20.0,13.0,0.0,  -8.23323E-03,   4.75031E-03,      -1.21168,0.0546443,0.0474381,0.00330366
11426,-21.0,13.0,0.0,  -8.53828E-03,   4.58949E-03,      -1.19100,0.0549152,0.0464652,0.00342468
11427,-22.0,13.0,0.0,  -8.82285E-03,   4.42223E-03,      -1.16905,0.0551929,0.0454526,0.00353708
11432,-23.0,13.0,0.0,  -9.08483E-03,   4.24893E-03,      -1.14579,0.0554763,0.0444027,0.00364002
11433,-24.0,13.0,0.0,  -9.32196E-03,   4.07001E-03,      -1.12121,0.0557644,0.0433181,0.00373261
11438,-25.0,13.0,0.0,  -9.53182E-03,   3.88599E-03,      -1.09525,0.0560561,0.0422017,0.00381396
11441,-26.0,13.0,0.0,  -9.71186E-03,   3.69741E-03,      -1.06790,0.0563503,0.0410568,0.00388318
11442,-27.0,13.0,0.0,  -9.85938E-03,   3.50489E-03,      -1.03912,0.0566457,0.0398871,0.00393939
11447,-28.0,13.0,0.0,  -9.97153E-03,   3.30909E-03,      -1.00888,0.0569412,0.0386966,0.00398171
11448,-29.0,13.0,0.0,  -10.0453E-03,   3.11074E-03,  -977.142E-03,0.0572356,0.0374896,0.00400932
11453,-30.0,13.0,0.0,  -10.0776E-03,   2.91061E-03,  -943.886E-03,0.0575275,0.036271,0.00402146
11456,-31.0,13.0,0.0,  -10.0651E-03,   2.70954E-03,  -909.080E-03,0.0578158,0.0350456,0.00401743
11457,-32.0,13.0,0.0,  -10.0045E-03,   2.50840E-03,  -872.696E-03,0.0580992,0.033819,0.00399662
11462,-33.0,13.0,0.0,  -9.89227E-03,   2.30809E-03,  -834.708E-03,0.0583765,0.0325967,0.00395855
11463,-34.0,13.0,0.0,  -9.72474E-03,   2.10957E-03,  -795.092E-03,0.0586464,0.0313845,0.00390284
11468,-35.0,13.0,0.0,  -9.49823E-03,   1.91381E-03,  -753.825E-03,0.0589079,0.0301884,0.00382925
11469,-36.0,13.0,0.0,  -9.20891E-03,   1.72181E-03,  -710.883E-03,0.0591596,0.0290147,0.00373772
11474,-37.0,13.0,0.0,  -8.85291E-03,   1.53458E-03,  -666.247E-03,0.0594004,0.0278695,0.00362832
11475,-38.0,13.0,0.0,  -8.42624E-03,   1.35312E-03,  -619.898E-03,0.0596286,0.0267589,0.00350133
11480,-39.0,13.0,0.0,  -7.92491E-03,   1.17844E-03,  -571.819E-03,0.0598418,0.0256886,0.00335723
11483,-40.0,13.0,0.0,  -7.34487E-03,   1.01154E-03,  -521.995E-03,0.0600351,0.0246636,0.00319674
11484,-41.0,13.0,0.0,  -6.68213E-03,   853.396E-06,  -470.415E-03,0.0601974,0.0236867,0.00302099
11489,-42.0,13.0,0.0,  -5.93290E-03,   704.960E-06,  -417.073E-03,0.0602998,0.0227552,0.00283164
11490,-43.0,13.0,0.0,  -5.09404E-03,   567.167E-06,  -361.976E-03,0.0602672,0.0218521,0.00263156
11495,-44.0,13.0,0.0,  -4.16422E-03,   440.955E-06,  -305.162E-03,0.0598993,0.0209224,0.00242541
11498,-45.0,13.0,0.0,  -3.14720E-03,   327.307E-06,  -246.756E-03,0.0586589,0.01981,0.00222176
11499,-46.0,13.0,0.0,  -2.06059E-03,   227.366E-06,  -187.102E-03,0.0551013,0.0180863,0.00203327
11504,-47.0,13.0,0.0,  -959.283E-06,   142.635E-06,  -127.143E-03,0.0453314,0.0145888,0.00187495
11505,-48.0,13.0,0.0,   6.96351E-06,   75.2371E-06,  -69.4274E-03,0.0188278,0.00617104,0.00173058
11510,-49.0,13.0,0.0,   485.491E-06,   27.6745E-06,  -20.8409E-03,-0.0528544,-0.0156788,0.00142463
11513,-50.0,13.0,0.0,   2.67354E-39,  -788.351E-42,           -0.,-0.105182,-0.0315584,0.000831969
11514,50.0,12.0,0.0,  -2.70583E-39,  -799.589E-42,           -0.,-0.105637,-0.0316948,-0.000771261
11519,49.0,12.0,0.0,  -490.621E-06,   25.7068E-06,  -20.9829E-03,-0.0527879,-0.0156568,-0.00131395
11520,48.0,12.0,0.0,  -6.25756E-06,   69.7006E-06,  -69.8551E-03,0.019479,0.00636698,-0.00159275
11525,47.0,12.0,0.0,   967.974E-06,   131.904E-06,  -127.848E-03,0.0460215,0.0147916,-0.00172458
11528,46.0,12.0,0.0,   2.07677E-03,   210.015E-06,  -188.066E-03,0.0557408,0.0182665,-0.00186992
11529,45.0,12.0,0.0,   3.17043E-03,   302.103E-06,  -247.973E-03,0.0592561,0.0199684,-0.00204301
11534,44.0,12.0,0.0,   4.19445E-03,   406.806E-06,  -306.638E-03,0.0604729,0.0210628,-0.00222987
11535,43.0,12.0,0.0,   5.13143E-03,   523.094E-06,  -363.720E-03,0.0608303,0.021977,-0.00241895
11540,42.0,12.0,0.0,   5.97769E-03,   650.078E-06,  -419.100E-03,0.0608594,0.0228655,-0.00260249
11543,41.0,12.0,0.0,   6.73452E-03,   786.910E-06,  -472.739E-03,0.0607572,0.0237824,-0.0027763
11544,40.0,12.0,0.0,   7.40499E-03,   932.742E-06,  -524.628E-03,0.0605971,0.0247442,-0.00293779
11549,39.0,12.0,0.0,   7.99280E-03,   1.08671E-03,  -574.775E-03,0.0604068,0.0257536,-0.00308547
11550,38.0,12.0,0.0,   8.50185E-03,   1.24793E-03,  -623.188E-03,0.0601971,0.0268079,-0.00321832
11555,37.0,12.0,0.0,   8.93608E-03,   1.41548E-03,  -669.882E-03,0.0599728,0.0279022,-0.00333568
11558,36.0,12.0,0.0,   9.29943E-03,   1.58847E-03,  -714.873E-03,0.059736,0.0290311,-0.00343708
11559,35.0,12.0,0.0,   9.59577E-03,   1.76595E-03,  -758.177E-03,0.0594883,0.0301884,-0.00352226
11564,34.0,12.0,0.0,   9.82892E-03,   1.94701E-03,  -799.813E-03,0.0592308,0.0313684,-0.00359112
11565,33.0,12.0,0.0,   10.0026E-03,   2.13074E-03,  -839.803E-03,0.0589647,0.0325648,-0.0036437
11570,32.0,12.0,0.0,   10.1205E-03,   2.31624E-03,  -878.168E-03,0.0586912,0.033772,-0.00368017
11573,31.0,12.0,0.0,   10.1862E-03,   2.50264E-03,  -914.931E-03,0.0584114,0.0349841,-0.00370085
11574,30.0,12.0,0.0,   10.2032E-03,   2.68909E-03,  -950.117E-03,0.0581264,0.0361956,-0.00370616
11579,29.0,12.0,0.0,   10.1747E-03,   2.87478E-03,  -983.752E-03,0.0578375,0.0374012,-0.00369661
11580,28.0,12.0,0.0,   10.1040E-03,   3.05896E-03,      -1.01586,0.0575459,0.038596,-0.00367281
11585,27.0,12.0,0.0,   9.99434E-03,   3.24089E-03,      -1.04648,0.0572529,0.0397753,-0.00363544
11588,26.0,12.0,0.0,   9.84856E-03,   3.41990E-03,      -1.07563,0.0569595,0.0409347,-0.00358521
11589,25.0,12.0,0.0,   9.66956E-03,   3.59536E-03,      -1.10334,0.056667,0.0420701,-0.00352291
11594,24.0,12.0,0.0,   9.46002E-03,   3.76669E-03,      -1.12965,0.0563767,0.043178,-0.00344932
11595,23.0,12.0,0.0,   9.22253E-03,   3.93337E-03,      -1.15458,0.0560895,0.0442549,-0.00336525
11600,22.0,12.0,0.0,   8.95951E-03,   4.09494E-03,      -1.17817,0.0558068,0.045298,-0.0032715
11603,21.0,12.0,0.0,   8.67323E-03,   4.25096E-03,      -1.20045,0.0555294,0.0463045,-0.00316886
11604,20.0,12.0,0.0,   8.36583E-03,   4.40106E-03,      -1.22144,0.0552585,0.0472722,-0.00305811
11609,19.0,12.0,0.0,   8.03931E-03,   4.54492E-03,      -1.24119,0.0549951,0.048199,-0.00294
11610,18.0,12.0,0.0,   7.69554E-03,   4.68226E-03,      -1.25971,0.05474,0.0490833,-0.00281522
11615,17.0,12.0,0.0,   7.33623E-03,   4.81284E-03,      -1.27704,0.0544941,0.0499235,-0.00268447
11618,16.0,12.0,0.0,   6.96299E-03,   4.93646E-03,      -1.29321,0.0542583,0.0507185,-0.00254836
11619,15.0,12.0,0.0,   6.57730E-03,   5.05296E-03,      -1.30824,0.0540332,0.0514673,-0.00240749
11624,14.0,12.0,0.0,   6.18051E-03,   5.16220E-03,      -1.32217,0.0538197,0.0521691,-0.00226239
11625,13.0,12.0,0.0,   5.77387E-03,   5.26408E-03,      -1.33502,0.0536183,0.0528233,-0.00211357
11630,12.0,12.0,0.0,   5.35851E-03,   5.35851E-03,      -1.34682,0.0534296,0.0534296,-0.00196149
11633,11.0,12.0,0.0,   4.93549E-03,   5.44545E-03,      -1.35758,0.0532541,0.0539875,-0.00180655
11634,10.0,12.0,0.0,   4.50576E-03,   5.52485E-03,      -1.36732,0.0530925,0.0544968,-0.00164914
11639,9.0,12.0,0.0,   4.07019E-03,   5.59668E-03,      -1.37608,0.0529449,0.0549575,-0.00148959
11640,8.0,12.0,0.0,   3.62958E-03,   5.66093E-03,      -1.38387,0.052812,0.0553695,-0.00132822
11645,7.0,12.0,0.0,   3.18466E-03,   5.71761E-03,      -1.39070,0.0526939,0.0557328,-0.00116529
11648,6.0,12.0,0.0,   2.73609E-03,   5.76670E-03,      -1.39659,0.052591,0.0560475,-0.00100106
11649,5.0,12.0,0.0,   2.28449E-03,   5.80821E-03,      -1.40155,0.0525035,0.0563135,-0.000835766
11654,4.0,12.0,0.0,   1.83044E-03,   5.84216E-03,      -1.40559,0.0524316,0.056531,-0.000669606
11655,3.0,12.0,0.0,   1.37447E-03,   5.86855E-03,      -1.40872,0.0523756,0.0567002,-0.000502775
11660,2.0,12.0,0.0,   917.088E-06,   5.88740E-03,      -1.41096,0.0523355,0.0568209,-0.000335452
11663,1.0,12.0,0.0,   458.775E-06,   5.89870E-03,      -1.41230,0.0523113,0.0568933,-0.000167806
11664,0.0,12.0,0.0,  -4.78245E-15,   5.90247E-03,      -1.41274,0.0523033,0.0569174,-1.81899e-12
11669,-1.0,12.0,0.0,  -458.775E-06,   5.89870E-03,      -1.41230,0.0523113,0.0568933,0.000167806
11670,-2.0,12.0,0.0,  -917.088E-06,   5.88740E-03,      -1.41096,0.0523355,0.0568209,0.000335451
11675,-3.0,12.0,0.0,  -1.37447E-03,   5.86855E-03,      -1.40872,0.0523756,0.0567001,0.000502775
11678,-4.0,12.0,0.0,  -1.83044E-03,   5.84216E-03,      -1.40559,0.0524316,0.056531,0.000669606
11679,-5.0,12.0,0.0,  -2.28449E-03,   5.80821E-03,      -1.40155,0.0525035,0.0563135,0.000835766
11684,-6.0,12.0,0.0,  -2.73609E-03,   5.76670E-03,      -1.39659,0.052591,0.0560475,0.00100106
11685,-7.0,12.0,0.0,  -3.18466E-03,   5.71761E-03,      -1.39070,0.0526939,0.0557328,0.00116529
11690,-8.0,12.0,0.0,  -3.62958E-03,   5.66093E-03,      -1.38387,0.052812,0.0553695,0.00132822
11693,-9.0,12.0,0.0,  -4.07019E-03,   5.59668E-03,      -1.37608,0.0529449,0.0549575,0.00148959
11694,-10.0,12.0,0.0,  -4.50576E-03,   5.52485E-03,      -1.36732,0.0530925,0.0544968,0.00164914
11699,-11.0,12.0,0.0,  -4.93549E-03,   5.44545E-03,      -1.35758,0.0532541,0.0539875,0.00180655
11700,-12.0,12.0,0.0,  -5.35851E-03,   5.35851E-03,      -1.34682,0.0534296,0.0534296,0.00196149
11705,-13.0,12.0,0.0,  -5.77387E-03,   5.26408E-03,      -1.33502,0.0536183,0.0528233,0.00211357
11708,-14.0,12.0,0.0,  -6.18051E-03,   5.16220E-03,      -1.32217,0.0538197,0.0521691,0.00226239
11709,-15.0,12.0,0.0,  -6.57730E-03,   5.05296E-03,      -1.30824,0.0540332,0.0514673,0.00240749
11714,-16.0,12.0,0.0,  -6.96299E-03,   4.93646E-03,      -1.29321,0.0542583,0.0507185,0.00254836
11715,-17.0,12.0,0.0,  -7.33623E-03,   4.81284E-03,      -1.27704,0.0544941,0.0499235,0.00268447
11720,-18.0,12.0,0.0,  -7.69554E-03,   4.68226E-03,      -1.25971,0.05474,0.0490833,0.00281522
11723,-19.0,12.0,0.0,  -8.03931E-03,   4.54492E-03,      -1.24119,0.0549951,0.048199,0.00294
11724,-20.0,12.0,0.0,  -8.36583E-03,   4.40106E-03,      -1.22144,0.0552585,0.0472722,0.00305811
11729,-21.0,12.0,0.0,  -8.67323E-03,   4.25096E-03,      -1.20045,0.0555294,0.0463045,0.00316886
11730,-22.0,12.0,0.0,  -8.95951E-03,   4.09494E-03,      -1.17817,0.0558068,0.045298,0.0032715
11735,-23.0,12.0,0.0,  -9.22253E-03,   3.93337E-03,      -1.15458,0.0560895,0.0442549,0.00336525
11738,-24.0,12.0,0.0,  -9.46002E-03,   3.76669E-03,      -1.12965,0.0563767,0.043178,0.00344932
11739,-25.0,12.0,0.0,  -9.66956E-03,   3.59536E-03,      -1.10334,0.056667,0.0420701,0.00352291
11744,-26.0,12.0,0.0,  -9.84856E-03,   3.41990E-03,      -1.07563,0.0569595,0.0409347,0.00358521
11745,-27.0,12.0,0.0,  -9.99434E-03,   3.24089E-03,      -1.04648,0.0572529,0.0397753,0.00363544
11750,-28.0,12.0,0.0,  -10.1040E-03,   3.05896E-03,      -1.01586,0.0575459,0.038596,0.00367281
11753,-29.0,12.0,0.0,  -10.1747E-03,   2.87478E-03,  -983.752E-03,0.0578375,0.0374012,0.00369661
11754,-30.0,12.0,0.0,  -10.2032E-03,   2.68909E-03,  -950.117E-03,0.0581264,0.0361956,0.00370616
11759,-31.0,12.0,0.0,  -10.1862E-03,   2.50264E-03,  -914.931E-03,0.0584114,0.0349841,0.00370085
11760,-32.0,12.0,0.0,  -10.1205E-03,   2.31624E-03,  -878.168E-03,0.0586912,0.033772,0.00368017
11765,-33.0,12.0,0.0,  -10.0026E-03,   2.13074E-03,  -839.803E-03,0.0589647,0.0325648,0.0036437
11768,-34.0,12.0,0.0,  -9.82892E-03,   1.94701E-03,  -799.813E-03,0.0592308,0.0313684,0.00359112
11769,-35.0,12.0,0.0,  -9.59577E-03,   1.76595E-03,  -758.177E-03,0.0594883,0.0301884,0.00352226
11774,-36.0,12.0,0.0,  -9.29943E-03,   1.58847E-03,  -714.873E-03,0.059736,0.0290311,0.00343708
11775,-37.0,12.0,0.0,  -8.93608E-03,   1.41548E-03,  -669.882E-03,0.0599728,0.0279022,0.00333568
11780,-38.0,12.0,0.0,  -8.50185E-03,   1.24793E-03,  -623.188E-03,0.0601971,0.0268079,0.00321832
11783,-39.0,12.0,0.0,  -7.99280E-03,   1.08671E-03,  -574.775E-03,0.0604068,0.0257536,0.00308547
11784,-40.0,12.0,0.0,  -7.40499E-03,   932.742E-06,  -524.628E-03,0.0605971,0.0247442,0.00293779
11789,-41.0,12.0,0.0,  -6.73452E-03,   786.910E-06,  -472.739E-03,0.0607572,0.0237824,0.0027763
11790,-42.0,12.0,0.0,  -5.97769E-03,   650.078E-06,  -419.100E-03,0.0608594,0.0228655,0.00260249
11795,-43.0,12.0,0.0,  -5.13143E-03,   523.094E-06,  -363.720E-03,0.0608303,0.021977,0.00241895
11798,-44.0,12.0,0.0,  -4.19445E-03,   406.806E-06,  -306.638E-03,0.0604729,0.0210628,0.00222987
11799,-45.0,12.0,0.0,  -3.17043E-03,   302.103E-06,  -247.973E-03,0.0592561,0.0199684,0.00204301
11804,-46.0,12.0,0.0,  -2.07677E-03,   210.015E-06,  -188.066E-03,0.0557408,0.0182665,0.00186992
11805,-47.0,12.0,0.0,  -967.974E-06,   131.904E-06,  -127.848E-03,0.0460215,0.0147916,0.00172458
11810,-48.0,12.0,0.0,   6.25756E-06,   69.7006E-06,  -69.8551E-03,0.019479,0.00636698,0.00159275
11813,-49.0,12.0,0.0,   490.621E-06,   25.7068E-06,  -20.9829E-03,-0.0527878,-0.0156568,0.00131395
11814,-50.0,12.0,0.0,   2.70583E-39,  -799.589E-42,           -0.,-0.105637,-0.0316948,0.000771261
11819,50.0,11.0,0.0,  -2.73559E-39,  -810.100E-42,           -0.,-0.106051,-0.0318187,-0.000709695
11820,49.0,11.0,0.0,  -495.316E-06,   23.6978E-06,  -21.1125E-03,-0.0527233,-0.0156356,-0.00120347
11825,48.0,11.0,0.0,  -5.60356E-06,   64.0982E-06,  -70.2451E-03,0.0200779,0.00654702,-0.00145604
11828,47.0,11.0,0.0,   975.898E-06,   121.106E-06,  -128.490E-03,0.0466543,0.0149774,-0.00157571
11829,46.0,11.0,0.0,   2.09149E-03,   192.620E-06,  -188.944E-03,0.0563269,0.0184317,-0.0017083
11834,45.0,11.0,0.0,   3.19154E-03,   276.892E-06,  -249.081E-03,0.0598037,0.0201136,-0.00186621
11835,44.0,11.0,0.0,   4.22191E-03,   372.697E-06,  -307.980E-03,0.0609993,0.0211919,-0.00203658
11840,43.0,11.0,0.0,   5.16540E-03,   479.110E-06,  -365.307E-03,0.0613471,0.022092,-0.0022089
11843,42.0,11.0,0.0,   6.01837E-03,   595.330E-06,  -420.943E-03,0.0613731,0.0229673,-0.00237618
11844,41.0,11.0,0.0,   6.78210E-03,   720.596E-06,  -474.851E-03,0.0612711,0.0238708,-0.00253468
11849,40.0,11.0,0.0,   7.45960E-03,   854.145E-06,  -527.022E-03,0.0611129,0.024819,-0.00268209
11850,39.0,11.0,0.0,   8.05447E-03,   995.193E-06,  -577.461E-03,0.0609253,0.0258143,-0.00281706
11855,38.0,11.0,0.0,   8.57055E-03,   1.14294E-03,  -626.178E-03,0.0607188,0.026854,-0.00293868
11858,37.0,11.0,0.0,   9.01169E-03,   1.29657E-03,  -673.185E-03,0.0604978,0.0279336,-0.00304634
11859,36.0,11.0,0.0,   9.38174E-03,   1.45524E-03,  -718.497E-03,0.0602646,0.0290475,-0.0031396
11864,35.0,11.0,0.0,   9.68450E-03,   1.61812E-03,  -762.130E-03,0.0600204,0.03019,-0.00321822
11865,34.0,11.0,0.0,   9.92372E-03,   1.78438E-03,  -804.102E-03,0.0597665,0.0313552,-0.00328208
11870,33.0,11.0,0.0,   10.1031E-03,   1.95317E-03,  -844.431E-03,0.059504,0.0325372,-0.00333119
11873,32.0,11.0,0.0,   10.2262E-03,   2.12369E-03,  -883.139E-03,0.0592338,0.0337304,-0.00336569
11874,31.0,11.0,0.0,   10.2966E-03,   2.29513E-03,  -920.247E-03,0.0589572,0.034929,-0.00338584
11879,30.0,11.0,0.0,   10.3177E-03,   2.46673E-03,  -955.780E-03,0.0586753,0.0361278,-0.00339199
11880,29.0,11.0,0.0,   10.2927E-03,   2.63773E-03,  -989.761E-03,0.0583893,0.0373213,-0.00338459
11885,28.0,11.0,0.0,   10.2250E-03,   2.80743E-03,      -1.02222,0.0581002,0.0385048,-0.00336416
11888,27.0,11.0,0.0,   10.1176E-03,   2.97517E-03,      -1.05317,0.0578094,0.0396735,-0.00333129
11889,26.0,11.0,0.0,   9.97352E-03,   3.14032E-03,      -1.08266,0.0575181,0.0408232,-0.00328661
11894,25.0,11.0,0.0,   9.79554E-03,   3.30229E-03,      -1.11070,0.0572273,0.0419498,-0.00323082
11895,24.0,11.0,0.0,   9.58638E-03,   3.46054E-03,      -1.13734,0.0569383,0.0430496,-0.00316462
11900,23.0,11.0,0.0,   9.34863E-03,   3.61459E-03,      -1.16258,0.0566522,0.0441193,-0.00308871
11903,22.0,11.0,0.0,   9.08472E-03,   3.76400E-03,      -1.18648,0.0563702,0.0451558,-0.00300384
11904,21.0,11.0,0.0,   8.79694E-03,   3.90836E-03,      -1.20906,0.0560932,0.0461566,-0.0029107
11909,20.0,11.0,0.0,   8.48746E-03,   4.04732E-03,      -1.23034,0.0558225,0.0471192,-0.00281
11910,19.0,11.0,0.0,   8.15829E-03,   4.18058E-03,      -1.25036,0.0555589,0.0480415,-0.00270242
11915,18.0,11.0,0.0,   7.81133E-03,   4.30786E-03,      -1.26915,0.0553035,0.0489219,-0.0025886
11918,17.0,11.0,0.0,   7.44832E-03,   4.42893E-03,      -1.28673,0.055057,0.0497587,-0.00246915
11919,16.0,11.0,0.0,   7.07089E-03,   4.54360E-03,      -1.30314,0.0548204,0.0505508,-0.00234467
11924,15.0,11.0,0.0,   6.68056E-03,   4.65171E-03,      -1.31840,0.0545945,0.0512972,-0.00221569
11925,14.0,11.0,0.0,   6.27871E-03,   4.75313E-03,      -1.33255,0.0543799,0.0519969,-0.0020827
11930,13.0,11.0,0.0,   5.86661E-03,   4.84775E-03,      -1.34560,0.0541773,0.0526494,-0.00194618
11933,12.0,11.0,0.0,   5.44545E-03,   4.93549E-03,      -1.35758,0.0539875,0.0532541,-0.00180655
11934,11.0,11.0,0.0,   5.01629E-03,   5.01629E-03,      -1.36851,0.0538108,0.0538108,-0.0016642
11939,10.0,11.0,0.0,   4.58013E-03,   5.09011E-03,      -1.37841,0.0536479,0.0543192,-0.00151948
11940,9.0,11.0,0.0,   4.13786E-03,   5.15691E-03,      -1.38731,0.0534992,0.054779,-0.00137271
11945,8.0,11.0,0.0,   3.69031E-03,   5.21668E-03,      -1.39523,0.0533651,0.0551904,-0.00122418
11948,7.0,11.0,0.0,   3.23824E-03,   5.26940E-03,      -1.40217,0.0532459,0.0555531,-0.00107416
11949,6.0,11.0,0.0,   2.78234E-03,   5.31508E-03,      -1.40815,0.0531421,0.0558674,-0.000922883
11954,5.0,11.0,0.0,   2.32327E-03,   5.35372E-03,      -1.41320,0.0530537,0.0561331,-0.00077057
11955,4.0,11.0,0.0,   1.86161E-03,   5.38533E-03,      -1.41731,0.0529812,0.0563504,-0.00061742
11960,3.0,11.0,0.0,   1.39794E-03,   5.40990E-03,      -1.42050,0.0529245,0.0565193,-0.000463619
11963,2.0,11.0,0.0,   932.773E-06,   5.42744E-03,      -1.42277,0.052884,0.0566399,-0.000309341
11964,1.0,11.0,0.0,   466.630E-06,   5.43797E-03,      -1.42413,0.0528596,0.0567122,-0.000154748
11969,0.0,11.0,0.0,  -7.09229E-15,   5.44147E-03,      -1.42458,0.0528515,0.0567364,0.0
11970,-1.0,11.0,0.0,  -466.630E-06,   5.43797E-03,      -1.42413,0.0528596,0.0567122,0.000154748
11975,-2.0,11.0,0.0,  -932.773E-06,   5.42744E-03,      -1.42277,0.052884,0.0566399,0.000309341
11978,-3.0,11.0,0.0,  -1.39794E-03,   5.40990E-03,      -1.42050,0.0529245,0.0565193,0.000463619
11979,-4.0,11.0,0.0,  -1.86161E-03,   5.38533E-03,      -1.41731,0.0529812,0.0563504,0.00061742
11984,-5.0,11.0,0.0,  -2.32327E-03,   5.35372E-03,      -1.41320,0.0530537,0.0561331,0.00077057
11985,-6.0,11.0,0.0,  -2.78234E-03,   5.31508E-03,      -1.40815,0.0531421,0.0558674,0.000922883
11990,-7.0,11.0,0.0,  -3.23824E-03,   5.26940E-03,      -1.40217,0.0532459,0.0555531,0.00107416
11993,-8.0,11.0,0.0,  -3.69031E-03,   5.21668E-03,      -1.39523,0.0533651,0.0551904,0.00122418
11994,-9.0,11.0,0.0,  -4.13786E-03,   5.15691E-03,      -1.38731,0.0534992,0.054779,0.00137271
11999,-10.0,11.0,0.0,  -4.58013E-03,   5.09011E-03,      -1.37841,0.0536479,0.0543192,0.00151948
12000,-11.0,11.0,0.0,  -5.01629E-03,   5.01629E-03,      -1.36851,0.0538108,0.0538108,0.0016642
12005,-12.0,11.0,0.0,  -5.44545E-03,   4.93549E-03,      -1.35758,0.0539875,0.0532541,0.00180655
12008,-13.0,11.0,0.0,  -5.86661E-03,   4.84775E-03,      -1.34560,0.0541773,0.0526494,0.00194618
12009,-14.0,11.0,0.0,  -6.27871E-03,   4.75313E-03,      -1.33255,0.0543799,0.0519969,0.0020827
12014,-15.0,11.0,0.0,  -6.68056E-03,   4.65171E-03,      -1.31840,0.0545945,0.0512972,0.00221569
12015,-16.0,11.0,0.0,  -7.07089E-03,   4.54360E-03,      -1.30314,0.0548204,0.0505508,0.00234467
12020,-17.0,11.0,0.0,  -7.44832E-03,   4.42893E-03,      -1.28673,0.055057,0.0497587,0.00246915
12023,-18.0,11.0,0.0,  -7.81133E-03,   4.30786E-03,      -1.26915,0.0553035,0.0489219,0.0025886
12024,-19.0,11.0,0.0,  -8.15829E-03,   4.18058E-03,      -1.25036,0.0555589,0.0480415,0.00270242
12029,-20.0,11.0,0.0,  -8.48746E-03,   4.04732E-03,      -1.23034,0.0558225,0.0471192,0.00281
12030,-21.0,11.0,0.0,  -8.79694E-03,   3.90836E-03,      -1.20906,0.0560932,0.0461566,0.0029107
12035,-22.0,11.0,0.0,  -9.08472E-03,   3.76400E-03,      -1.18648,0.0563702,0.0451558,0.00300384
12038,-23.0,11.0,0.0,  -9.34863E-03,   3.61459E-03,      -1.16258,0.0566522,0.0441193,0.00308871
12039,-24.0,11.0,0.0,  -9.58638E-03,   3.46054E-03,      -1.13734,0.0569383,0.0430496,0.00316462
12044,-25.0,11.0,0.0,  -9.79554E-03,   3.30229E-03,      -1.11070,0.0572273,0.0419498,0.00323082
12045,-26.0,11.0,0.0,  -9.97352E-03,   3.14032E-03,      -1.08266,0.0575181,0.0408232,0.00328661
12050,-27.0,11.0,0.0,  -10.1176E-03,   2.97517E-03,      -1.05317,0.0578094,0.0396735,0.00333128
12053,-28.0,11.0,0.0,  -10.2250E-03,   2.80743E-03,      -1.02222,0.0581002,0.0385048,0.00336416
12054,-29.0,11.0,0.0,  -10.2927E-03,   2.63773E-03,  -989.761E-03,0.0583893,0.0373213,0.00338459
12059,-30.0,11.0,0.0,  -10.3177E-03,   2.46673E-03,  -955.780E-03,0.0586753,0.0361278,0.00339199
12060,-31.0,11.0,0.0,  -10.2966E-03,   2.29513E-03,  -920.247E-03,0.0589572,0.034929,0.00338584
12065,-32.0,11.0,0.0,  -10.2262E-03,   2.12369E-03,  -883.139E-03,0.0592338,0.0337304,0.00336569
12068,-33.0,11.0,0.0,  -10.1031E-03,   1.95317E-03,  -844.431E-03,0.059504,0.0325372,0.00333119
12069,-34.0,11.0,0.0,  -9.92372E-03,   1.78438E-03,  -804.102E-03,0.0597665,0.0313552,0.00328208
12074,-35.0,11.0,0.0,  -9.68450E-03,   1.61812E-03,  -762.130E-03,0.0600204,0.03019,0.00321822
12075,-36.0,11.0,0.0,  -9.38174E-03,   1.45524E-03,  -718.497E-03,0.0602646,0.0290475,0.0031396
12080,-37.0,11.0,0.0,  -9.01169E-03,   1.29657E-03,  -673.185E-03,0.0604978,0.0279336,0.00304634
12083,-38.0,11.0,0.0,  -8.57055E-03,   1.14294E-03,  -626.178E-03,0.0607188,0.026854,0.00293868
12084,-39.0,11.0,0.0,  -8.05447E-03,   995.193E-06,  -577.461E-03,0.0609253,0.0258143,0.00281706
12089,-40.0,11.0,0.0,  -7.45960E-03,   854.145E-06,  -527.022E-03,0.0611129,0.024819,0.00268209
12090,-41.0,11.0,0.0,  -6.78210E-03,   720.596E-06,  -474.851E-03,0.0612711,0.0238708,0.00253468
12095,-42.0,11.0,0.0,  -6.01837E-03,   595.330E-06,  -420.943E-03,0.0613731,0.0229673,0.00237618
12098,-43.0,11.0,0.0,  -5.16540E-03,   479.110E-06,  -365.307E-03,0.0613471,0.022092,0.0022089
12099,-44.0,11.0,0.0,  -4.22191E-03,   372.697E-06,  -307.980E-03,0.0609993,0.0211919,0.00203658
12104,-45.0,11.0,0.0,  -3.19154E-03,   276.892E-06,  -249.081E-03,0.0598037,0.0201136,0.00186621
12105,-46.0,11.0,0.0,  -2.09149E-03,   192.620E-06,  -188.944E-03,0.0563269,0.0184317,0.0017083
12110,-47.0,11.0,0.0,  -975.898E-06,   121.106E-06,  -128.490E-03,0.0466543,0.0149774,0.00157571
12113,-48.0,11.0,0.0,   5.60356E-06,   64.0982E-06,  -70.2451E-03,0.0200779,0.00654702,0.00145604
12114,-49.0,11.0,0.0,   495.316E-06,   23.6978E-06,  -21.1125E-03,-0.0527233,-0.0156356,0.00120347
12119,-50.0,11.0,0.0,   2.73559E-39,  -810.100E-42,           -0.,-0.106051,-0.0318187,0.000709695
12120,50.0,10.0,0.0,  -2.76285E-39,  -819.890E-42,           -0.,-0.106423,-0.0319304,-0.000647375
12125,49.0,10.0,0.0,  -499.582E-06,   21.6523E-06,  -21.2300E-03,-0.0526615,-0.0156155,-0.00109321
12128,48.0,10.0,0.0,  -5.00383E-06,   58.4380E-06,  -70.5983E-03,0.0206244,0.0067112,-0.00132036
12129,47.0,10.0,0.0,   983.072E-06,   110.251E-06,  -129.072E-03,0.0472303,0.0151464,-0.00142821
12134,46.0,10.0,0.0,   2.10480E-03,   175.189E-06,  -189.737E-03,0.0568601,0.0185818,-0.00154823
12135,45.0,10.0,0.0,   3.21061E-03,   251.681E-06,  -250.082E-03,0.0603022,0.0202458,-0.00169118
12140,44.0,10.0,0.0,   4.24669E-03,   338.631E-06,  -309.193E-03,0.0614787,0.0213095,-0.0018453
12143,43.0,10.0,0.0,   5.19604E-03,   435.214E-06,  -366.741E-03,0.061818,0.0221971,-0.00200113
12144,42.0,10.0,0.0,   6.05507E-03,   540.716E-06,  -422.608E-03,0.0618412,0.0230604,-0.00215243
12149,41.0,10.0,0.0,   6.82503E-03,   654.454E-06,  -476.758E-03,0.0617394,0.0239521,-0.00229584
12150,40.0,10.0,0.0,   7.50887E-03,   775.746E-06,  -529.183E-03,0.0615828,0.0248879,-0.00242932
12155,39.0,10.0,0.0,   8.11013E-03,   903.891E-06,  -579.886E-03,0.0613976,0.0258704,-0.00255168
12158,38.0,10.0,0.0,   8.63256E-03,   1.03817E-03,  -628.877E-03,0.0611939,0.0268971,-0.00266209
12159,37.0,10.0,0.0,   9.07995E-03,   1.17784E-03,  -676.167E-03,0.0609759,0.0279632,-0.00276001
12164,36.0,10.0,0.0,   9.45607E-03,   1.32217E-03,  -721.769E-03,0.0607458,0.0290636,-0.00284503
12165,35.0,10.0,0.0,   9.76466E-03,   1.47038E-03,  -765.699E-03,0.0605048,0.0301926,-0.00291691
12170,34.0,10.0,0.0,   10.0094E-03,   1.62174E-03,  -807.973E-03,0.0602541,0.0313444,-0.00297554
12173,33.0,10.0,0.0,   10.1939E-03,   1.77548E-03,  -848.609E-03,0.0599946,0.0325133,-0.0030209
12174,32.0,10.0,0.0,   10.3218E-03,   1.93087E-03,  -887.627E-03,0.0597275,0.0336938,-0.00305312
12179,31.0,10.0,0.0,   10.3965E-03,   2.08718E-03,  -925.047E-03,0.0594539,0.0348801,-0.00307238
12180,30.0,10.0,0.0,   10.4213E-03,   2.24372E-03,  -960.892E-03,0.0591747,0.0360671,-0.003079
12185,29.0,10.0,0.0,   10.3997E-03,   2.39979E-03,  -995.186E-03,0.0588912,0.0372495,-0.00307336
12188,28.0,10.0,0.0,   10.3347E-03,   2.55477E-03,      -1.02795,0.0586046,0.0384226,-0.0030559
12189,27.0,10.0,0.0,   10.2294E-03,   2.70804E-03,      -1.05922,0.0583159,0.0395816,-0.00302714
12194,26.0,10.0,0.0,   10.0869E-03,   2.85902E-03,      -1.08901,0.0580264,0.0407223,-0.00298764
12195,25.0,10.0,0.0,   9.90992E-03,   3.00718E-03,      -1.11735,0.0577372,0.0418406,-0.00293799
12200,24.0,10.0,0.0,   9.70117E-03,   3.15201E-03,      -1.14428,0.0574495,0.0429328,-0.00287883
12203,23.0,10.0,0.0,   9.46324E-03,   3.29308E-03,      -1.16982,0.0571645,0.0439957,-0.00281079
12204,22.0,10.0,0.0,   9.19858E-03,   3.42996E-03,      -1.19399,0.0568832,0.0450261,-0.0027345
12209,21.0,10.0,0.0,   8.90950E-03,   3.56229E-03,      -1.21684,0.0566068,0.0460214,-0.00265062
12210,20.0,10.0,0.0,   8.59818E-03,   3.68973E-03,      -1.23838,0.0563364,0.0469791,-0.00255976
12215,19.0,10.0,0.0,   8.26665E-03,   3.81200E-03,      -1.25866,0.0560728,0.0478972,-0.00246253
12218,18.0,10.0,0.0,   7.91683E-03,   3.92884E-03,      -1.27769,0.0558172,0.0487738,-0.00235953
12219,17.0,10.0,0.0,   7.55049E-03,   4.04003E-03,      -1.29550,0.0555703,0.0496075,-0.00225131
12224,16.0,10.0,0.0,   7.16929E-03,   4.14539E-03,      -1.31213,0.0553332,0.0503968,-0.00213839
12225,15.0,10.0,0.0,   6.77476E-03,   4.24475E-03,      -1.32760,0.0551065,0.0511407,-0.00202127
12230,14.0,10.0,0.0,   6.36833E-03,   4.33800E-03,      -1.34194,0.0548911,0.0518384,-0.00190041
12233,13.0,10.0,0.0,   5.95129E-03,   4.42503E-03,      -1.35518,0.0546877,0.0524892,-0.00177624
12234,12.0,10.0,0.0,   5.52485E-03,   4.50576E-03,      -1.36732,0.0544968,0.0530925,-0.00164914
12239,11.0,10.0,0.0,   5.09011E-03,   4.58013E-03,      -1.37841,0.0543192,0.0536479,-0.00151948
12240,10.0,10.0,0.0,   4.64809E-03,   4.64809E-03,      -1.38846,0.0541553,0.0541553,-0.00138758
12245,9.0,10.0,0.0,   4.19971E-03,   4.70960E-03,      -1.39749,0.0540055,0.0546143,-0.00125375
12248,8.0,10.0,0.0,   3.74583E-03,   4.76465E-03,      -1.40552,0.0538705,0.0550249,-0.00111824
12249,7.0,10.0,0.0,   3.28724E-03,   4.81323E-03,      -1.41257,0.0537504,0.0553872,-0.000981325
12254,6.0,10.0,0.0,   2.82465E-03,   4.85532E-03,      -1.41865,0.0536457,0.0557009,-0.000843211
12255,5.0,10.0,0.0,   2.35874E-03,   4.89093E-03,      -1.42376,0.0535567,0.0559663,-0.000704109
12260,4.0,10.0,0.0,   1.89013E-03,   4.92005E-03,      -1.42794,0.0534835,0.0561833,-0.000564209
12263,3.0,10.0,0.0,   1.41941E-03,   4.94270E-03,      -1.43117,0.0534264,0.0563521,-0.000423687
12264,2.0,10.0,0.0,   947.125E-06,   4.95887E-03,      -1.43348,0.0533855,0.0564725,-0.000282708
12269,1.0,10.0,0.0,   473.817E-06,   4.96858E-03,      -1.43486,0.0533609,0.0565448,-0.000141428
12270,0.0,10.0,0.0,  -2.42736E-15,   4.97181E-03,      -1.43532,0.0533527,0.0565689,0.0
12275,-1.0,10.0,0.0,  -473.817E-06,   4.96858E-03,      -1.43486,0.0533609,0.0565448,0.000141428
12278,-2.0,10.0,0.0,  -947.125E-06,   4.95887E-03,      -1.43348,0.0533855,0.0564725,0.000282708
12279,-3.0,10.0,0.0,  -1.41941E-03,   4.94270E-03,      -1.43117,0.0534264,0.0563521,0.000423687
12284,-4.0,10.0,0.0,  -1.89013E-03,   4.92005E-03,      -1.42794,0.0534835,0.0561833,0.000564209
12285,-5.0,10.0,0.0,  -2.35874E-03,   4.89093E-03,      -1.42376,0.0535567,0.0559663,0.000704109
12290,-6.0,10.0,0.0,  -2.82465E-03,   4.85532E-03,      -1.41865,0.0536457,0.0557009,0.000843211
12293,-7.0,10.0,0.0,  -3.28724E-03,   4.81323E-03,      -1.41257,0.0537504,0.0553872,0.000981325
12294,-8.0,10.0,0.0,  -3.74583E-03,   4.76465E-03,      -1.40552,0.0538705,0.0550249,0.00111824
12299,-9.0,10.0,0.0,  -4.19971E-03,   4.70960E-03,      -1.39749,0.0540055,0.0546143,0.00125375
12300,-10.0,10.0,0.0,  -4.64809E-03,   4.64809E-03,      -1.38846,0.0541552,0.0541553,0.00138758
12305,-11.0,10.0,0.0,  -5.09011E-03,   4.58013E-03,      -1.37841,0.0543192,0.0536479,0.00151948
12308,-12.0,10.0,0.0,  -5.52485E-03,   4.50576E-03,      -1.36732,0.0544968,0.0530925,0.00164914
12309,-13.0,10.0,0.0,  -5.95129E-03,   4.42503E-03,      -1.35518,0.0546877,0.0524892,0.00177624
12314,-14.0,10.0,0.0,  -6.36833E-03,   4.33800E-03,      -1.34194,0.0548911,0.0518384,0.00190041
12315,-15.0,10.0,0.0,  -6.77476E-03,   4.24475E-03,      -1.32760,0.0551065,0.0511407,0.00202127
12320,-16.0,10.0,0.0,  -7.16929E-03,   4.14539E-03,      -1.31213,0.0553332,0.0503968,0.00213839
12323,-17.0,10.0,0.0,  -7.55049E-03,   4.04003E-03,      -1.29550,0.0555703,0.0496075,0.00225131
12324,-18.0,10.0,0.0,  -7.91683E-03,   3.92884E-03,      -1.27769,0.0558172,0.0487738,0.00235953
12329,-19.0,10.0,0.0,  -8.26665E-03,   3.81200E-03,      -1.25866,0.0560728,0.0478972,0.00246253
12330,-20.0,10.0,0.0,  -8.59818E-03,   3.68973E-03,      -1.23838,0.0563364,0.0469791,0.00255976
12335,-21.0,10.0,0.0,  -8.90950E-03,   3.56229E-03,      -1.21684,0.0566068,0.0460214,0.00265062
12338,-22.0,10.0,0.0,  -9.19858E-03,   3.42996E-03,      -1.19399,0.0568832,0.0450261,0.0027345
12339,-23.0,10.0,0.0,  -9.46324E-03,   3.29308E-03,      -1.16982,0.0571645,0.0439957,0.00281079
12344,-24.0,10.0,0.0,  -9.70117E-03,   3.15201E-03,      -1.14428,0.0574495,0.0429328,0.00287883
12345,-25.0,10.0,0.0,  -9.90992E-03,   3.00718E-03,      -1.11735,0.0577372,0.0418406,0.00293799
12350,-26.0,10.0,0.0,  -10.0869E-03,   2.85902E-03,      -1.08901,0.0580264,0.0407223,0.00298764
12353,-27.0,10.0,0.0,  -10.2294E-03,   2.70804E-03,      -1.05922,0.0583159,0.0395816,0.00302714
12354,-28.0,10.0,0.0,  -10.3347E-03,   2.55477E-03,      -1.02795,0.0586046,0.0384226,0.0030559
12359,-29.0,10.0,0.0,  -10.3997E-03,   2.39979E-03,  -995.186E-03,0.0588912,0.0372495,0.00307336
12360,-30.0,10.0,0.0,  -10.4213E-03,   2.24372E-03,  -960.892E-03,0.0591747,0.0360671,0.003079
12365,-31.0,10.0,0.0,  -10.3965E-03,   2.08718E-03,  -925.047E-03,0.0594539,0.0348801,0.00307238
12368,-32.0,10.0,0.0,  -10.3218E-03,   1.93087E-03,  -887.627E-03,0.0597275,0.0336938,0.00305312
12369,-33.0,10.0,0.0,  -10.1939E-03,   1.77548E-03,  -848.609E-03,0.0599946,0.0325133,0.0030209
12374,-34.0,10.0,0.0,  -10.0094E-03,   1.62174E-03,  -807.973E-03,0.0602541,0.0313444,0.00297554
12375,-35.0,10.0,0.0,  -9.76466E-03,   1.47038E-03,  -765.699E-03,0.0605048,0.0301926,0.00291691
12380,-36.0,10.0,0.0,  -9.45607E-03,   1.32217E-03,  -721.769E-03,0.0607458,0.0290636,0.00284503
12383,-37.0,10.0,0.0,  -9.07995E-03,   1.17784E-03,  -676.167E-03,0.0609759,0.0279632,0.00276001
12384,-38.0,10.0,0.0,  -8.63256E-03,   1.03817E-03,  -628.877E-03,0.0611939,0.0268971,0.00266209
12389,-39.0,10.0,0.0,  -8.11013E-03,   903.891E-06,  -579.886E-03,0.0613976,0.0258704,0.00255168
12390,-40.0,10.0,0.0,  -7.50887E-03,   775.746E-06,  -529.183E-03,0.0615828,0.0248879,0.00242932
12395,-41.0,10.0,0.0,  -6.82503E-03,   654.454E-06,  -476.758E-03,0.0617394,0.0239521,0.00229584
12398,-42.0,10.0,0.0,  -6.05507E-03,   540.716E-06,  -422.608E-03,0.0618412,0.0230604,0.00215243
12399,-43.0,10.0,0.0,  -5.19604E-03,   435.214E-06,  -366.741E-03,0.061818,0.0221971,0.00200113
12404,-44.0,10.0,0.0,  -4.24669E-03,   338.631E-06,  -309.193E-03,0.0614787,0.0213095,0.0018453
12405,-45.0,10.0,0.0,  -3.21061E-03,   251.681E-06,  -250.082E-03,0.0603022,0.0202458,0.00169118
12410,-46.0,10.0,0.0,  -2.10480E-03,   175.189E-06,  -189.737E-03,0.0568601,0.0185818,0.00154823
12413,-47.0,10.0,0.0,  -983.072E-06,   110.251E-06,  -129.072E-03,0.0472303,0.0151464,0.00142821
12414,-48.0,10.0,0.0,   5.00383E-06,   58.4380E-06,  -70.5983E-03,0.0206244,0.0067112,0.00132036
12419,-49.0,10.0,0.0,   499.582E-06,   21.6523E-06,  -21.2300E-03,-0.0526615,-0.0156155,0.00109321
12420,-50.0,10.0,0.0,   2.76285E-39,  -819.890E-42,           -0.,-0.106423,-0.0319304,0.000647375
12425,50.0,9.0,0.0,  -2.78763E-39,  -828.956E-42,           -0.,-0.106757,-0.0320304,-0.000584394
12426,49.0,9.0,0.0,  -503.425E-06,   19.5743E-06,  -21.3356E-03,-0.0526034,-0.0155966,-0.000983162
12431,48.0,9.0,0.0,  -4.45996E-06,   52.7274E-06,  -70.9155E-03,0.0211186,0.00685957,-0.00118562
12432,47.0,9.0,0.0,   989.510E-06,   99.3483E-06,  -129.593E-03,0.04775,0.0152987,-0.00128194
12437,46.0,9.0,0.0,   2.11672E-03,   157.730E-06,  -190.449E-03,0.0573411,0.0187172,-0.00138955
12440,45.0,9.0,0.0,   3.22767E-03,   226.474E-06,  -250.980E-03,0.060752,0.0203651,-0.00151772
12441,44.0,9.0,0.0,   4.26887E-03,   304.610E-06,  -310.281E-03,0.0619115,0.0214158,-0.00165583
12446,43.0,9.0,0.0,   5.22347E-03,   391.406E-06,  -368.025E-03,0.0622431,0.0222922,-0.00179541
12447,42.0,9.0,0.0,   6.08792E-03,   486.230E-06,  -424.100E-03,0.062264,0.0231449,-0.00193095
12452,41.0,9.0,0.0,   6.86345E-03,   588.478E-06,  -478.467E-03,0.0621623,0.0240259,-0.00205947
12455,40.0,9.0,0.0,   7.55296E-03,   697.542E-06,  -531.118E-03,0.0620071,0.0249507,-0.00217917
12456,39.0,9.0,0.0,   8.15995E-03,   812.801E-06,  -582.058E-03,0.0618239,0.0259218,-0.00228902
12461,38.0,9.0,0.0,   8.68808E-03,   933.612E-06,  -631.294E-03,0.0616226,0.0269367,-0.00238826
12462,37.0,9.0,0.0,   9.14108E-03,   1.05932E-03,  -678.836E-03,0.0614073,0.0279909,-0.0024764
12467,36.0,9.0,0.0,   9.52265E-03,   1.18926E-03,  -724.698E-03,0.0611799,0.0290792,-0.00255308
12470,35.0,9.0,0.0,   9.83649E-03,   1.32276E-03,  -768.894E-03,0.0609417,0.030196,-0.00261809
12471,34.0,9.0,0.0,   10.0862E-03,   1.45914E-03,  -811.438E-03,0.0606938,0.0313357,-0.00267129
12476,33.0,9.0,0.0,   10.2754E-03,   1.59774E-03,  -852.349E-03,0.0604371,0.0324928,-0.00271268
12477,32.0,9.0,0.0,   10.4075E-03,   1.73787E-03,  -891.645E-03,0.0601728,0.0336617,-0.00274233
12482,31.0,9.0,0.0,   10.4861E-03,   1.87891E-03,  -929.345E-03,0.0599017,0.0348369,-0.00276042
12485,30.0,9.0,0.0,   10.5144E-03,   2.02021E-03,  -965.471E-03,0.0596251,0.0360132,-0.00276719
12486,29.0,9.0,0.0,   10.4957E-03,   2.16117E-03,      -1.00004,0.0593439,0.0371856,-0.00276296
12491,28.0,9.0,0.0,   10.4332E-03,   2.30120E-03,      -1.03309,0.0590594,0.0383491,-0.00274813
12492,27.0,9.0,0.0,   10.3300E-03,   2.43975E-03,      -1.06463,0.0587727,0.0394992,-0.00272314
12497,26.0,9.0,0.0,   10.1889E-03,   2.57630E-03,      -1.09470,0.0584849,0.0406316,-0.00268848
12500,25.0,9.0,0.0,   10.0128E-03,   2.71037E-03,      -1.12331,0.0581972,0.0417423,-0.00264466
12501,24.0,9.0,0.0,   9.80451E-03,   2.84149E-03,      -1.15050,0.0579108,0.0428276,-0.00259224
12506,23.0,9.0,0.0,   9.56648E-03,   2.96926E-03,      -1.17630,0.0576268,0.0438841,-0.00253177
12507,22.0,9.0,0.0,   9.30120E-03,   3.09330E-03,      -1.20073,0.0573463,0.0449089,-0.00246382
12512,21.0,9.0,0.0,   9.01099E-03,   3.21326E-03,      -1.22382,0.0570705,0.0458991,-0.00238896
12515,20.0,9.0,0.0,   8.69805E-03,   3.32885E-03,      -1.24560,0.0568003,0.0468522,-0.00230775
12516,19.0,9.0,0.0,   8.36444E-03,   3.43980E-03,      -1.26610,0.0565369,0.0477663,-0.00222072
12521,18.0,9.0,0.0,   8.01207E-03,   3.54586E-03,      -1.28535,0.0562812,0.0486394,-0.00212841
12522,17.0,9.0,0.0,   7.64277E-03,   3.64683E-03,      -1.30338,0.0560341,0.04947,-0.00203131
12527,16.0,9.0,0.0,   7.25819E-03,   3.74254E-03,      -1.32021,0.0557965,0.0502566,-0.0019299
12530,15.0,9.0,0.0,   6.85991E-03,   3.83284E-03,      -1.33587,0.0555694,0.0509982,-0.00182462
12531,14.0,9.0,0.0,   6.44936E-03,   3.91761E-03,      -1.35038,0.0553533,0.051694,-0.00171589
12536,13.0,9.0,0.0,   6.02787E-03,   3.99676E-03,      -1.36378,0.0551491,0.052343,-0.00160409
12537,12.0,9.0,0.0,   5.59668E-03,   4.07019E-03,      -1.37608,0.0549575,0.0529449,-0.00148959
12542,11.0,9.0,0.0,   5.15691E-03,   4.13786E-03,      -1.38731,0.054779,0.0534992,-0.00137271
12545,10.0,9.0,0.0,   4.70960E-03,   4.19971E-03,      -1.39749,0.0546143,0.0540055,-0.00125375
12546,9.0,9.0,0.0,   4.25571E-03,   4.25571E-03,      -1.40664,0.0544638,0.0544638,-0.00113298
12551,8.0,9.0,0.0,   3.79611E-03,   4.30583E-03,      -1.41478,0.0543279,0.0548737,-0.00101066
12552,7.0,9.0,0.0,   3.33162E-03,   4.35007E-03,      -1.42192,0.0542071,0.0552354,-0.000887007
12557,6.0,9.0,0.0,   2.86297E-03,   4.38841E-03,      -1.42808,0.0541017,0.0555487,-0.00076224
12560,5.0,9.0,0.0,   2.39088E-03,   4.42085E-03,      -1.43326,0.0540121,0.0558137,-0.000636546
12561,4.0,9.0,0.0,   1.91597E-03,   4.44738E-03,      -1.43749,0.0539384,0.0560305,-0.000510104
12566,3.0,9.0,0.0,   1.43886E-03,   4.46802E-03,      -1.44077,0.0538808,0.056199,-0.000383077
12567,2.0,9.0,0.0,   960.131E-06,   4.48276E-03,      -1.44311,0.0538396,0.0563193,-0.00025562
12572,1.0,9.0,0.0,   480.331E-06,   4.49160E-03,      -1.44451,0.0538149,0.0563915,-0.00012788
12575,0.0,9.0,0.0,   10.7079E-15,   4.49454E-03,      -1.44498,0.0538066,0.0564156,9.09495e-13
12576,-1.0,9.0,0.0,  -480.331E-06,   4.49160E-03,      -1.44451,0.0538149,0.0563915,0.00012788
12581,-2.0,9.0,0.0,  -960.131E-06,   4.48276E-03,      -1.44311,0.0538396,0.0563193,0.00025562
12582,-3.0,9.0,0.0,  -1.43886E-03,   4.46802E-03,      -1.44077,0.0538808,0.056199,0.000383077
12587,-4.0,9.0,0.0,  -1.91597E-03,   4.44738E-03,      -1.43749,0.0539384,0.0560305,0.000510104
12590,-5.0,9.0,0.0,  -2.39088E-03,   4.42085E-03,      -1.43326,0.0540121,0.0558137,0.000636546
12591,-6.0,9.0,0.0,  -2.86297E-03,   4.38841E-03,      -1.42808,0.0541017,0.0555487,0.00076224
12596,-7.0,9.0,0.0,  -3.33162E-03,   4.35007E-03,      -1.42192,0.0542071,0.0552354,0.000887007
12597,-8.0,9.0,0.0,  -3.79611E-03,   4.30583E-03,      -1.41478,0.0543279,0.0548737,0.00101066
12602,-9.0,9.0,0.0,  -4.25571E-03,   4.25571E-03,      -1.40664,0.0544638,0.0544638,0.00113298
12605,-10.0,9.0,0.0,  -4.70960E-03,   4.19971E-03,      -1.39749,0.0546143,0.0540055,0.00125375
12606,-11.0,9.0,0.0,  -5.15691E-03,   4.13786E-03,      -1.38731,0.0547791,0.0534992,0.00137271
12611,-12.0,9.0,0.0,  -5.59668E-03,   4.07019E-03,      -1.37608,0.0549575,0.0529449,0.00148959
12612,-13.0,9.0,0.0,  -6.02787E-03,   3.99676E-03,      -1.36378,0.0551491,0.052343,0.00160409
12617,-14.0,9.0,0.0,  -6.44936E-03,   3.91761E-03,      -1.35038,0.0553533,0.051694,0.00171589
12620,-15.0,9.0,0.0,  -6.85991E-03,   3.83284E-03,      -1.33587,0.0555694,0.0509982,0.00182462
12621,-16.0,9.0,0.0,  -7.25819E-03,   3.74254E-03,      -1.32021,0.0557965,0.0502566,0.0019299
12626,-17.0,9.0,0.0,  -7.64277E-03,   3.64683E-03,      -1.30338,0.0560341,0.04947,0.00203131
12627,-18.0,9.0,0.0,  -8.01207E-03,   3.54586E-03,      -1.28535,0.0562812,0.0486394,0.00212841
12632,-19.0,9.0,0.0,  -8.36444E-03,   3.43980E-03,      -1.26610,0.0565369,0.0477663,0.00222072
12635,-20.0,9.0,0.0,  -8.69805E-03,   3.32885E-03,      -1.24560,0.0568003,0.0468522,0.00230775
12636,-21.0,9.0,0.0,  -9.01099E-03,   3.21326E-03,      -1.22382,0.0570705,0.0458991,0.00238896
12641,-22.0,9.0,0.0,  -9.30120E-03,   3.09330E-03,      -1.20073,0.0573463,0.0449089,0.00246382
12642,-23.0,9.0,0.0,  -9.56648E-03,   2.96926E-03,      -1.17630,0.0576268,0.0438841,0.00253177
12647,-24.0,9.0,0.0,  -9.80451E-03,   2.84149E-03,      -1.15050,0.0579108,0.0428276,0.00259224
12650,-25.0,9.0,0.0,  -10.0128E-03,   2.71037E-03,      -1.12331,0.0581972,0.0417423,0.00264466
12651,-26.0,9.0,0.0,  -10.1889E-03,   2.57630E-03,      -1.09470,0.0584849,0.0406316,0.00268848
12656,-27.0,9.0,0.0,  -10.3300E-03,   2.43975E-03,      -1.06463,0.0587727,0.0394992,0.00272314
12657,-28.0,9.0,0.0,  -10.4332E-03,   2.30120E-03,      -1.03309,0.0590594,0.0383491,0.00274813
12662,-29.0,9.0,0.0,  -10.4957E-03,   2.16117E-03,      -1.00004,0.0593439,0.0371856,0.00276296
12665,-30.0,9.0,0.0,  -10.5144E-03,   2.02021E-03,  -965.471E-03,0.0596251,0.0360132,0.00276719
12666,-31.0,9.0,0.0,  -10.4861E-03,   1.87891E-03,  -929.345E-03,0.0599017,0.0348369,0.00276042
12671,-32.0,9.0,0.0,  -10.4075E-03,   1.73787E-03,  -891.645E-03,0.0601728,0.0336617,0.00274233
12672,-33.0,9.0,0.0,  -10.2754E-03,   1.59774E-03,  -852.349E-03,0.0604371,0.0324928,0.00271268
12677,-34.0,9.0,0.0,  -10.0862E-03,   1.45914E-03,  -811.438E-03,0.0606938,0.0313357,0.00267129
12680,-35.0,9.0,0.0,  -9.83649E-03,   1.32276E-03,  -768.894E-03,0.0609417,0.030196,0.00261809
12681,-36.0,9.0,0.0,  -9.52265E-03,   1.18926E-03,  -724.698E-03,0.0611799,0.0290792,0.00255308
12686,-37.0,9.0,0.0,  -9.14108E-03,   1.05932E-03,  -678.836E-03,0.0614073,0.0279909,0.0024764
12687,-38.0,9.0,0.0,  -8.68808E-03,   933.612E-06,  -631.294E-03,0.0616226,0.0269367,0.00238826
12692,-39.0,9.0,0.0,  -8.15995E-03,   812.801E-06,  -582.058E-03,0.0618239,0.0259218,0.00228902
12695,-40.0,9.0,0.0,  -7.55296E-03,   697.542E-06,  -531.118E-03,0.0620071,0.0249507,0.00217918
12696,-41.0,9.0,0.0,  -6.86345E-03,   588.478E-06,  -478.467E-03,0.0621623,0.0240259,0.00205947
12701,-42.0,9.0,0.0,  -6.08792E-03,   486.230E-06,  -424.100E-03,0.062264,0.0231449,0.00193095
12702,-43.0,9.0,0.0,  -5.22347E-03,   391.406E-06,  -368.025E-03,0.0622431,0.0222922,0.00179542
12707,-44.0,9.0,0.0,  -4.26887E-03,   304.610E-06,  -310.281E-03,0.0619115,0.0214158,0.00165583
12710,-45.0,9.0,0.0,  -3.22767E-03,   226.474E-06,  -250.980E-03,0.060752,0.0203651,0.00151772
12711,-46.0,9.0,0.0,  -2.11672E-03,   157.730E-06,  -190.449E-03,0.0573411,0.0187172,0.00138955
12716,-47.0,9.0,0.0,  -989.510E-06,   99.3483E-06,  -129.593E-03,0.04775,0.0152987,0.00128194
12717,-48.0,9.0,0.0,   4.45996E-06,   52.7274E-06,  -70.9155E-03,0.0211186,0.00685957,0.00118562
12722,-49.0,9.0,0.0,   503.425E-06,   19.5743E-06,  -21.3356E-03,-0.0526034,-0.0155966,0.000983162
12725,-50.0,9.0,0.0,   2.78763E-39,  -828.956E-42,           -0.,-0.106757,-0.0320304,0.000584394
12726,50.0,8.0,0.0,  -2.80994E-39,  -837.301E-42,           -0.,-0.107052,-0.0321189,-0.000520836
12731,49.0,8.0,0.0,  -506.849E-06,   17.4680E-06,  -21.4296E-03,-0.0525496,-0.0155793,-0.000873326
12732,48.0,8.0,0.0,  -3.97295E-06,   46.9728E-06,  -71.1974E-03,0.0215605,0.00699219,-0.00105174
12737,47.0,8.0,0.0,   995.227E-06,   88.4037E-06,  -130.056E-03,0.0482137,0.0154346,-0.00113677
12740,46.0,8.0,0.0,   2.12729E-03,   140.248E-06,  -191.081E-03,0.0577701,0.0188379,-0.00123211
12741,45.0,8.0,0.0,   3.24280E-03,   201.275E-06,  -251.776E-03,0.0611534,0.0204715,-0.00134566
12746,44.0,8.0,0.0,   4.28853E-03,   270.633E-06,  -311.245E-03,0.0622978,0.0215107,-0.00146795
12747,43.0,8.0,0.0,   5.24776E-03,   347.682E-06,  -369.165E-03,0.0626228,0.0223772,-0.00159151
12752,42.0,8.0,0.0,   6.11701E-03,   431.867E-06,  -425.422E-03,0.0626415,0.0232206,-0.00171148
12755,41.0,8.0,0.0,   6.89748E-03,   522.659E-06,  -479.982E-03,0.06254,0.0240921,-0.00182529
12756,40.0,8.0,0.0,   7.59203E-03,   619.524E-06,  -532.834E-03,0.062386,0.0250072,-0.00193136
12761,39.0,8.0,0.0,   8.20409E-03,   721.914E-06,  -583.983E-03,0.0622046,0.0259683,-0.00202876
12762,38.0,8.0,0.0,   8.73728E-03,   829.268E-06,  -633.436E-03,0.0620054,0.0269727,-0.00211686
12767,37.0,8.0,0.0,   9.19526E-03,   941.007E-06,  -681.202E-03,0.0617924,0.0280163,-0.00219522
12770,36.0,8.0,0.0,   9.58168E-03,   1.05654E-03,  -727.294E-03,0.0615674,0.0290937,-0.0022635
12771,35.0,8.0,0.0,   9.90018E-03,   1.17528E-03,  -771.725E-03,0.0613316,0.0301997,-0.00232152
12776,34.0,8.0,0.0,   10.1543E-03,   1.29663E-03,  -814.510E-03,0.0610861,0.0313288,-0.00236914
12777,33.0,8.0,0.0,   10.3477E-03,   1.41999E-03,  -855.664E-03,0.0608319,0.0324753,-0.00240636
12782,32.0,8.0,0.0,   10.4837E-03,   1.54477E-03,  -895.206E-03,0.0605699,0.0336338,-0.00243322
12785,31.0,8.0,0.0,   10.5657E-03,   1.67041E-03,  -933.155E-03,0.0603012,0.0347991,-0.00244987
12786,30.0,8.0,0.0,   10.5971E-03,   1.79633E-03,  -969.530E-03,0.0600267,0.0359659,-0.00245651
12791,29.0,8.0,0.0,   10.5811E-03,   1.92200E-03,      -1.00435,0.0597477,0.0371291,-0.00245342
12792,28.0,8.0,0.0,   10.5208E-03,   2.04689E-03,      -1.03765,0.0594651,0.038284,-0.00244092
12797,27.0,8.0,0.0,   10.4194E-03,   2.17053E-03,      -1.06944,0.0591801,0.0394261,-0.0024194
12800,26.0,8.0,0.0,   10.2797E-03,   2.29242E-03,      -1.09974,0.0588939,0.040551,-0.00238928
12801,25.0,8.0,0.0,   10.1045E-03,   2.41215E-03,      -1.12860,0.0586076,0.0416548,-0.00235101
12806,24.0,8.0,0.0,   9.89655E-03,   2.52930E-03,      -1.15603,0.0583224,0.0427337,-0.00230506
12807,23.0,8.0,0.0,   9.65846E-03,   2.64351E-03,      -1.18205,0.0580393,0.0437845,-0.00225191
12812,22.0,8.0,0.0,   9.39267E-03,   2.75442E-03,      -1.20671,0.0577596,0.044804,-0.00219208
12815,21.0,8.0,0.0,   9.10149E-03,   2.86174E-03,      -1.23002,0.0574844,0.0457895,-0.00212604
12816,20.0,8.0,0.0,   8.78715E-03,   2.96518E-03,      -1.25201,0.0572146,0.0467386,-0.0020543
12821,19.0,8.0,0.0,   8.45171E-03,   3.06450E-03,      -1.27271,0.0569513,0.0476489,-0.00197732
12822,18.0,8.0,0.0,   8.09711E-03,   3.15949E-03,      -1.29216,0.0566957,0.0485188,-0.00189558
12827,17.0,8.0,0.0,   7.72518E-03,   3.24995E-03,      -1.31037,0.0564484,0.0493464,-0.00180952
12830,16.0,8.0,0.0,   7.33762E-03,   3.33572E-03,      -1.32738,0.0562106,0.0501306,-0.00171955
12831,15.0,8.0,0.0,   6.93601E-03,   3.41668E-03,      -1.34321,0.055983,0.0508701,-0.00162608
12836,14.0,8.0,0.0,   6.52180E-03,   3.49270E-03,      -1.35788,0.0557665,0.0515639,-0.00152947
12837,13.0,8.0,0.0,   6.09636E-03,   3.56369E-03,      -1.37143,0.0555618,0.0522114,-0.00143008
12842,12.0,8.0,0.0,   5.66093E-03,   3.62958E-03,      -1.38387,0.0553695,0.052812,-0.00132822
12845,11.0,8.0,0.0,   5.21668E-03,   3.69031E-03,      -1.39523,0.0551904,0.0533651,-0.00122418
12846,10.0,8.0,0.0,   4.76465E-03,   3.74583E-03,      -1.40552,0.0550249,0.0538705,-0.00111824
12851,9.0,8.0,0.0,   4.30583E-03,   3.79611E-03,      -1.41478,0.0548737,0.0543279,-0.00101066
12852,8.0,8.0,0.0,   3.84112E-03,   3.84112E-03,      -1.42301,0.0547372,0.0547372,-0.00090164
12857,7.0,8.0,0.0,   3.37135E-03,   3.88086E-03,      -1.43023,0.0546158,0.0550983,-0.000791406
12860,6.0,8.0,0.0,   2.89730E-03,   3.91530E-03,      -1.43646,0.0545098,0.0554112,-0.000680144
12861,5.0,8.0,0.0,   2.41966E-03,   3.94444E-03,      -1.44171,0.0544197,0.0556759,-0.000568029
12866,4.0,8.0,0.0,   1.93911E-03,   3.96828E-03,      -1.44599,0.0543455,0.0558924,-0.000455223
12867,3.0,8.0,0.0,   1.45629E-03,   3.98682E-03,      -1.44931,0.0542877,0.0560607,-0.000341878
12872,2.0,8.0,0.0,   971.783E-06,   4.00007E-03,      -1.45168,0.0542462,0.0561809,-0.000228136
12875,1.0,8.0,0.0,   486.167E-06,   4.00801E-03,      -1.45310,0.0542213,0.056253,-0.000114133
12876,0.0,8.0,0.0,   14.7719E-15,   4.01066E-03,      -1.45357,0.054213,0.056277,0.0
12881,-1.0,8.0,0.0,  -486.167E-06,   4.00801E-03,      -1.45310,0.0542213,0.056253,0.000114133
12882,-2.0,8.0,0.0,  -971.783E-06,   4.00007E-03,      -1.45168,0.0542462,0.0561809,0.000228136
12887,-3.0,8.0,0.0,  -1.45629E-03,   3.98682E-03,      -1.44931,0.0542877,0.0560607,0.000341878
12890,-4.0,8.0,0.0,  -1.93911E-03,   3.96828E-03,      -1.44599,0.0543455,0.0558924,0.000455223
12891,-5.0,8.0,0.0,  -2.41966E-03,   3.94444E-03,      -1.44171,0.0544197,0.0556759,0.000568029
12896,-6.0,8.0,0.0,  -2.89730E-03,   3.91530E-03,      -1.43646,0.0545098,0.0554112,0.000680144
12897,-7.0,8.0,0.0,  -3.37135E-03,   3.88086E-03,      -1.43023,0.0546158,0.0550983,0.000791406
12902,-8.0,8.0,0.0,  -3.84112E-03,   3.84112E-03,      -1.42301,0.0547372,0.0547372,0.00090164
12905,-9.0,8.0,0.0,  -4.30583E-03,   3.79611E-03,      -1.41478,0.0548737,0.0543279,0.00101066
12906,-10.0,8.0,0.0,  -4.76465E-03,   3.74583E-03,      -1.40552,0.0550249,0.0538705,0.00111824
12911,-11.0,8.0,0.0,  -5.21668E-03,   3.69031E-03,      -1.39523,0.0551904,0.0533651,0.00122418
12912,-12.0,8.0,0.0,  -5.66093E-03,   3.62958E-03,      -1.38387,0.0553695,0.052812,0.00132822
12917,-13.0,8.0,0.0,  -6.09636E-03,   3.56369E-03,      -1.37143,0.0555618,0.0522114,0.00143008
12920,-14.0,8.0,0.0,  -6.52180E-03,   3.49270E-03,      -1.35788,0.0557665,0.0515639,0.00152947
12921,-15.0,8.0,0.0,  -6.93601E-03,   3.41668E-03,      -1.34321,0.055983,0.0508701,0.00162608
12926,-16.0,8.0,0.0,  -7.33762E-03,   3.33572E-03,      -1.32738,0.0562106,0.0501306,0.00171955
12927,-17.0,8.0,0.0,  -7.72518E-03,   3.24995E-03,      -1.31037,0.0564484,0.0493464,0.00180952
12932,-18.0,8.0,0.0,  -8.09711E-03,   3.15949E-03,      -1.29216,0.0566956,0.0485188,0.00189558
12935,-19.0,8.0,0.0,  -8.45171E-03,   3.06450E-03,      -1.27271,0.0569514,0.0476489,0.00197732
12936,-20.0,8.0,0.0,  -8.78715E-03,   2.96518E-03,      -1.25201,0.0572146,0.0467386,0.0020543
12941,-21.0,8.0,0.0,  -9.10149E-03,   2.86174E-03,      -1.23002,0.0574844,0.0457895,0.00212604
12942,-22.0,8.0,0.0,  -9.39267E-03,   2.75442E-03,      -1.20671,0.0577596,0.044804,0.00219208
12947,-23.0,8.0,0.0,  -9.65846E-03,   2.64351E-03,      -1.18205,0.0580393,0.0437845,0.00225191
12950,-24.0,8.0,0.0,  -9.89655E-03,   2.52930E-03,      -1.15603,0.0583224,0.0427337,0.00230506
12951,-25.0,8.0,0.0,  -10.1045E-03,   2.41215E-03,      -1.12860,0.0586076,0.0416548,0.00235101
12956,-26.0,8.0,0.0,  -10.2797E-03,   2.29242E-03,      -1.09974,0.0588939,0.040551,0.00238928
12957,-27.0,8.0,0.0,  -10.4194E-03,   2.17053E-03,      -1.06944,0.0591801,0.0394261,0.0024194
12962,-28.0,8.0,0.0,  -10.5208E-03,   2.04689E-03,      -1.03765,0.0594651,0.038284,0.00244092
12965,-29.0,8.0,0.0,  -10.5811E-03,   1.92200E-03,      -1.00435,0.0597477,0.0371291,0.00245342
12966,-30.0,8.0,0.0,  -10.5971E-03,   1.79633E-03,  -969.530E-03,0.0600267,0.0359659,0.00245651
12971,-31.0,8.0,0.0,  -10.5657E-03,   1.67041E-03,  -933.155E-03,0.0603012,0.0347991,0.00244987
12972,-32.0,8.0,0.0,  -10.4837E-03,   1.54477E-03,  -895.206E-03,0.0605699,0.0336338,0.00243322
12977,-33.0,8.0,0.0,  -10.3477E-03,   1.41999E-03,  -855.664E-03,0.0608319,0.0324753,0.00240636
12980,-34.0,8.0,0.0,  -10.1543E-03,   1.29663E-03,  -814.510E-03,0.0610861,0.0313288,0.00236914
12981,-35.0,8.0,0.0,  -9.90018E-03,   1.17528E-03,  -771.725E-03,0.0613316,0.0301997,0.00232152
12986,-36.0,8.0,0.0,  -9.58168E-03,   1.05654E-03,  -727.294E-03,0.0615674,0.0290937,0.0022635
12987,-37.0,8.0,0.0,  -9.19526E-03,   941.007E-06,  -681.202E-03,0.0617924,0.0280163,0.00219522
12992,-38.0,8.0,0.0,  -8.73728E-03,   829.268E-06,  -633.436E-03,0.0620054,0.0269727,0.00211686
12995,-39.0,8.0,0.0,  -8.20409E-03,   721.914E-06,  -583.983E-03,0.0622046,0.0259683,0.00202876
12996,-40.0,8.0,0.0,  -7.59203E-03,   619.524E-06,  -532.834E-03,0.062386,0.0250072,0.00193136
13001,-41.0,8.0,0.0,  -6.89748E-03,   522.659E-06,  -479.982E-03,0.06254,0.0240921,0.00182529
13002,-42.0,8.0,0.0,  -6.11701E-03,   431.867E-06,  -425.422E-03,0.0626415,0.0232206,0.00171148
13007,-43.0,8.0,0.0,  -5.24776E-03,   347.682E-06,  -369.165E-03,0.0626228,0.0223772,0.00159151
13010,-44.0,8.0,0.0,  -4.28853E-03,   270.633E-06,  -311.245E-03,0.0622978,0.0215107,0.00146795
13011,-45.0,8.0,0.0,  -3.24280E-03,   201.275E-06,  -251.776E-03,0.0611534,0.0204715,0.00134566
13016,-46.0,8.0,0.0,  -2.12729E-03,   140.248E-06,  -191.081E-03,0.0577701,0.0188379,0.00123211
13017,-47.0,8.0,0.0,  -995.227E-06,   88.4037E-06,  -130.056E-03,0.0482137,0.0154346,0.00113677
13022,-48.0,8.0,0.0,   3.97295E-06,   46.9728E-06,  -71.1974E-03,0.0215605,0.00699219,0.00105174
13025,-49.0,8.0,0.0,   506.849E-06,   17.4680E-06,  -21.4296E-03,-0.0525496,-0.0155793,0.000873326
13026,-50.0,8.0,0.0,   2.80994E-39,  -837.301E-42,           -0.,-0.107052,-0.0321189,0.000520836
13031,50.0,7.0,0.0,  -2.82979E-39,  -844.926E-42,           -0.,-0.10731,-0.0321963,-0.000456779
13032,49.0,7.0,0.0,  -509.860E-06,   15.3369E-06,  -21.5120E-03,-0.0525007,-0.0155636,-0.000763688
13037,48.0,7.0,0.0,  -3.54335E-06,   41.1803E-06,  -71.4446E-03,0.0219502,0.00710909,-0.000918611
13040,47.0,7.0,0.0,   1.00024E-03,   77.4240E-06,  -130.462E-03,0.0486219,0.0155542,-0.000992578
13041,46.0,7.0,0.0,   2.13654E-03,   122.748E-06,  -191.634E-03,0.0581477,0.0189441,-0.00107576
13046,45.0,7.0,0.0,   3.25604E-03,   176.085E-06,  -252.474E-03,0.0615067,0.0205653,-0.00117483
13047,44.0,7.0,0.0,   4.30572E-03,   236.699E-06,  -312.090E-03,0.0626381,0.0215944,-0.00128147
13052,43.0,7.0,0.0,   5.26901E-03,   304.037E-06,  -370.162E-03,0.0629573,0.0224523,-0.00138919
13055,42.0,7.0,0.0,   6.14245E-03,   377.618E-06,  -426.580E-03,0.0629741,0.0232875,-0.00149379
13056,41.0,7.0,0.0,   6.92724E-03,   456.986E-06,  -481.308E-03,0.0628726,0.0241508,-0.00159304
13061,40.0,7.0,0.0,   7.62619E-03,   541.678E-06,  -534.336E-03,0.0627197,0.0250574,-0.00168558
13062,39.0,7.0,0.0,   8.24270E-03,   631.219E-06,  -585.668E-03,0.0625399,0.0260096,-0.00177063
13067,38.0,7.0,0.0,   8.78032E-03,   725.123E-06,  -635.310E-03,0.0623425,0.0270049,-0.00184763
13070,37.0,7.0,0.0,   9.24266E-03,   822.888E-06,  -683.273E-03,0.0621314,0.0280391,-0.00191618
13071,36.0,7.0,0.0,   9.63334E-03,   924.003E-06,  -729.566E-03,0.0619084,0.0291071,-0.00197602
13076,35.0,7.0,0.0,   9.95594E-03,   1.02795E-03,  -774.203E-03,0.0616748,0.0302036,-0.00202695
13077,34.0,7.0,0.0,   10.2140E-03,   1.13422E-03,  -817.197E-03,0.0614314,0.0313232,-0.00206887
13082,33.0,7.0,0.0,   10.4110E-03,   1.24228E-03,  -858.565E-03,0.0611793,0.0324604,-0.00210175
13085,32.0,7.0,0.0,   10.5503E-03,   1.35162E-03,  -898.323E-03,0.0609194,0.0336099,-0.00212563
13086,31.0,7.0,0.0,   10.6354E-03,   1.46175E-03,  -936.488E-03,0.0606527,0.0347664,-0.00214062
13091,30.0,7.0,0.0,   10.6696E-03,   1.57217E-03,  -973.081E-03,0.0603802,0.0359247,-0.0021469
13092,29.0,7.0,0.0,   10.6560E-03,   1.68241E-03,      -1.00812,0.0601029,0.0370798,-0.00214469
13097,28.0,7.0,0.0,   10.5977E-03,   1.79202E-03,      -1.04163,0.0598221,0.0382271,-0.00213428
13100,27.0,7.0,0.0,   10.4979E-03,   1.90055E-03,      -1.07364,0.0595387,0.039362,-0.00211598
13101,26.0,7.0,0.0,   10.3593E-03,   2.00760E-03,      -1.10416,0.0592538,0.0404803,-0.00209014
13106,25.0,7.0,0.0,   10.1850E-03,   2.11278E-03,      -1.13323,0.0589688,0.0415779,-0.00205717
13107,24.0,7.0,0.0,   9.97743E-03,   2.21574E-03,      -1.16086,0.0586846,0.0426512,-0.00201745
13112,23.0,7.0,0.0,   9.73931E-03,   2.31615E-03,      -1.18709,0.0584025,0.0436968,-0.00197142
13115,22.0,7.0,0.0,   9.47309E-03,   2.41370E-03,      -1.21194,0.0581235,0.0447116,-0.00191949
13116,21.0,7.0,0.0,   9.18110E-03,   2.50812E-03,      -1.23544,0.0578488,0.0456929,-0.0018621
13121,20.0,7.0,0.0,   8.86555E-03,   2.59916E-03,      -1.25762,0.0575794,0.0466381,-0.00179967
13122,19.0,7.0,0.0,   8.52852E-03,   2.68660E-03,      -1.27851,0.0573164,0.0475451,-0.00173261
13127,18.0,7.0,0.0,   8.17199E-03,   2.77025E-03,      -1.29812,0.0570608,0.048412,-0.00166133
13130,17.0,7.0,0.0,   7.79777E-03,   2.84994E-03,      -1.31650,0.0568135,0.049237,-0.00158622
13131,16.0,7.0,0.0,   7.40760E-03,   2.92553E-03,      -1.33366,0.0565755,0.0500189,-0.00150764
13136,15.0,7.0,0.0,   7.00307E-03,   2.99689E-03,      -1.34964,0.0563476,0.0507564,-0.00142594
13137,14.0,7.0,0.0,   6.58566E-03,   3.06392E-03,      -1.36446,0.0561307,0.0514486,-0.00134145
13142,13.0,7.0,0.0,   6.15675E-03,   3.12653E-03,      -1.37813,0.0559256,0.0520946,-0.00125447
13145,12.0,7.0,0.0,   5.71761E-03,   3.18466E-03,      -1.39070,0.0557328,0.0526939,-0.00116529
13146,11.0,7.0,0.0,   5.26940E-03,   3.23824E-03,      -1.40217,0.0555531,0.0532459,-0.00107416
13151,10.0,7.0,0.0,   4.81323E-03,   3.28724E-03,      -1.41257,0.0553872,0.0537504,-0.000981325
13152,9.0,7.0,0.0,   4.35007E-03,   3.33162E-03,      -1.42192,0.0552354,0.0542071,-0.000887007
13157,8.0,7.0,0.0,   3.88086E-03,   3.37135E-03,      -1.43023,0.0550983,0.0546158,-0.000791406
13160,7.0,7.0,0.0,   3.40644E-03,   3.40644E-03,      -1.43753,0.0549764,0.0549764,-0.000694709
13161,6.0,7.0,0.0,   2.92760E-03,   3.43685E-03,      -1.44383,0.05487,0.0552889,-0.000597086
13166,5.0,7.0,0.0,   2.44508E-03,   3.46259E-03,      -1.44913,0.0547794,0.0555532,-0.000498694
13167,4.0,7.0,0.0,   1.95955E-03,   3.48364E-03,      -1.45346,0.0547049,0.0557694,-0.000399678
13172,3.0,7.0,0.0,   1.47168E-03,   3.50002E-03,      -1.45681,0.0546467,0.0559376,-0.000300175
13175,2.0,7.0,0.0,   982.074E-06,   3.51172E-03,      -1.45920,0.0546051,0.0560576,-0.000200313
13176,1.0,7.0,0.0,   491.321E-06,   3.51874E-03,      -1.46064,0.05458,0.0561296,-0.000100215
13181,0.0,7.0,0.0,   10.8044E-15,   3.52108E-03,      -1.46111,0.0545717,0.0561537,-1.81899e-12
13182,-1.0,7.0,0.0,  -491.321E-06,   3.51874E-03,      -1.46064,0.05458,0.0561296,0.000100215
13187,-2.0,7.0,0.0,  -982.074E-06,   3.51172E-03,      -1.45920,0.0546051,0.0560576,0.000200313
13190,-3.0,7.0,0.0,  -1.47168E-03,   3.50002E-03,      -1.45681,0.0546467,0.0559376,0.000300175
13191,-4.0,7.0,0.0,  -1.95955E-03,   3.48364E-03,      -1.45346,0.0547049,0.0557694,0.000399678
13196,-5.0,7.0,0.0,  -2.44508E-03,   3.46259E-03,      -1.44913,0.0547794,0.0555532,0.000498694
13197,-6.0,7.0,0.0,  -2.92760E-03,   3.43685E-03,      -1.44383,0.05487,0.0552889,0.000597086
13202,-7.0,7.0,0.0,  -3.40644E-03,   3.40644E-03,      -1.43753,0.0549764,0.0549764,0.000694709
13205,-8.0,7.0,0.0,  -3.88086E-03,   3.37135E-03,      -1.43023,0.0550983,0.0546158,0.000791406
13206,-9.0,7.0,0.0,  -4.35007E-03,   3.33162E-03,      -1.42192,0.0552354,0.0542071,0.000887007
13211,-10.0,7.0,0.0,  -4.81323E-03,   3.28724E-03,      -1.41257,0.0553872,0.0537504,0.000981325
13212,-11.0,7.0,0.0,  -5.26940E-03,   3.23824E-03,      -1.40217,0.0555531,0.053246,0.00107416
13217,-12.0,7.0,0.0,  -5.71761E-03,   3.18466E-03,      -1.39070,0.0557328,0.0526939,0.00116529
13220,-13.0,7.0,0.0,  -6.15675E-03,   3.12653E-03,      -1.37813,0.0559256,0.0520946,0.00125447
13221,-14.0,7.0,0.0,  -6.58566E-03,   3.06392E-03,      -1.36446,0.0561307,0.0514486,0.00134145
13226,-15.0,7.0,0.0,  -7.00307E-03,   2.99689E-03,      -1.34964,0.0563476,0.0507564,0.00142594
13227,-16.0,7.0,0.0,  -7.40760E-03,   2.92553E-03,      -1.33366,0.0565755,0.0500189,0.00150764
13232,-17.0,7.0,0.0,  -7.79777E-03,   2.84994E-03,      -1.31650,0.0568135,0.049237,0.00158622
13235,-18.0,7.0,0.0,  -8.17199E-03,   2.77025E-03,      -1.29812,0.0570608,0.048412,0.00166133
13236,-19.0,7.0,0.0,  -8.52852E-03,   2.68660E-03,      -1.27851,0.0573164,0.0475451,0.00173261
13241,-20.0,7.0,0.0,  -8.86555E-03,   2.59916E-03,      -1.25762,0.0575794,0.0466381,0.00179967
13242,-21.0,7.0,0.0,  -9.18110E-03,   2.50812E-03,      -1.23544,0.0578488,0.0456929,0.0018621
13247,-22.0,7.0,0.0,  -9.47309E-03,   2.41370E-03,      -1.21194,0.0581235,0.0447116,0.00191949
13250,-23.0,7.0,0.0,  -9.73931E-03,   2.31615E-03,      -1.18709,0.0584025,0.0436968,0.00197142
13251,-24.0,7.0,0.0,  -9.97743E-03,   2.21574E-03,      -1.16086,0.0586846,0.0426512,0.00201745
13256,-25.0,7.0,0.0,  -10.1850E-03,   2.11278E-03,      -1.13323,0.0589688,0.0415779,0.00205717
13257,-26.0,7.0,0.0,  -10.3593E-03,   2.00760E-03,      -1.10416,0.0592538,0.0404803,0.00209014
13262,-27.0,7.0,0.0,  -10.4979E-03,   1.90055E-03,      -1.07364,0.0595386,0.039362,0.00211598
13265,-28.0,7.0,0.0,  -10.5977E-03,   1.79202E-03,      -1.04163,0.0598221,0.0382271,0.00213428
13266,-29.0,7.0,0.0,  -10.6560E-03,   1.68241E-03,      -1.00812,0.0601029,0.0370798,0.00214469
13271,-30.0,7.0,0.0,  -10.6696E-03,   1.57217E-03,  -973.081E-03,0.0603802,0.0359247,0.0021469
13272,-31.0,7.0,0.0,  -10.6354E-03,   1.46175E-03,  -936.488E-03,0.0606527,0.0347664,0.00214062
13277,-32.0,7.0,0.0,  -10.5503E-03,   1.35162E-03,  -898.323E-03,0.0609194,0.0336099,0.00212563
13280,-33.0,7.0,0.0,  -10.4110E-03,   1.24228E-03,  -858.565E-03,0.0611793,0.0324604,0.00210175
13281,-34.0,7.0,0.0,  -10.2140E-03,   1.13422E-03,  -817.197E-03,0.0614314,0.0313232,0.00206887
13286,-35.0,7.0,0.0,  -9.95594E-03,   1.02795E-03,  -774.203E-03,0.0616748,0.0302036,0.00202695
13287,-36.0,7.0,0.0,  -9.63334E-03,   924.003E-06,  -729.566E-03,0.0619084,0.0291071,0.00197602
13292,-37.0,7.0,0.0,  -9.24266E-03,   822.888E-06,  -683.273E-03,0.0621314,0.0280391,0.00191618
13295,-38.0,7.0,0.0,  -8.78032E-03,   725.123E-06,  -635.310E-03,0.0623425,0.0270049,0.00184763
13296,-39.0,7.0,0.0,  -8.24270E-03,   631.219E-06,  -585.668E-03,0.0625399,0.0260096,0.00177063
13301,-40.0,7.0,0.0,  -7.62619E-03,   541.678E-06,  -534.336E-03,0.0627197,0.0250574,0.00168558
13302,-41.0,7.0,0.0,  -6.92724E-03,   456.986E-06,  -481.308E-03,0.0628726,0.0241508,0.00159304
13307,-42.0,7.0,0.0,  -6.14245E-03,   377.618E-06,  -426.580E-03,0.0629741,0.0232875,0.00149379
13310,-43.0,7.0,0.0,  -5.26901E-03,   304.037E-06,  -370.162E-03,0.0629573,0.0224523,0.00138919
13311,-44.0,7.0,0.0,  -4.30572E-03,   236.699E-06,  -312.090E-03,0.0626381,0.0215944,0.00128147
13316,-45.0,7.0,0.0,  -3.25604E-03,   176.085E-06,  -252.474E-03,0.0615067,0.0205653,0.00117483
13317,-46.0,7.0,0.0,  -2.13654E-03,   122.748E-06,  -191.634E-03,0.0581477,0.0189441,0.00107576
13322,-47.0,7.0,0.0,  -1.00024E-03,   77.4240E-06,  -130.462E-03,0.0486219,0.0155542,0.000992578
13325,-48.0,7.0,0.0,   3.54335E-06,   41.1803E-06,  -71.4446E-03,0.0219502,0.00710909,0.000918611
13326,-49.0,7.0,0.0,   509.860E-06,   15.3369E-06,  -21.5120E-03,-0.0525007,-0.0155636,0.000763688
13331,-50.0,7.0,0.0,   2.82979E-39,  -844.926E-42,           -0.,-0.10731,-0.0321963,0.000456779
13332,50.0,6.0,0.0,  -2.84721E-39,  -851.831E-42,           -0.,-0.107532,-0.0322629,-0.000392294
13337,49.0,6.0,0.0,  -512.462E-06,   13.1845E-06,  -21.5832E-03,-0.0524573,-0.0155497,-0.000654232
13340,48.0,6.0,0.0,  -3.17142E-06,   35.3554E-06,  -71.6578E-03,0.0222878,0.00721032,-0.000786149
13341,47.0,6.0,0.0,   1.00455E-03,   66.4148E-06,  -130.812E-03,0.048975,0.0156576,-0.000849229
13346,46.0,6.0,0.0,   2.14450E-03,   105.234E-06,  -192.111E-03,0.0584741,0.0190359,-0.000920353
13347,45.0,6.0,0.0,   3.26742E-03,   150.906E-06,  -253.075E-03,0.0618123,0.0206463,-0.00100506
13352,44.0,6.0,0.0,   4.32050E-03,   202.805E-06,  -312.817E-03,0.0629325,0.0216669,-0.0010962
13355,43.0,6.0,0.0,   5.28727E-03,   260.462E-06,  -371.021E-03,0.0632467,0.0225174,-0.00118824
13356,42.0,6.0,0.0,   6.16432E-03,   323.472E-06,  -427.577E-03,0.063262,0.0233455,-0.00127761
13361,41.0,6.0,0.0,   6.95283E-03,   391.444E-06,  -482.449E-03,0.0631605,0.0242017,-0.00136244
13362,40.0,6.0,0.0,   7.65557E-03,   463.988E-06,  -535.629E-03,0.0630085,0.025101,-0.00144157
13367,39.0,6.0,0.0,   8.27590E-03,   540.699E-06,  -587.118E-03,0.06283,0.0260456,-0.00151434
13370,38.0,6.0,0.0,   8.81733E-03,   621.164E-06,  -636.923E-03,0.0626341,0.0270331,-0.00158026
13371,37.0,6.0,0.0,   9.28344E-03,   704.954E-06,  -685.054E-03,0.0624247,0.0280593,-0.00163902
13376,36.0,6.0,0.0,   9.67779E-03,   791.637E-06,  -731.520E-03,0.0622034,0.0291192,-0.00169036
13377,35.0,6.0,0.0,   10.0039E-03,   880.771E-06,  -776.334E-03,0.0619716,0.0302075,-0.00173413
13382,34.0,6.0,0.0,   10.2653E-03,   971.914E-06,  -819.509E-03,0.06173,0.0313189,-0.00177024
13383,33.0,6.0,0.0,   10.4655E-03,   1.06462E-03,  -861.061E-03,0.0614797,0.0324481,-0.00179865
13388,32.0,6.0,0.0,   10.6078E-03,   1.15846E-03,  -901.004E-03,0.0612216,0.0335897,-0.00181939
13389,31.0,6.0,0.0,   10.6955E-03,   1.25300E-03,  -939.356E-03,0.0609566,0.0347385,-0.00183255
13394,30.0,6.0,0.0,   10.7320E-03,   1.34782E-03,  -976.137E-03,0.0606857,0.0358894,-0.00183827
13397,29.0,6.0,0.0,   10.7205E-03,   1.44251E-03,      -1.01137,0.0604101,0.0370376,-0.00183674
13398,28.0,6.0,0.0,   10.6640E-03,   1.53669E-03,      -1.04507,0.0601307,0.0381782,-0.00182819
13403,27.0,6.0,0.0,   10.5656E-03,   1.62997E-03,      -1.07726,0.0598486,0.0393069,-0.00181289
13404,26.0,6.0,0.0,   10.4281E-03,   1.72201E-03,      -1.10796,0.059565,0.0404193,-0.00179113
13409,25.0,6.0,0.0,   10.2544E-03,   1.81248E-03,      -1.13721,0.0592811,0.0415115,-0.00176324
13412,24.0,6.0,0.0,   10.0472E-03,   1.90106E-03,      -1.16502,0.0589979,0.0425798,-0.00172956
13413,23.0,6.0,0.0,   9.80914E-03,   1.98747E-03,      -1.19143,0.0587166,0.0436209,-0.00169044
13418,22.0,6.0,0.0,   9.54257E-03,   2.07145E-03,      -1.21645,0.0584383,0.0446316,-0.00164625
13419,21.0,6.0,0.0,   9.24989E-03,   2.15276E-03,      -1.24012,0.058164,0.0456091,-0.00159735
13424,20.0,6.0,0.0,   8.93332E-03,   2.23118E-03,      -1.26246,0.057895,0.046551,-0.00154409
13427,19.0,6.0,0.0,   8.59495E-03,   2.30652E-03,      -1.28350,0.0576322,0.047455,-0.00148684
13428,18.0,6.0,0.0,   8.23675E-03,   2.37862E-03,      -1.30326,0.0573767,0.0483192,-0.00142593
13433,17.0,6.0,0.0,   7.86058E-03,   2.44733E-03,      -1.32178,0.0571295,0.049142,-0.00136169
13434,16.0,6.0,0.0,   7.46817E-03,   2.51251E-03,      -1.33908,0.0568914,0.0499218,-0.00129445
13439,15.0,6.0,0.0,   7.06113E-03,   2.57406E-03,      -1.35519,0.0566633,0.0506575,-0.00122449
13442,14.0,6.0,0.0,   6.64096E-03,   2.63189E-03,      -1.37012,0.0564461,0.0513481,-0.0011521
13443,13.0,6.0,0.0,   6.20905E-03,   2.68592E-03,      -1.38392,0.0562406,0.0519928,-0.00107754
13448,12.0,6.0,0.0,   5.76670E-03,   2.73609E-03,      -1.39659,0.0560475,0.052591,-0.00100106
13449,11.0,6.0,0.0,   5.31508E-03,   2.78234E-03,      -1.40815,0.0558674,0.0531421,-0.000922883
13454,10.0,6.0,0.0,   4.85532E-03,   2.82465E-03,      -1.41865,0.0557009,0.0536457,-0.000843211
13457,9.0,6.0,0.0,   4.38841E-03,   2.86297E-03,      -1.42808,0.0555487,0.0541017,-0.00076224
13458,8.0,6.0,0.0,   3.91530E-03,   2.89730E-03,      -1.43646,0.0554112,0.0545098,-0.000680144
13463,7.0,6.0,0.0,   3.43685E-03,   2.92760E-03,      -1.44383,0.0552889,0.05487,-0.000597086
13464,6.0,6.0,0.0,   2.95387E-03,   2.95387E-03,      -1.45018,0.0551821,0.0551821,-0.000513214
13469,5.0,6.0,0.0,   2.46711E-03,   2.97611E-03,      -1.45553,0.0550911,0.0554461,-0.000428666
13472,4.0,6.0,0.0,   1.97728E-03,   2.99430E-03,      -1.45989,0.0550164,0.0556621,-0.00034357
13473,3.0,6.0,0.0,   1.48503E-03,   3.00846E-03,      -1.46328,0.054958,0.05583,-0.000258044
13478,2.0,6.0,0.0,   990.998E-06,   3.01857E-03,      -1.46569,0.0549161,0.05595,-0.000172202
13479,1.0,6.0,0.0,   495.791E-06,   3.02463E-03,      -1.46714,0.054891,0.0560219,-8.61528e-05
13484,0.0,6.0,0.0,   9.17202E-15,   3.02665E-03,      -1.46762,0.0548826,0.0560459,9.09495e-13
13487,-1.0,6.0,0.0,  -495.791E-06,   3.02463E-03,      -1.46714,0.054891,0.0560219,8.61528e-05
13488,-2.0,6.0,0.0,  -990.998E-06,   3.01857E-03,      -1.46569,0.0549161,0.05595,0.000172202
13493,-3.0,6.0,0.0,  -1.48503E-03,   3.00846E-03,      -1.46328,0.054958,0.05583,0.000258044
13494,-4.0,6.0,0.0,  -1.97728E-03,   2.99430E-03,      -1.45989,0.0550164,0.0556621,0.00034357
13499,-5.0,6.0,0.0,  -2.46711E-03,   2.97611E-03,      -1.45553,0.0550911,0.0554461,0.000428666
13502,-6.0,6.0,0.0,  -2.95387E-03,   2.95387E-03,      -1.45018,0.0551821,0.0551821,0.000513214
13503,-7.0,6.0,0.0,  -3.43685E-03,   2.92760E-03,      -1.44383,0.0552889,0.05487,0.000597086
13508,-8.0,6.0,0.0,  -3.91530E-03,   2.89730E-03,      -1.43646,0.0554112,0.0545098,0.000680144
13509,-9.0,6.0,0.0,  -4.38841E-03,   2.86297E-03,      -1.42808,0.0555487,0.0541017,0.00076224
13514,-10.0,6.0,0.0,  -4.85532E-03,   2.82465E-03,      -1.41865,0.0557009,0.0536457,0.000843211
13517,-11.0,6.0,0.0,  -5.31508E-03,   2.78234E-03,      -1.40815,0.0558674,0.0531421,0.000922883
13518,-12.0,6.0,0.0,  -5.76670E-03,   2.73609E-03,      -1.39659,0.0560475,0.052591,0.00100106
13523,-13.0,6.0,0.0,  -6.20905E-03,   2.68592E-03,      -1.38392,0.0562406,0.0519928,0.00107754
13524,-14.0,6.0,0.0,  -6.64096E-03,   2.63189E-03,      -1.37012,0.0564461,0.0513481,0.0011521
13529,-15.0,6.0,0.0,  -7.06113E-03,   2.57406E-03,      -1.35519,0.0566633,0.0506575,0.00122449
13532,-16.0,6.0,0.0,  -7.46817E-03,   2.51251E-03,      -1.33908,0.0568914,0.0499218,0.00129445
13533,-17.0,6.0,0.0,  -7.86058E-03,   2.44733E-03,      -1.32178,0.0571295,0.049142,0.00136169
13538,-18.0,6.0,0.0,  -8.23675E-03,   2.37862E-03,      -1.30326,0.0573767,0.0483192,0.00142593
13539,-19.0,6.0,0.0,  -8.59495E-03,   2.30652E-03,      -1.28350,0.0576322,0.047455,0.00148684
13544,-20.0,6.0,0.0,  -8.93332E-03,   2.23118E-03,      -1.26246,0.057895,0.046551,0.00154409
13547,-21.0,6.0,0.0,  -9.24989E-03,   2.15276E-03,      -1.24012,0.058164,0.0456091,0.00159735
13548,-22.0,6.0,0.0,  -9.54257E-03,   2.07145E-03,      -1.21645,0.0584382,0.0446316,0.00164625
13553,-23.0,6.0,0.0,  -9.80914E-03,   1.98747E-03,      -1.19143,0.0587166,0.0436209,0.00169044
13554,-24.0,6.0,0.0,  -10.0472E-03,   1.90106E-03,      -1.16502,0.0589979,0.0425798,0.00172956
13559,-25.0,6.0,0.0,  -10.2544E-03,   1.81248E-03,      -1.13721,0.0592811,0.0415115,0.00176324
13562,-26.0,6.0,0.0,  -10.4281E-03,   1.72201E-03,      -1.10796,0.059565,0.0404193,0.00179113
13563,-27.0,6.0,0.0,  -10.5656E-03,   1.62997E-03,      -1.07726,0.0598486,0.0393069,0.00181289
13568,-28.0,6.0,0.0,  -10.6640E-03,   1.53669E-03,      -1.04507,0.0601307,0.0381782,0.00182819
13569,-29.0,6.0,0.0,  -10.7205E-03,   1.44251E-03,      -1.01137,0.0604101,0.0370376,0.00183674
13574,-30.0,6.0,0.0,  -10.7320E-03,   1.34782E-03,  -976.137E-03,0.0606857,0.0358894,0.00183827
13577,-31.0,6.0,0.0,  -10.6955E-03,   1.25300E-03,  -939.356E-03,0.0609566,0.0347385,0.00183255
13578,-32.0,6.0,0.0,  -10.6078E-03,   1.15846E-03,  -901.004E-03,0.0612216,0.0335897,0.00181939
13583,-33.0,6.0,0.0,  -10.4655E-03,   1.06462E-03,  -861.061E-03,0.0614797,0.0324481,0.00179865
13584,-34.0,6.0,0.0,  -10.2653E-03,   971.914E-06,  -819.509E-03,0.06173,0.0313189,0.00177024
13589,-35.0,6.0,0.0,  -10.0039E-03,   880.771E-06,  -776.334E-03,0.0619716,0.0302075,0.00173413
13592,-36.0,6.0,0.0,  -9.67779E-03,   791.637E-06,  -731.520E-03,0.0622034,0.0291192,0.00169036
13593,-37.0,6.0,0.0,  -9.28344E-03,   704.954E-06,  -685.054E-03,0.0624247,0.0280593,0.00163902
13598,-38.0,6.0,0.0,  -8.81733E-03,   621.164E-06,  -636.923E-03,0.0626341,0.0270331,0.00158026
13599,-39.0,6.0,0.0,  -8.27590E-03,   540.699E-06,  -587.118E-03,0.06283,0.0260456,0.00151434
13604,-40.0,6.0,0.0,  -7.65557E-03,   463.988E-06,  -535.629E-03,0.0630085,0.025101,0.00144157
13607,-41.0,6.0,0.0,  -6.95283E-03,   391.444E-06,  -482.449E-03,0.0631605,0.0242017,0.00136244
13608,-42.0,6.0,0.0,  -6.16432E-03,   323.472E-06,  -427.577E-03,0.063262,0.0233455,0.00127761
13613,-43.0,6.0,0.0,  -5.28727E-03,   260.462E-06,  -371.021E-03,0.0632467,0.0225174,0.00118824
13614,-44.0,6.0,0.0,  -4.32050E-03,   202.805E-06,  -312.817E-03,0.0629325,0.0216669,0.0010962
13619,-45.0,6.0,0.0,  -3.26742E-03,   150.906E-06,  -253.075E-03,0.0618123,0.0206463,0.00100506
13622,-46.0,6.0,0.0,  -2.14450E-03,   105.234E-06,  -192.111E-03,0.0584741,0.0190359,0.000920353
13623,-47.0,6.0,0.0,  -1.00455E-03,   66.4148E-06,  -130.812E-03,0.048975,0.0156576,0.000849229
13628,-48.0,6.0,0.0,   3.17142E-06,   35.3554E-06,  -71.6578E-03,0.0222878,0.00721032,0.000786149
13629,-49.0,6.0,0.0,   512.462E-06,   13.1845E-06,  -21.5832E-03,-0.0524573,-0.0155497,0.000654232
13634,-50.0,6.0,0.0,   2.84721E-39,  -851.831E-42,           -0.,-0.107532,-0.0322629,0.000392294
13637,50.0,5.0,0.0,  -2.86219E-39,  -858.015E-42,           -0.,-0.107719,-0.0323188,-0.000327449
13638,49.0,5.0,0.0,  -514.658E-06,   11.0141E-06,  -21.6431E-03,-0.0524198,-0.0155378,-0.000544936
13643,48.0,5.0,0.0,  -2.85717E-06,   29.5033E-06,  -71.8373E-03,0.0225733,0.00729591,-0.000654255
13644,47.0,5.0,0.0,   1.00819E-03,   55.3812E-06,  -131.106E-03,0.0492732,0.0157449,-0.0007066
13649,46.0,5.0,0.0,   2.15120E-03,   87.7097E-06,  -192.512E-03,0.0587498,0.0191134,-0.00076575
13652,45.0,5.0,0.0,   3.27699E-03,   125.737E-06,  -253.580E-03,0.0620705,0.0207148,-0.000836196
13653,44.0,5.0,0.0,   4.33292E-03,   168.946E-06,  -313.428E-03,0.0631812,0.0217282,-0.000911957
13658,43.0,5.0,0.0,   5.30263E-03,   216.951E-06,  -371.743E-03,0.0634913,0.0225724,-0.000988455
13659,42.0,5.0,0.0,   6.18271E-03,   269.416E-06,  -428.415E-03,0.0635052,0.0233947,-0.00106274
13664,41.0,5.0,0.0,   6.97433E-03,   326.019E-06,  -483.409E-03,0.0634038,0.0242449,-0.00113325
13667,40.0,5.0,0.0,   7.68026E-03,   386.437E-06,  -536.716E-03,0.0632525,0.0251381,-0.00119906
13668,39.0,5.0,0.0,   8.30380E-03,   450.335E-06,  -588.337E-03,0.0630751,0.0260763,-0.0012596
13673,38.0,5.0,0.0,   8.84845E-03,   517.369E-06,  -638.280E-03,0.0628805,0.0270572,-0.00131448
13674,37.0,5.0,0.0,   9.31772E-03,   587.188E-06,  -686.552E-03,0.0626724,0.0280766,-0.00136344
13679,36.0,5.0,0.0,   9.71516E-03,   659.431E-06,  -733.163E-03,0.0624526,0.0291296,-0.00140626
13682,35.0,5.0,0.0,   10.0443E-03,   733.731E-06,  -778.126E-03,0.0622222,0.030211,-0.00144282
13683,34.0,5.0,0.0,   10.3085E-03,   809.724E-06,  -821.453E-03,0.0619822,0.0313156,-0.00147302
13688,33.0,5.0,0.0,   10.5113E-03,   887.040E-06,  -863.159E-03,0.0617334,0.0324379,-0.00149685
13689,32.0,5.0,0.0,   10.6561E-03,   965.317E-06,  -903.258E-03,0.0614767,0.0335729,-0.00151432
13694,31.0,5.0,0.0,   10.7461E-03,   1.04420E-03,  -941.768E-03,0.0612132,0.0347152,-0.0015255
13697,30.0,5.0,0.0,   10.7846E-03,   1.12333E-03,  -978.707E-03,0.0609437,0.03586,-0.00153051
13698,29.0,5.0,0.0,   10.7748E-03,   1.20238E-03,      -1.01409,0.0606694,0.0370022,-0.00152948
13703,28.0,5.0,0.0,   10.7198E-03,   1.28102E-03,      -1.04795,0.0603912,0.0381372,-0.00152262
13704,27.0,5.0,0.0,   10.6226E-03,   1.35893E-03,      -1.08030,0.0601103,0.0392605,-0.00151013
13709,26.0,5.0,0.0,   10.4860E-03,   1.43583E-03,      -1.11116,0.0598278,0.0403679,-0.00149227
13712,25.0,5.0,0.0,   10.3130E-03,   1.51143E-03,      -1.14056,0.0595448,0.0414555,-0.00146929
13713,24.0,5.0,0.0,   10.1061E-03,   1.58548E-03,      -1.16853,0.0592624,0.0425196,-0.00144148
13718,23.0,5.0,0.0,   9.86804E-03,   1.65773E-03,      -1.19508,0.0589818,0.0435568,-0.00140912
13719,22.0,5.0,0.0,   9.60120E-03,   1.72796E-03,      -1.22025,0.0587041,0.0445639,-0.00137252
13724,21.0,5.0,0.0,   9.30795E-03,   1.79598E-03,      -1.24405,0.0584303,0.0455382,-0.00133197
13727,20.0,5.0,0.0,   8.99053E-03,   1.86160E-03,      -1.26653,0.0581616,0.0464772,-0.00128777
13728,19.0,5.0,0.0,   8.65103E-03,   1.92466E-03,      -1.28770,0.0578991,0.0473787,-0.00124021
13733,18.0,5.0,0.0,   8.29145E-03,   1.98502E-03,      -1.30759,0.0576437,0.0482406,-0.00118958
13734,17.0,5.0,0.0,   7.91364E-03,   2.04255E-03,      -1.32623,0.0573965,0.0490613,-0.00113616
13739,16.0,5.0,0.0,   7.51935E-03,   2.09715E-03,      -1.34365,0.0571583,0.0498394,-0.0010802
13742,15.0,5.0,0.0,   7.11019E-03,   2.14871E-03,      -1.35986,0.0569301,0.0505735,-0.00102195
13743,14.0,5.0,0.0,   6.68770E-03,   2.19716E-03,      -1.37490,0.0567127,0.0512628,-0.000961653
13748,13.0,5.0,0.0,   6.25327E-03,   2.24244E-03,      -1.38879,0.0565069,0.0519063,-0.000899524
13749,12.0,5.0,0.0,   5.80821E-03,   2.28449E-03,      -1.40155,0.0563135,0.0525035,-0.000835766
13754,11.0,5.0,0.0,   5.35372E-03,   2.32327E-03,      -1.41320,0.0561331,0.0530537,-0.00077057
13757,10.0,5.0,0.0,   4.89093E-03,   2.35874E-03,      -1.42376,0.0559663,0.0535567,-0.000704109
13758,9.0,5.0,0.0,   4.42085E-03,   2.39088E-03,      -1.43326,0.0558137,0.0540121,-0.000636546
13763,8.0,5.0,0.0,   3.94444E-03,   2.41966E-03,      -1.44171,0.0556759,0.0544197,-0.000568029
13764,7.0,5.0,0.0,   3.46259E-03,   2.44508E-03,      -1.44913,0.0555532,0.0547794,-0.000498694
13769,6.0,5.0,0.0,   2.97611E-03,   2.46711E-03,      -1.45553,0.0554461,0.0550911,-0.000428666
13772,5.0,5.0,0.0,   2.48577E-03,   2.48577E-03,      -1.46092,0.0553549,0.0553549,-0.000358063
13773,4.0,5.0,0.0,   1.99228E-03,   2.50103E-03,      -1.46532,0.0552799,0.0555707,-0.000286993
13778,3.0,5.0,0.0,   1.49633E-03,   2.51291E-03,      -1.46873,0.0552213,0.0557384,-0.000215558
13779,2.0,5.0,0.0,   998.553E-06,   2.52139E-03,      -1.47116,0.0551793,0.0558583,-0.000143853
13784,1.0,5.0,0.0,   499.575E-06,   2.52648E-03,      -1.47262,0.0551541,0.0559302,-7.19703e-05
13787,0.0,5.0,0.0,   7.91688E-15,   2.52817E-03,      -1.47310,0.0551457,0.0559541,4.54747e-13
13788,-1.0,5.0,0.0,  -499.575E-06,   2.52648E-03,      -1.47262,0.0551541,0.0559302,7.19703e-05
13793,-2.0,5.0,0.0,  -998.553E-06,   2.52139E-03,      -1.47116,0.0551793,0.0558583,0.000143853
13794,-3.0,5.0,0.0,  -1.49633E-03,   2.51291E-03,      -1.46873,0.0552213,0.0557384,0.000215558
13799,-4.0,5.0,0.0,  -1.99228E-03,   2.50103E-03,      -1.46532,0.0552799,0.0555707,0.000286993
13802,-5.0,5.0,0.0,  -2.48577E-03,   2.48577E-03,      -1.46092,0.0553549,0.0553549,0.000358063
13803,-6.0,5.0,0.0,  -2.97611E-03,   2.46711E-03,      -1.45553,0.0554461,0.0550911,0.000428666
13808,-7.0,5.0,0.0,  -3.46259E-03,   2.44508E-03,      -1.44913,0.0555532,0.0547794,0.000498694
13809,-8.0,5.0,0.0,  -3.94444E-03,   2.41966E-03,      -1.44171,0.0556759,0.0544197,0.000568029
13814,-9.0,5.0,0.0,  -4.42085E-03,   2.39088E-03,      -1.43326,0.0558137,0.0540121,0.000636546
13817,-10.0,5.0,0.0,  -4.89093E-03,   2.35874E-03,      -1.42376,0.0559663,0.0535567,0.000704109
13818,-11.0,5.0,0.0,  -5.35372E-03,   2.32327E-03,      -1.41320,0.0561331,0.0530537,0.00077057
13823,-12.0,5.0,0.0,  -5.80821E-03,   2.28449E-03,      -1.40155,0.0563135,0.0525035,0.000835766
13824,-13.0,5.0,0.0,  -6.25327E-03,   2.24244E-03,      -1.38879,0.0565069,0.0519063,0.000899524
13829,-14.0,5.0,0.0,  -6.68770E-03,   2.19716E-03,      -1.37490,0.0567127,0.0512628,0.000961653
13832,-15.0,5.0,0.0,  -7.11019E-03,   2.14871E-03,      -1.35986,0.0569301,0.0505735,0.00102195
13833,-16.0,5.0,0.0,  -7.51935E-03,   2.09715E-03,      -1.34365,0.0571583,0.0498394,0.0010802
13838,-17.0,5.0,0.0,  -7.91364E-03,   2.04255E-03,      -1.32623,0.0573965,0.0490613,0.00113616
13839,-18.0,5.0,0.0,  -8.29145E-03,   1.98502E-03,      -1.30759,0.0576437,0.0482406,0.00118958
13844,-19.0,5.0,0.0,  -8.65103E-03,   1.92466E-03,      -1.28770,0.0578991,0.0473787,0.00124021
13847,-20.0,5.0,0.0,  -8.99053E-03,   1.86160E-03,      -1.26653,0.0581616,0.0464772,0.00128777
13848,-21.0,5.0,0.0,  -9.30795E-03,   1.79598E-03,      -1.24405,0.0584303,0.0455382,0.00133197
13853,-22.0,5.0,0.0,  -9.60120E-03,   1.72796E-03,      -1.22025,0.0587041,0.0445639,0.00137252
13854,-23.0,5.0,0.0,  -9.86804E-03,   1.65773E-03,      -1.19508,0.0589818,0.0435568,0.00140912
13859,-24.0,5.0,0.0,  -10.1061E-03,   1.58548E-03,      -1.16853,0.0592624,0.0425196,0.00144148
13862,-25.0,5.0,0.0,  -10.3130E-03,   1.51143E-03,      -1.14056,0.0595448,0.0414555,0.00146929
13863,-26.0,5.0,0.0,  -10.4860E-03,   1.43583E-03,      -1.11116,0.0598278,0.0403679,0.00149227
13868,-27.0,5.0,0.0,  -10.6226E-03,   1.35893E-03,      -1.08030,0.0601103,0.0392605,0.00151013
13869,-28.0,5.0,0.0,  -10.7198E-03,   1.28102E-03,      -1.04795,0.0603912,0.0381372,0.00152262
13874,-29.0,5.0,0.0,  -10.7748E-03,   1.20238E-03,      -1.01409,0.0606694,0.0370022,0.00152948
13877,-30.0,5.0,0.0,  -10.7846E-03,   1.12333E-03,  -978.707E-03,0.0609437,0.03586,0.00153051
13878,-31.0,5.0,0.0,  -10.7461E-03,   1.04420E-03,  -941.768E-03,0.0612132,0.0347152,0.0015255
13883,-32.0,5.0,0.0,  -10.6561E-03,   965.317E-06,  -903.258E-03,0.0614767,0.0335729,0.00151432
13884,-33.0,5.0,0.0,  -10.5113E-03,   887.040E-06,  -863.159E-03,0.0617334,0.0324379,0.00149685
13889,-34.0,5.0,0.0,  -10.3085E-03,   809.724E-06,  -821.453E-03,0.0619822,0.0313156,0.00147302
13892,-35.0,5.0,0.0,  -10.0443E-03,   733.731E-06,  -778.126E-03,0.0622222,0.030211,0.00144282
13893,-36.0,5.0,0.0,  -9.71516E-03,   659.431E-06,  -733.163E-03,0.0624526,0.0291296,0.00140626
13898,-37.0,5.0,0.0,  -9.31772E-03,   587.188E-06,  -686.552E-03,0.0626724,0.0280766,0.00136344
13899,-38.0,5.0,0.0,  -8.84845E-03,   517.369E-06,  -638.280E-03,0.0628805,0.0270572,0.00131448
13904,-39.0,5.0,0.0,  -8.30380E-03,   450.335E-06,  -588.337E-03,0.0630751,0.0260763,0.0012596
13907,-40.0,5.0,0.0,  -7.68026E-03,   386.437E-06,  -536.716E-03,0.0632525,0.0251381,0.00119906
13908,-41.0,5.0,0.0,  -6.97433E-03,   326.019E-06,  -483.409E-03,0.0634038,0.0242449,0.00113325
13913,-42.0,5.0,0.0,  -6.18271E-03,   269.416E-06,  -428.415E-03,0.0635052,0.0233947,0.00106274
13914,-43.0,5.0,0.0,  -5.30263E-03,   216.951E-06,  -371.743E-03,0.0634913,0.0225724,0.000988455
13919,-44.0,5.0,0.0,  -4.33292E-03,   168.946E-06,  -313.428E-03,0.0631812,0.0217282,0.000911957
13922,-45.0,5.0,0.0,  -3.27699E-03,   125.737E-06,  -253.580E-03,0.0620705,0.0207148,0.000836196
13923,-46.0,5.0,0.0,  -2.15120E-03,   87.7097E-06,  -192.512E-03,0.0587498,0.0191134,0.00076575
13928,-47.0,5.0,0.0,  -1.00819E-03,   55.3812E-06,  -131.106E-03,0.0492732,0.0157449,0.0007066
13929,-48.0,5.0,0.0,   2.85717E-06,   29.5033E-06,  -71.8373E-03,0.0225733,0.00729591,0.000654255
13934,-49.0,5.0,0.0,   514.658E-06,   11.0141E-06,  -21.6431E-03,-0.0524198,-0.0155378,0.000544936
13937,-50.0,5.0,0.0,   2.86219E-39,  -858.015E-42,           -0.,-0.107719,-0.0323188,0.000327449
13938,50.0,4.0,0.0,  -2.87475E-39,  -863.480E-42,           -0.,-0.10787,-0.0323643,-0.000262308
13943,49.0,4.0,0.0,  -516.450E-06,   8.82890E-06,  -21.6920E-03,-0.0523886,-0.0155278,-0.000435778
13944,48.0,4.0,0.0,  -2.60046E-06,   23.6289E-06,  -71.9837E-03,0.0228068,0.00736589,-0.000522836
13949,47.0,4.0,0.0,   1.01115E-03,   44.3278E-06,  -131.346E-03,0.0495167,0.0158162,-0.000564568
13952,46.0,4.0,0.0,   2.15665E-03,   70.1767E-06,  -192.839E-03,0.058975,0.0191767,-0.00061181
13953,45.0,4.0,0.0,   3.28478E-03,   100.577E-06,  -253.992E-03,0.0622813,0.0207708,-0.000668072
13958,44.0,4.0,0.0,   4.34303E-03,   135.119E-06,  -313.926E-03,0.0633844,0.0217783,-0.00072856
13959,43.0,4.0,0.0,   5.31512E-03,   173.494E-06,  -372.331E-03,0.0636912,0.0226175,-0.000789626
13964,42.0,4.0,0.0,   6.19766E-03,   215.438E-06,  -429.098E-03,0.063704,0.023435,-0.000848923
13967,41.0,4.0,0.0,   6.99183E-03,   260.693E-06,  -484.191E-03,0.0636027,0.0242804,-0.000905224
13968,40.0,4.0,0.0,   7.70035E-03,   309.003E-06,  -537.601E-03,0.0634519,0.0251685,-0.000957778
13973,39.0,4.0,0.0,   8.32651E-03,   360.103E-06,  -589.330E-03,0.0632753,0.0261015,-0.00100615
13974,38.0,4.0,0.0,   8.87376E-03,   413.718E-06,  -639.384E-03,0.0630818,0.027077,-0.00105002
13979,37.0,4.0,0.0,   9.34562E-03,   469.567E-06,  -687.771E-03,0.0628748,0.0280909,-0.00108918
13982,36.0,4.0,0.0,   9.74557E-03,   527.365E-06,  -734.501E-03,0.0626562,0.0291383,-0.00112346
13983,35.0,4.0,0.0,   10.0771E-03,   586.819E-06,  -779.585E-03,0.062427,0.0302141,-0.00115276
13988,34.0,4.0,0.0,   10.3437E-03,   647.637E-06,  -823.035E-03,0.0621882,0.031313,-0.001177
13989,33.0,4.0,0.0,   10.5487E-03,   709.527E-06,  -864.866E-03,0.0619406,0.0324299,-0.00119616
13994,32.0,4.0,0.0,   10.6954E-03,   772.198E-06,  -905.093E-03,0.0616851,0.0335594,-0.00121025
13997,31.0,4.0,0.0,   10.7873E-03,   835.364E-06,  -943.731E-03,0.0614227,0.0346965,-0.00121933
13998,30.0,4.0,0.0,   10.8275E-03,   898.747E-06,  -980.799E-03,0.0611544,0.0358361,-0.00122349
14003,29.0,4.0,0.0,   10.8191E-03,   962.074E-06,      -1.01632,0.0608812,0.0369734,-0.00122283
14004,28.0,4.0,0.0,   10.7653E-03,   1.02509E-03,      -1.05030,0.060604,0.0381038,-0.00121751
14009,27.0,4.0,0.0,   10.6691E-03,   1.08753E-03,      -1.08278,0.0603241,0.0392227,-0.00120769
14012,26.0,4.0,0.0,   10.5333E-03,   1.14918E-03,      -1.11377,0.0600424,0.0403261,-0.00119357
14013,25.0,4.0,0.0,   10.3608E-03,   1.20979E-03,      -1.14329,0.0597602,0.0414099,-0.00117536
14018,24.0,4.0,0.0,   10.1542E-03,   1.26918E-03,      -1.17138,0.0594785,0.0424704,-0.00115327
14019,23.0,4.0,0.0,   9.91610E-03,   1.32713E-03,      -1.19805,0.0591985,0.0435044,-0.00112754
14024,22.0,4.0,0.0,   9.64905E-03,   1.38349E-03,      -1.22334,0.0589212,0.0445086,-0.0010984
14027,21.0,4.0,0.0,   9.35535E-03,   1.43807E-03,      -1.24726,0.0586479,0.0454802,-0.0010661
14028,20.0,4.0,0.0,   9.03725E-03,   1.49074E-03,      -1.26985,0.0583795,0.0464168,-0.00103085
14033,19.0,4.0,0.0,   8.69684E-03,   1.54137E-03,      -1.29112,0.0581172,0.0473161,-0.000992912
14034,18.0,4.0,0.0,   8.33614E-03,   1.58984E-03,      -1.31112,0.0578619,0.0481761,-0.000952496
14039,17.0,4.0,0.0,   7.95699E-03,   1.63604E-03,      -1.32986,0.0576147,0.0489952,-0.000909825
14042,16.0,4.0,0.0,   7.56117E-03,   1.67990E-03,      -1.34736,0.0573765,0.0497717,-0.000865109
14043,15.0,4.0,0.0,   7.15030E-03,   1.72132E-03,      -1.36367,0.0571482,0.0505046,-0.000818548
14048,14.0,4.0,0.0,   6.72591E-03,   1.76026E-03,      -1.37879,0.0569307,0.0511928,-0.000770328
14049,13.0,4.0,0.0,   6.28943E-03,   1.79664E-03,      -1.39276,0.0567247,0.0518353,-0.000720626
14054,12.0,4.0,0.0,   5.84216E-03,   1.83044E-03,      -1.40559,0.056531,0.0524316,-0.000669606
14057,11.0,4.0,0.0,   5.38533E-03,   1.86161E-03,      -1.41731,0.0563504,0.0529812,-0.00061742
14058,10.0,4.0,0.0,   4.92005E-03,   1.89013E-03,      -1.42794,0.0561833,0.0534835,-0.000564209
14063,9.0,4.0,0.0,   4.44738E-03,   1.91597E-03,      -1.43749,0.0560305,0.0539384,-0.000510104
14064,8.0,4.0,0.0,   3.96828E-03,   1.93911E-03,      -1.44599,0.0558924,0.0543455,-0.000455223
14069,7.0,4.0,0.0,   3.48364E-03,   1.95955E-03,      -1.45346,0.0557694,0.0547049,-0.000399678
14072,6.0,4.0,0.0,   2.99430E-03,   1.97728E-03,      -1.45989,0.0556621,0.0550164,-0.00034357
14073,5.0,4.0,0.0,   2.50103E-03,   1.99228E-03,      -1.46532,0.0555707,0.0552799,-0.000286993
14078,4.0,4.0,0.0,   2.00456E-03,   2.00456E-03,      -1.46974,0.0554955,0.0554955,-0.000230037
14079,3.0,4.0,0.0,   1.50558E-03,   2.01411E-03,      -1.47318,0.0554367,0.0556631,-0.000172782
14084,2.0,4.0,0.0,   1.00474E-03,   2.02094E-03,      -1.47562,0.0553946,0.0557828,-0.000115308
14087,1.0,4.0,0.0,   502.673E-06,   2.02503E-03,      -1.47709,0.0553693,0.0558547,-5.769e-05
14088,0.0,4.0,0.0,   8.26786E-15,   2.02639E-03,      -1.47758,0.0553609,0.0558786,4.54747e-13
14093,-1.0,4.0,0.0,  -502.673E-06,   2.02503E-03,      -1.47709,0.0553693,0.0558547,5.769e-05
14094,-2.0,4.0,0.0,  -1.00474E-03,   2.02094E-03,      -1.47562,0.0553946,0.0557828,0.000115308
14099,-3.0,4.0,0.0,  -1.50558E-03,   2.01411E-03,      -1.47318,0.0554367,0.0556631,0.000172782
14102,-4.0,4.0,0.0,  -2.00456E-03,   2.00456E-03,      -1.46974,0.0554955,0.0554955,0.000230037
14103,-5.0,4.0,0.0,  -2.50103E-03,   1.99228E-03,      -1.46532,0.0555707,0.0552799,0.000286993
14108,-6.0,4.0,0.0,  -2.99430E-03,   1.97728E-03,      -1.45989,0.0556621,0.0550164,0.00034357
14109,-7.0,4.0,0.0,  -3.48364E-03,   1.95955E-03,      -1.45346,0.0557694,0.0547049,0.000399678
14114,-8.0,4.0,0.0,  -3.96828E-03,   1.93911E-03,      -1.44599,0.0558924,0.0543455,0.000455223
14117,-9.0,4.0,0.0,  -4.44738E-03,   1.91597E-03,      -1.43749,0.0560305,0.0539384,0.000510104
14118,-10.0,4.0,0.0,  -4.92005E-03,   1.89013E-03,      -1.42794,0.0561833,0.0534835,0.000564209
14123,-11.0,4.0,0.0,  -5.38533E-03,   1.86161E-03,      -1.41731,0.0563504,0.0529812,0.00061742
14124,-12.0,4.0,0.0,  -5.84216E-03,   1.83044E-03,      -1.40559,0.056531,0.0524316,0.000669606
14129,-13.0,4.0,0.0,  -6.28943E-03,   1.79664E-03,      -1.39276,0.0567247,0.0518353,0.000720626
14132,-14.0,4.0,0.0,  -6.72591E-03,   1.76026E-03,      -1.37879,0.0569307,0.0511928,0.000770328
14133,-15.0,4.0,0.0,  -7.15030E-03,   1.72132E-03,      -1.36367,0.0571482,0.0505046,0.000818548
14138,-16.0,4.0,0.0,  -7.56117E-03,   1.67990E-03,      -1.34736,0.0573765,0.0497717,0.000865109
14139,-17.0,4.0,0.0,  -7.95699E-03,   1.63604E-03,      -1.32986,0.0576147,0.0489952,0.000909825
14144,-18.0,4.0,0.0,  -8.33614E-03,   1.58984E-03,      -1.31112,0.0578619,0.0481761,0.000952496
14147,-19.0,4.0,0.0,  -8.69684E-03,   1.54137E-03,      -1.29112,0.0581172,0.0473161,0.000992912
14148,-20.0,4.0,0.0,  -9.03725E-03,   1.49074E-03,      -1.26985,0.0583795,0.0464168,0.00103085
14153,-21.0,4.0,0.0,  -9.35535E-03,   1.43807E-03,      -1.24726,0.0586479,0.0454802,0.0010661
14154,-22.0,4.0,0.0,  -9.64905E-03,   1.38349E-03,      -1.22334,0.0589212,0.0445086,0.0010984
14159,-23.0,4.0,0.0,  -9.91610E-03,   1.32713E-03,      -1.19805,0.0591985,0.0435044,0.00112754
14162,-24.0,4.0,0.0,  -10.1542E-03,   1.26918E-03,      -1.17138,0.0594785,0.0424704,0.00115327
14163,-25.0,4.0,0.0,  -10.3608E-03,   1.20979E-03,      -1.14329,0.0597602,0.0414099,0.00117536
14168,-26.0,4.0,0.0,  -10.5333E-03,   1.14918E-03,      -1.11377,0.0600424,0.0403261,0.00119357
14169,-27.0,4.0,0.0,  -10.6691E-03,   1.08753E-03,      -1.08278,0.0603241,0.0392227,0.00120769
14174,-28.0,4.0,0.0,  -10.7653E-03,   1.02509E-03,      -1.05030,0.060604,0.0381038,0.00121751
14177,-29.0,4.0,0.0,  -10.8191E-03,   962.074E-06,      -1.01632,0.0608812,0.0369734,0.00122283
14178,-30.0,4.0,0.0,  -10.8275E-03,   898.747E-06,  -980.799E-03,0.0611544,0.0358361,0.00122349
14183,-31.0,4.0,0.0,  -10.7873E-03,   835.364E-06,  -943.731E-03,0.0614227,0.0346965,0.00121933
14184,-32.0,4.0,0.0,  -10.6954E-03,   772.198E-06,  -905.093E-03,0.0616851,0.0335594,0.00121025
14189,-33.0,4.0,0.0,  -10.5487E-03,   709.527E-06,  -864.866E-03,0.0619406,0.0324299,0.00119616
14192,-34.0,4.0,0.0,  -10.3437E-03,   647.637E-06,  -823.035E-03,0.0621881,0.031313,0.001177
14193,-35.0,4.0,0.0,  -10.0771E-03,   586.819E-06,  -779.585E-03,0.062427,0.0302141,0.00115276
14198,-36.0,4.0,0.0,  -9.74557E-03,   527.365E-06,  -734.501E-03,0.0626561,0.0291383,0.00112346
14199,-37.0,4.0,0.0,  -9.34562E-03,   469.567E-06,  -687.771E-03,0.0628748,0.0280909,0.00108918
14204,-38.0,4.0,0.0,  -8.87376E-03,   413.718E-06,  -639.384E-03,0.0630818,0.027077,0.00105002
14207,-39.0,4.0,0.0,  -8.32651E-03,   360.103E-06,  -589.330E-03,0.0632753,0.0261015,0.00100615
14208,-40.0,4.0,0.0,  -7.70035E-03,   309.003E-06,  -537.601E-03,0.0634519,0.0251685,0.000957778
14213,-41.0,4.0,0.0,  -6.99183E-03,   260.693E-06,  -484.191E-03,0.0636027,0.0242804,0.000905224
14214,-42.0,4.0,0.0,  -6.19766E-03,   215.438E-06,  -429.098E-03,0.063704,0.023435,0.000848923
14219,-43.0,4.0,0.0,  -5.31512E-03,   173.494E-06,  -372.331E-03,0.0636912,0.0226175,0.000789626
14222,-44.0,4.0,0.0,  -4.34303E-03,   135.119E-06,  -313.926E-03,0.0633844,0.0217783,0.00072856
14223,-45.0,4.0,0.0,  -3.28478E-03,   100.577E-06,  -253.992E-03,0.0622813,0.0207708,0.000668072
14228,-46.0,4.0,0.0,  -2.15665E-03,   70.1767E-06,  -192.839E-03,0.058975,0.0191767,0.00061181
14229,-47.0,4.0,0.0,  -1.01115E-03,   44.3278E-06,  -131.346E-03,0.0495167,0.0158162,0.000564568
14234,-48.0,4.0,0.0,   2.60046E-06,   23.6289E-06,  -71.9837E-03,0.0228068,0.00736589,0.000522836
14237,-49.0,4.0,0.0,   516.450E-06,   8.82890E-06,  -21.6920E-03,-0.0523886,-0.0155278,0.000435779
14238,-50.0,4.0,0.0,   2.87475E-39,  -863.480E-42,           -0.,-0.10787,-0.0323643,0.000262308
14243,50.0,3.0,0.0,  -2.88489E-39,  -868.222E-42,           -0.,-0.107988,-0.0323996,-0.000196934
14244,49.0,3.0,0.0,  -517.842E-06,   6.63189E-06,  -21.7299E-03,-0.0523641,-0.01552,-0.000326734
14249,48.0,3.0,0.0,  -2.40110E-06,   17.7368E-06,  -72.0972E-03,0.0229884,0.0074203,-0.000391795
14252,47.0,3.0,0.0,   1.01344E-03,   33.2590E-06,  -131.532E-03,0.049706,0.0158716,-0.000423012
14253,46.0,3.0,0.0,   2.16087E-03,   52.6375E-06,  -193.092E-03,0.0591499,0.0192259,-0.000458399
14258,45.0,3.0,0.0,   3.29081E-03,   75.4251E-06,  -254.311E-03,0.0624452,0.0208142,-0.00050054
14259,44.0,3.0,0.0,   4.35085E-03,   101.316E-06,  -314.312E-03,0.0635423,0.0218172,-0.000545836
14264,43.0,3.0,0.0,   5.32479E-03,   130.081E-06,  -372.787E-03,0.0638465,0.0226525,-0.000591559
14267,42.0,3.0,0.0,   6.20924E-03,   161.522E-06,  -429.627E-03,0.0638585,0.0234663,-0.000635958
14268,41.0,3.0,0.0,   7.00537E-03,   195.448E-06,  -484.796E-03,0.0637572,0.0243079,-0.000678118
14273,40.0,3.0,0.0,   7.71590E-03,   231.667E-06,  -538.286E-03,0.0636069,0.0251922,-0.000717481
14274,39.0,3.0,0.0,   8.34409E-03,   269.980E-06,  -590.098E-03,0.063431,0.0261212,-0.000753722
14279,38.0,3.0,0.0,   8.89337E-03,   310.183E-06,  -640.239E-03,0.0632382,0.0270925,-0.000786605
14282,37.0,3.0,0.0,   9.36722E-03,   352.067E-06,  -688.715E-03,0.063032,0.0281022,-0.00081597
14283,36.0,3.0,0.0,   9.76913E-03,   395.417E-06,  -735.537E-03,0.0628143,0.0291452,-0.000841694
14288,35.0,3.0,0.0,   10.1026E-03,   440.015E-06,  -780.714E-03,0.062586,0.0302166,-0.000863693
14289,34.0,3.0,0.0,   10.3709E-03,   485.642E-06,  -824.261E-03,0.0623481,0.0313112,-0.000881916
14294,33.0,3.0,0.0,   10.5776E-03,   532.080E-06,  -866.189E-03,0.0621015,0.0324237,-0.000896343
14297,32.0,3.0,0.0,   10.7259E-03,   579.111E-06,  -906.514E-03,0.061847,0.033549,-0.000906982
14298,31.0,3.0,0.0,   10.8192E-03,   626.521E-06,  -945.251E-03,0.0615855,0.034682,-0.000913871
14303,30.0,3.0,0.0,   10.8607E-03,   674.101E-06,  -982.419E-03,0.0613181,0.0358176,-0.000917073
14304,29.0,3.0,0.0,   10.8535E-03,   721.648E-06,      -1.01804,0.0610456,0.0369512,-0.000916673
14309,28.0,3.0,0.0,   10.8006E-03,   768.965E-06,      -1.05212,0.0607693,0.0380779,-0.000912778
14312,27.0,3.0,0.0,   10.7051E-03,   815.865E-06,      -1.08470,0.0604901,0.0391935,-0.000905516
14313,26.0,3.0,0.0,   10.5699E-03,   862.170E-06,      -1.11578,0.0602091,0.0402936,-0.000895027
14318,25.0,3.0,0.0,   10.3978E-03,   907.713E-06,      -1.14541,0.0599275,0.0413744,-0.000881466
14319,24.0,3.0,0.0,   10.1914E-03,   952.336E-06,      -1.17359,0.0596463,0.0424322,-0.000864996
14324,23.0,3.0,0.0,   9.95341E-03,   995.894E-06,      -1.20036,0.0593667,0.0434636,-0.000845789
14327,22.0,3.0,0.0,   9.68619E-03,   1.03825E-03,      -1.22573,0.0590899,0.0444655,-0.00082402
14328,21.0,3.0,0.0,   9.39215E-03,   1.07929E-03,      -1.24974,0.0588168,0.0454351,-0.000799866
14333,20.0,3.0,0.0,   9.07352E-03,   1.11890E-03,      -1.27242,0.0585487,0.0463698,-0.000773503
14334,19.0,3.0,0.0,   8.73242E-03,   1.15697E-03,      -1.29378,0.0582866,0.0472674,-0.000745106
14339,18.0,3.0,0.0,   8.37085E-03,   1.19342E-03,      -1.31385,0.0580314,0.048126,-0.000714845
14340,17.0,3.0,0.0,   7.99067E-03,   1.22818E-03,      -1.33267,0.0577843,0.0489437,-0.000682882
14345,16.0,3.0,0.0,   7.59367E-03,   1.26117E-03,      -1.35025,0.057546,0.0497191,-0.000649376
14346,15.0,3.0,0.0,   7.18147E-03,   1.29235E-03,      -1.36662,0.0573177,0.0504509,-0.000614476
14351,14.0,3.0,0.0,   6.75562E-03,   1.32164E-03,      -1.38181,0.0571001,0.0511382,-0.000578322
14354,13.0,3.0,0.0,   6.31754E-03,   1.34903E-03,      -1.39583,0.056894,0.0517799,-0.000541047
14355,12.0,3.0,0.0,   5.86855E-03,   1.37447E-03,      -1.40872,0.0567001,0.0523756,-0.000502775
14360,11.0,3.0,0.0,   5.40990E-03,   1.39794E-03,      -1.42050,0.0565193,0.0529245,-0.000463619
14361,10.0,3.0,0.0,   4.94270E-03,   1.41941E-03,      -1.43117,0.0563521,0.0534264,-0.000423687
14366,9.0,3.0,0.0,   4.46802E-03,   1.43886E-03,      -1.44077,0.056199,0.0538808,-0.000383077
14369,8.0,3.0,0.0,   3.98682E-03,   1.45629E-03,      -1.44931,0.0560607,0.0542877,-0.000341878
14370,7.0,3.0,0.0,   3.50002E-03,   1.47168E-03,      -1.45681,0.0559376,0.0546467,-0.000300175
14375,6.0,3.0,0.0,   3.00846E-03,   1.48503E-03,      -1.46328,0.05583,0.054958,-0.000258044
14376,5.0,3.0,0.0,   2.51291E-03,   1.49633E-03,      -1.46873,0.0557384,0.0552213,-0.000215558
14381,4.0,3.0,0.0,   2.01411E-03,   1.50558E-03,      -1.47318,0.0556631,0.0554367,-0.000172782
14384,3.0,3.0,0.0,   1.51277E-03,   1.51277E-03,      -1.47662,0.0556043,0.0556043,-0.00012978
14385,2.0,3.0,0.0,   1.00955E-03,   1.51791E-03,      -1.47908,0.0555621,0.0557239,-8.66118e-05
14390,1.0,3.0,0.0,   505.082E-06,   1.52099E-03,      -1.48056,0.0555367,0.0557957,-4.33332e-05
14391,0.0,3.0,0.0,   7.16040E-15,   1.52202E-03,      -1.48105,0.0555283,0.0558196,1.36424e-12
14396,-1.0,3.0,0.0,  -505.082E-06,   1.52099E-03,      -1.48056,0.0555367,0.0557957,4.33332e-05
14399,-2.0,3.0,0.0,  -1.00955E-03,   1.51791E-03,      -1.47908,0.0555621,0.0557239,8.66118e-05
14400,-3.0,3.0,0.0,  -1.51277E-03,   1.51277E-03,      -1.47662,0.0556043,0.0556043,0.00012978
14405,-4.0,3.0,0.0,  -2.01411E-03,   1.50558E-03,      -1.47318,0.0556631,0.0554367,0.000172782
14406,-5.0,3.0,0.0,  -2.51291E-03,   1.49633E-03,      -1.46873,0.0557384,0.0552213,0.000215558
14411,-6.0,3.0,0.0,  -3.00846E-03,   1.48503E-03,      -1.46328,0.05583,0.054958,0.000258044
14414,-7.0,3.0,0.0,  -3.50002E-03,   1.47168E-03,      -1.45681,0.0559376,0.0546467,0.000300175
14415,-8.0,3.0,0.0,  -3.98682E-03,   1.45629E-03,      -1.44931,0.0560607,0.0542877,0.000341878
14420,-9.0,3.0,0.0,  -4.46802E-03,   1.43886E-03,      -1.44077,0.056199,0.0538808,0.000383077
14421,-10.0,3.0,0.0,  -4.94270E-03,   1.41941E-03,      -1.43117,0.0563521,0.0534264,0.000423687
14426,-11.0,3.0,0.0,  -5.40990E-03,   1.39794E-03,      -1.42050,0.0565193,0.0529245,0.000463619
14429,-12.0,3.0,0.0,  -5.86855E-03,   1.37447E-03,      -1.40872,0.0567002,0.0523756,0.000502775
14430,-13.0,3.0,0.0,  -6.31754E-03,   1.34903E-03,      -1.39583,0.056894,0.0517799,0.000541047
14435,-14.0,3.0,0.0,  -6.75562E-03,   1.32164E-03,      -1.38181,0.0571001,0.0511382,0.000578322
14436,-15.0,3.0,0.0,  -7.18147E-03,   1.29235E-03,      -1.36662,0.0573177,0.0504509,0.000614476
14441,-16.0,3.0,0.0,  -7.59367E-03,   1.26117E-03,      -1.35025,0.057546,0.0497191,0.000649376
14444,-17.0,3.0,0.0,  -7.99067E-03,   1.22818E-03,      -1.33267,0.0577843,0.0489437,0.000682882
14445,-18.0,3.0,0.0,  -8.37085E-03,   1.19342E-03,      -1.31385,0.0580314,0.048126,0.000714845
14450,-19.0,3.0,0.0,  -8.73242E-03,   1.15697E-03,      -1.29378,0.0582866,0.0472674,0.000745106
14451,-20.0,3.0,0.0,  -9.07352E-03,   1.11890E-03,      -1.27242,0.0585487,0.0463698,0.000773503
14456,-21.0,3.0,0.0,  -9.39215E-03,   1.07929E-03,      -1.24974,0.0588168,0.0454351,0.000799866
14459,-22.0,3.0,0.0,  -9.68619E-03,   1.03825E-03,      -1.22573,0.0590899,0.0444655,0.00082402
14460,-23.0,3.0,0.0,  -9.95341E-03,   995.894E-06,      -1.20036,0.0593667,0.0434636,0.000845789
14465,-24.0,3.0,0.0,  -10.1914E-03,   952.336E-06,      -1.17359,0.0596463,0.0424322,0.000864996
14466,-25.0,3.0,0.0,  -10.3978E-03,   907.713E-06,      -1.14541,0.0599275,0.0413744,0.000881466
14471,-26.0,3.0,0.0,  -10.5699E-03,   862.170E-06,      -1.11578,0.0602091,0.0402936,0.000895027
14474,-27.0,3.0,0.0,  -10.7051E-03,   815.865E-06,      -1.08470,0.0604901,0.0391935,0.000905516
14475,-28.0,3.0,0.0,  -10.8006E-03,   768.965E-06,      -1.05212,0.0607693,0.0380779,0.000912778
14480,-29.0,3.0,0.0,  -10.8535E-03,   721.648E-06,      -1.01804,0.0610456,0.0369512,0.000916673
14481,-30.0,3.0,0.0,  -10.8607E-03,   674.101E-06,  -982.419E-03,0.0613181,0.0358176,0.000917073
14486,-31.0,3.0,0.0,  -10.8192E-03,   626.521E-06,  -945.251E-03,0.0615855,0.034682,0.000913871
14489,-32.0,3.0,0.0,  -10.7259E-03,   579.111E-06,  -906.514E-03,0.061847,0.033549,0.000906982
14490,-33.0,3.0,0.0,  -10.5776E-03,   532.080E-06,  -866.189E-03,0.0621015,0.0324237,0.000896343
14495,-34.0,3.0,0.0,  -10.3709E-03,   485.642E-06,  -824.261E-03,0.0623481,0.0313112,0.000881916
14496,-35.0,3.0,0.0,  -10.1026E-03,   440.015E-06,  -780.714E-03,0.062586,0.0302166,0.000863693
14501,-36.0,3.0,0.0,  -9.76913E-03,   395.417E-06,  -735.537E-03,0.0628143,0.0291452,0.000841694
14504,-37.0,3.0,0.0,  -9.36722E-03,   352.067E-06,  -688.715E-03,0.063032,0.0281022,0.00081597
14505,-38.0,3.0,0.0,  -8.89337E-03,   310.183E-06,  -640.239E-03,0.0632382,0.0270925,0.000786605
14510,-39.0,3.0,0.0,  -8.34409E-03,   269.980E-06,  -590.098E-03,0.063431,0.0261212,0.000753722
14511,-40.0,3.0,0.0,  -7.71590E-03,   231.667E-06,  -538.286E-03,0.0636069,0.0251922,0.000717481
14516,-41.0,3.0,0.0,  -7.00537E-03,   195.448E-06,  -484.796E-03,0.0637572,0.0243079,0.000678118
14519,-42.0,3.0,0.0,  -6.20924E-03,   161.522E-06,  -429.627E-03,0.0638585,0.0234663,0.000635958
14520,-43.0,3.0,0.0,  -5.32479E-03,   130.081E-06,  -372.787E-03,0.0638465,0.0226525,0.000591559
14525,-44.0,3.0,0.0,  -4.35085E-03,   101.316E-06,  -314.312E-03,0.0635423,0.0218172,0.000545836
14526,-45.0,3.0,0.0,  -3.29081E-03,   75.4251E-06,  -254.311E-03,0.0624452,0.0208142,0.00050054
14531,-46.0,3.0,0.0,  -2.16087E-03,   52.6375E-06,  -193.092E-03,0.0591499,0.0192259,0.000458399
14534,-47.0,3.0,0.0,  -1.01344E-03,   33.2590E-06,  -131.532E-03,0.049706,0.0158716,0.000423012
14535,-48.0,3.0,0.0,   2.40110E-06,   17.7368E-06,  -72.0972E-03,0.0229884,0.0074203,0.000391795
14540,-49.0,3.0,0.0,   517.842E-06,   6.63189E-06,  -21.7299E-03,-0.0523641,-0.01552,0.000326734
14541,-50.0,3.0,0.0,   2.88489E-39,  -868.222E-42,           -0.,-0.107988,-0.0323996,0.000196934
14546,50.0,2.0,0.0,  -2.89262E-39,  -872.238E-42,           -0.,-0.108071,-0.0324246,-0.000131385
14549,49.0,2.0,0.0,  -518.834E-06,   4.42611E-06,  -21.7570E-03,-0.0523464,-0.0155144,-0.000217774
14550,48.0,2.0,0.0,  -2.25889E-06,   11.8318E-06,  -72.1781E-03,0.023118,0.00745914,-0.000261039
14555,47.0,2.0,0.0,   1.01507E-03,   22.1789E-06,  -131.664E-03,0.049841,0.0159111,-0.000281811
14556,46.0,2.0,0.0,   2.16388E-03,   35.0939E-06,  -193.272E-03,0.0592747,0.019261,-0.000305381
14561,45.0,2.0,0.0,   3.29510E-03,   50.2797E-06,  -254.538E-03,0.0625621,0.0208453,-0.000333449
14564,44.0,2.0,0.0,   4.35642E-03,   67.5331E-06,  -314.587E-03,0.063655,0.021845,-0.000363614
14565,43.0,2.0,0.0,   5.33167E-03,   86.7020E-06,  -373.112E-03,0.0639574,0.0226775,-0.000394059
14570,42.0,2.0,0.0,   6.21748E-03,   107.655E-06,  -430.003E-03,0.0639687,0.0234887,-0.000423623
14571,41.0,2.0,0.0,   7.01501E-03,   130.264E-06,  -485.227E-03,0.0638674,0.0243277,-0.000451699
14576,40.0,2.0,0.0,   7.72697E-03,   154.403E-06,  -538.774E-03,0.0637175,0.0252091,-0.000477916
14579,39.0,2.0,0.0,   8.35660E-03,   179.940E-06,  -590.646E-03,0.063542,0.0261353,-0.000502059
14580,38.0,2.0,0.0,   8.90732E-03,   206.738E-06,  -640.848E-03,0.0633498,0.0271037,-0.000523971
14585,37.0,2.0,0.0,   9.38260E-03,   234.659E-06,  -689.387E-03,0.0631442,0.0281102,-0.000543546
14586,36.0,2.0,0.0,   9.78590E-03,   263.559E-06,  -736.274E-03,0.0629271,0.0291502,-0.0005607
14591,35.0,2.0,0.0,   10.1207E-03,   293.295E-06,  -781.519E-03,0.0626995,0.0302185,-0.000575379
14594,34.0,2.0,0.0,   10.3903E-03,   323.720E-06,  -825.133E-03,0.0624623,0.03131,-0.000587548
14595,33.0,2.0,0.0,   10.5982E-03,   354.688E-06,  -867.131E-03,0.0622163,0.0324194,-0.000597192
14600,32.0,2.0,0.0,   10.7477E-03,   386.055E-06,  -907.525E-03,0.0619624,0.0335417,-0.000604317
14601,31.0,2.0,0.0,   10.8420E-03,   417.678E-06,  -946.334E-03,0.0617016,0.0346717,-0.000608947
14606,30.0,2.0,0.0,   10.8843E-03,   449.418E-06,  -983.573E-03,0.0614348,0.0358045,-0.000611122
14609,29.0,2.0,0.0,   10.8779E-03,   481.140E-06,      -1.01926,0.061163,0.0369353,-0.000610899
14610,28.0,2.0,0.0,   10.8258E-03,   512.712E-06,      -1.05342,0.0608872,0.0380595,-0.000608349
14615,27.0,2.0,0.0,   10.7308E-03,   544.010E-06,      -1.08606,0.0606085,0.0391726,-0.000603555
14616,26.0,2.0,0.0,   10.5961E-03,   574.914E-06,      -1.11722,0.060328,0.0402705,-0.000596609
14621,25.0,2.0,0.0,   10.4242E-03,   605.313E-06,      -1.14691,0.0600468,0.0413492,-0.000587615
14624,24.0,2.0,0.0,   10.2180E-03,   635.102E-06,      -1.17516,0.059766,0.042405,-0.00057668
14625,23.0,2.0,0.0,   9.98001E-03,   664.183E-06,      -1.20200,0.0594868,0.0434346,-0.000563918
14630,22.0,2.0,0.0,   9.71268E-03,   692.467E-06,      -1.22744,0.0592102,0.0444348,-0.000549446
14631,21.0,2.0,0.0,   9.41840E-03,   719.872E-06,      -1.25151,0.0589374,0.0454029,-0.000533379
14636,20.0,2.0,0.0,   9.09940E-03,   746.323E-06,      -1.27425,0.0586695,0.0463362,-0.000515837
14639,19.0,2.0,0.0,   8.75781E-03,   771.755E-06,      -1.29567,0.0584075,0.0472326,-0.000496934
14640,18.0,2.0,0.0,   8.39561E-03,   796.107E-06,      -1.31580,0.0581524,0.0480901,-0.000476784
14645,17.0,2.0,0.0,   8.01471E-03,   819.328E-06,      -1.33467,0.0579053,0.0489068,-0.000455495
14646,16.0,2.0,0.0,   7.61686E-03,   841.372E-06,      -1.35230,0.0576671,0.0496814,-0.000433173
14651,15.0,2.0,0.0,   7.20371E-03,   862.201E-06,      -1.36872,0.0574387,0.0504125,-0.000409916
14654,14.0,2.0,0.0,   6.77682E-03,   881.781E-06,      -1.38396,0.057221,0.0510991,-0.000385819
14655,13.0,2.0,0.0,   6.33760E-03,   900.085E-06,      -1.39803,0.0570148,0.0517403,-0.00036097
14660,12.0,2.0,0.0,   5.88740E-03,   917.088E-06,      -1.41096,0.0568209,0.0523355,-0.000335451
14661,11.0,2.0,0.0,   5.42744E-03,   932.773E-06,      -1.42277,0.0566399,0.052884,-0.000309341
14666,10.0,2.0,0.0,   4.95887E-03,   947.125E-06,      -1.43348,0.0564725,0.0533855,-0.000282708
14669,9.0,2.0,0.0,   4.48276E-03,   960.131E-06,      -1.44311,0.0563194,0.0538396,-0.00025562
14670,8.0,2.0,0.0,   4.00007E-03,   971.783E-06,      -1.45168,0.0561809,0.0542462,-0.000228136
14675,7.0,2.0,0.0,   3.51172E-03,   982.074E-06,      -1.45920,0.0560576,0.0546051,-0.000200313
14676,6.0,2.0,0.0,   3.01857E-03,   990.998E-06,      -1.46569,0.05595,0.0549161,-0.000172202
14681,5.0,2.0,0.0,   2.52139E-03,   998.553E-06,      -1.47116,0.0558583,0.0551793,-0.000143853
14684,4.0,2.0,0.0,   2.02094E-03,   1.00474E-03,      -1.47562,0.0557828,0.0553946,-0.000115308
14685,3.0,2.0,0.0,   1.51791E-03,   1.00955E-03,      -1.47908,0.0557239,0.0555621,-8.66118e-05
14690,2.0,2.0,0.0,   1.01298E-03,   1.01298E-03,      -1.48155,0.0556817,0.0556817,-5.78028e-05
14691,1.0,2.0,0.0,   506.804E-06,   1.01505E-03,      -1.48303,0.0556563,0.0557534,-2.89198e-05
14696,0.0,2.0,0.0,   7.41280E-15,   1.01573E-03,      -1.48352,0.0556478,0.0557774,-2.27374e-13
14699,-1.0,2.0,0.0,  -506.804E-06,   1.01505E-03,      -1.48303,0.0556563,0.0557534,2.89198e-05
14700,-2.0,2.0,0.0,  -1.01298E-03,   1.01298E-03,      -1.48155,0.0556817,0.0556817,5.78028e-05
14705,-3.0,2.0,0.0,  -1.51791E-03,   1.00955E-03,      -1.47908,0.0557239,0.0555621,8.66118e-05
14706,-4.0,2.0,0.0,  -2.02094E-03,   1.00474E-03,      -1.47562,0.0557828,0.0553946,0.000115308
14711,-5.0,2.0,0.0,  -2.52139E-03,   998.553E-06,      -1.47116,0.0558583,0.0551793,0.000143853
14714,-6.0,2.0,0.0,  -3.01857E-03,   990.998E-06,      -1.46569,0.05595,0.0549161,0.000172202
14715,-7.0,2.0,0.0,  -3.51172E-03,   982.074E-06,      -1.45920,0.0560576,0.0546051,0.000200313
14720,-8.0,2.0,0.0,  -4.00007E-03,   971.783E-06,      -1.45168,0.0561809,0.0542462,0.000228136
14721,-9.0,2.0,0.0,  -4.48276E-03,   960.131E-06,      -1.44311,0.0563193,0.0538396,0.00025562
14726,-10.0,2.0,0.0,  -4.95887E-03,   947.125E-06,      -1.43348,0.0564725,0.0533855,0.000282708
14729,-11.0,2.0,0.0,  -5.42744E-03,   932.773E-06,      -1.42277,0.0566399,0.052884,0.000309341
14730,-12.0,2.0,0.0,  -5.88740E-03,   917.088E-06,      -1.41096,0.0568209,0.0523355,0.000335452
14735,-13.0,2.0,0.0,  -6.33760E-03,   900.085E-06,      -1.39803,0.0570148,0.0517403,0.00036097
14736,-14.0,2.0,0.0,  -6.77682E-03,   881.781E-06,      -1.38396,0.057221,0.0510991,0.000385819
14741,-15.0,2.0,0.0,  -7.20371E-03,   862.201E-06,      -1.36872,0.0574387,0.0504125,0.000409916
14744,-16.0,2.0,0.0,  -7.61686E-03,   841.372E-06,      -1.35230,0.0576671,0.0496814,0.000433173
14745,-17.0,2.0,0.0,  -8.01471E-03,   819.328E-06,      -1.33467,0.0579053,0.0489068,0.000455495
14750,-18.0,2.0,0.0,  -8.39561E-03,   796.107E-06,      -1.31580,0.0581524,0.0480901,0.000476784
14751,-19.0,2.0,0.0,  -8.75781E-03,   771.755E-06,      -1.29567,0.0584075,0.0472326,0.000496934
14756,-20.0,2.0,0.0,  -9.09940E-03,   746.323E-06,      -1.27425,0.0586695,0.0463363,0.000515837
14759,-21.0,2.0,0.0,  -9.41840E-03,   719.872E-06,      -1.25151,0.0589374,0.0454029,0.000533379
14760,-22.0,2.0,0.0,  -9.71268E-03,   692.467E-06,      -1.22744,0.0592102,0.0444348,0.000549446
14765,-23.0,2.0,0.0,  -9.98001E-03,   664.183E-06,      -1.20200,0.0594868,0.0434346,0.000563918
14766,-24.0,2.0,0.0,  -10.2180E-03,   635.102E-06,      -1.17516,0.059766,0.042405,0.00057668
14771,-25.0,2.0,0.0,  -10.4242E-03,   605.313E-06,      -1.14691,0.0600468,0.0413492,0.000587615
14774,-26.0,2.0,0.0,  -10.5961E-03,   574.914E-06,      -1.11722,0.060328,0.0402705,0.000596609
14775,-27.0,2.0,0.0,  -10.7308E-03,   544.010E-06,      -1.08606,0.0606085,0.0391726,0.000603555
14780,-28.0,2.0,0.0,  -10.8258E-03,   512.712E-06,      -1.05342,0.0608872,0.0380595,0.000608349
14781,-29.0,2.0,0.0,  -10.8779E-03,   481.140E-06,      -1.01926,0.061163,0.0369353,0.000610899
14786,-30.0,2.0,0.0,  -10.8843E-03,   449.418E-06,  -983.573E-03,0.0614348,0.0358045,0.000611122
14789,-31.0,2.0,0.0,  -10.8420E-03,   417.678E-06,  -946.334E-03,0.0617016,0.0346717,0.000608947
14790,-32.0,2.0,0.0,  -10.7477E-03,   386.055E-06,  -907.525E-03,0.0619624,0.0335417,0.000604317
14795,-33.0,2.0,0.0,  -10.5982E-03,   354.688E-06,  -867.131E-03,0.0622163,0.0324194,0.000597192
14796,-34.0,2.0,0.0,  -10.3903E-03,   323.720E-06,  -825.133E-03,0.0624623,0.03131,0.000587548
14801,-35.0,2.0,0.0,  -10.1207E-03,   293.295E-06,  -781.519E-03,0.0626995,0.0302185,0.000575379
14804,-36.0,2.0,0.0,  -9.78590E-03,   263.559E-06,  -736.274E-03,0.0629271,0.0291502,0.0005607
14805,-37.0,2.0,0.0,  -9.38260E-03,   234.659E-06,  -689.387E-03,0.0631442,0.0281102,0.000543545
14810,-38.0,2.0,0.0,  -8.90732E-03,   206.738E-06,  -640.848E-03,0.0633498,0.0271037,0.000523971
14811,-39.0,2.0,0.0,  -8.35660E-03,   179.940E-06,  -590.646E-03,0.063542,0.0261353,0.000502059
14816,-40.0,2.0,0.0,  -7.72697E-03,   154.403E-06,  -538.774E-03,0.0637175,0.0252091,0.000477916
14817,-41.0,2.0,0.0,  -7.01501E-03,   130.264E-06,  -485.227E-03,0.0638674,0.0243277,0.000451699
14822,-42.0,2.0,0.0,  -6.21748E-03,   107.655E-06,  -430.003E-03,0.0639687,0.0234887,0.000423623
14823,-43.0,2.0,0.0,  -5.33167E-03,   86.7020E-06,  -373.112E-03,0.0639574,0.0226775,0.000394059
14828,-44.0,2.0,0.0,  -4.35642E-03,   67.5331E-06,  -314.587E-03,0.063655,0.021845,0.000363614
14831,-45.0,2.0,0.0,  -3.29510E-03,   50.2797E-06,  -254.538E-03,0.0625621,0.0208453,0.000333449
14832,-46.0,2.0,0.0,  -2.16388E-03,   35.0939E-06,  -193.272E-03,0.0592747,0.019261,0.000305381
14837,-47.0,2.0,0.0,  -1.01507E-03,   22.1789E-06,  -131.664E-03,0.049841,0.0159111,0.000281811
14838,-48.0,2.0,0.0,   2.25889E-06,   11.8318E-06,  -72.1781E-03,0.023118,0.00745914,0.000261039
14843,-49.0,2.0,0.0,   518.834E-06,   4.42611E-06,  -21.7570E-03,-0.0523464,-0.0155144,0.000217774
14846,-50.0,2.0,0.0,   2.89262E-39,  -872.238E-42,           -0.,-0.108071,-0.0324246,0.000131385
14847,50.0,1.0,0.0,  -2.89794E-39,  -875.528E-42,           -0.,-0.108121,-0.0324396,-6.57213e-05
14852,49.0,1.0,0.0,  -519.430E-06,   2.21451E-06,  -21.7732E-03,-0.0523357,-0.015511,-0.000108873
14853,48.0,1.0,0.0,  -2.17365E-06,   5.91804E-06,  -72.2265E-03,0.0231958,0.00748244,-0.000130472
14858,47.0,1.0,0.0,   1.01605E-03,   11.0913E-06,  -131.744E-03,0.049922,0.0159348,-0.000140846
14861,46.0,1.0,0.0,   2.16568E-03,   17.5476E-06,  -193.380E-03,0.0593495,0.019282,-0.000152625
14862,45.0,1.0,0.0,   3.29767E-03,   25.1387E-06,  -254.674E-03,0.0626322,0.0208639,-0.000166652
14867,44.0,1.0,0.0,   4.35976E-03,   33.7632E-06,  -314.752E-03,0.0637226,0.0218617,-0.000181724
14868,43.0,1.0,0.0,   5.33579E-03,   43.3453E-06,  -373.306E-03,0.0640239,0.0226925,-0.000196936
14873,42.0,1.0,0.0,   6.22241E-03,   53.8192E-06,  -430.229E-03,0.0640349,0.0235021,-0.000211707
14876,41.0,1.0,0.0,   7.02078E-03,   65.1218E-06,  -485.485E-03,0.0639336,0.0243395,-0.000225736
14877,40.0,1.0,0.0,   7.73360E-03,   77.1892E-06,  -539.066E-03,0.0637838,0.0252193,-0.000238837
14882,39.0,1.0,0.0,   8.36409E-03,   89.9558E-06,  -590.974E-03,0.0636086,0.0261437,-0.000250903
14883,38.0,1.0,0.0,   8.91568E-03,   103.354E-06,  -641.212E-03,0.0634167,0.0271104,-0.000261856
14888,37.0,1.0,0.0,   9.39181E-03,   117.314E-06,  -689.790E-03,0.0632115,0.0281151,-0.000271643
14891,36.0,1.0,0.0,   9.79594E-03,   131.764E-06,  -736.716E-03,0.0629948,0.0291532,-0.000280221
14892,35.0,1.0,0.0,   10.1315E-03,   146.633E-06,  -782.000E-03,0.0627676,0.0302197,-0.000287565
14897,34.0,1.0,0.0,   10.4019E-03,   161.847E-06,  -825.656E-03,0.0625307,0.0313093,-0.000293655
14898,33.0,1.0,0.0,   10.6105E-03,   177.334E-06,  -867.694E-03,0.0622852,0.0324169,-0.000298485
14903,32.0,1.0,0.0,   10.7607E-03,   193.021E-06,  -908.131E-03,0.0620317,0.0335373,-0.000302057
14906,31.0,1.0,0.0,   10.8556E-03,   208.838E-06,  -946.982E-03,0.0617713,0.0346656,-0.000304383
14907,30.0,1.0,0.0,   10.8985E-03,   224.714E-06,  -984.263E-03,0.0615048,0.0357967,-0.000305483
14912,29.0,1.0,0.0,   10.8926E-03,   240.582E-06,      -1.01999,0.0612333,0.0369259,-0.000305384
14913,28.0,1.0,0.0,   10.8408E-03,   256.376E-06,      -1.05419,0.0609579,0.0380485,-0.000304123
14918,27.0,1.0,0.0,   10.7462E-03,   272.034E-06,      -1.08688,0.0606795,0.0391601,-0.00030174
14921,26.0,1.0,0.0,   10.6117E-03,   287.497E-06,      -1.11808,0.0603993,0.0402566,-0.000298281
14922,25.0,1.0,0.0,   10.4401E-03,   302.707E-06,      -1.14781,0.0601184,0.041334,-0.000293798
14927,24.0,1.0,0.0,   10.2339E-03,   317.614E-06,      -1.17611,0.0598378,0.0423887,-0.000288344
14928,23.0,1.0,0.0,   9.99595E-03,   332.167E-06,      -1.20298,0.0595588,0.0434172,-0.000281976
14933,22.0,1.0,0.0,   9.72856E-03,   346.322E-06,      -1.22846,0.0592824,0.0444164,-0.000274752
14936,21.0,1.0,0.0,   9.43414E-03,   360.038E-06,      -1.25257,0.0590097,0.0453836,-0.000266729
14937,20.0,1.0,0.0,   9.11492E-03,   373.278E-06,      -1.27534,0.0587419,0.0463161,-0.000257968
14942,19.0,1.0,0.0,   8.77303E-03,   386.009E-06,      -1.29680,0.05848,0.0472118,-0.000248525
14943,18.0,1.0,0.0,   8.41046E-03,   398.199E-06,      -1.31696,0.0582249,0.0480685,-0.000238457
14948,17.0,1.0,0.0,   8.02912E-03,   409.825E-06,      -1.33587,0.0579779,0.0488847,-0.000227819
14951,16.0,1.0,0.0,   7.63077E-03,   420.862E-06,      -1.35353,0.0577397,0.0496587,-0.000216662
14952,15.0,1.0,0.0,   7.21706E-03,   431.291E-06,      -1.36998,0.0575113,0.0503894,-0.000205037
14957,14.0,1.0,0.0,   6.78953E-03,   441.095E-06,      -1.38524,0.0572935,0.0510756,-0.00019299
14958,13.0,1.0,0.0,   6.34964E-03,   450.260E-06,      -1.39934,0.0570873,0.0517165,-0.000180566
14963,12.0,1.0,0.0,   5.89870E-03,   458.775E-06,      -1.41230,0.0568933,0.0523113,-0.000167806
14966,11.0,1.0,0.0,   5.43797E-03,   466.630E-06,      -1.42413,0.0567122,0.0528596,-0.000154748
14967,10.0,1.0,0.0,   4.96858E-03,   473.817E-06,      -1.43486,0.0565448,0.0533609,-0.000141428
14972,9.0,1.0,0.0,   4.49160E-03,   480.331E-06,      -1.44451,0.0563915,0.0538149,-0.00012788
14973,8.0,1.0,0.0,   4.00801E-03,   486.167E-06,      -1.45310,0.056253,0.0542213,-0.000114133
14978,7.0,1.0,0.0,   3.51874E-03,   491.321E-06,      -1.46064,0.0561296,0.05458,-0.000100215
14981,6.0,1.0,0.0,   3.02463E-03,   495.791E-06,      -1.46714,0.0560219,0.054891,-8.61528e-05
14982,5.0,1.0,0.0,   2.52648E-03,   499.575E-06,      -1.47262,0.0559302,0.0551541,-7.19703e-05
14987,4.0,1.0,0.0,   2.02503E-03,   502.673E-06,      -1.47709,0.0558547,0.0553693,-5.769e-05
14988,3.0,1.0,0.0,   1.52099E-03,   505.082E-06,      -1.48056,0.0557957,0.0555367,-4.33332e-05
14993,2.0,1.0,0.0,   1.01505E-03,   506.804E-06,      -1.48303,0.0557534,0.0556563,-2.89198e-05
14996,1.0,1.0,0.0,   507.836E-06,   507.836E-06,      -1.48451,0.055728,0.055728,-1.44691e-05
14997,0.0,1.0,0.0,   9.77323E-15,   508.181E-06,      -1.48500,0.0557196,0.0557519,3.41061e-13
15002,-1.0,1.0,0.0,  -507.836E-06,   507.836E-06,      -1.48451,0.055728,0.055728,1.44691e-05
15003,-2.0,1.0,0.0,  -1.01505E-03,   506.804E-06,      -1.48303,0.0557534,0.0556563,2.89198e-05
15008,-3.0,1.0,0.0,  -1.52099E-03,   505.082E-06,      -1.48056,0.0557957,0.0555367,4.33332e-05
15011,-4.0,1.0,0.0,  -2.02503E-03,   502.673E-06,      -1.47709,0.0558547,0.0553693,5.769e-05
15012,-5.0,1.0,0.0,  -2.52648E-03,   499.575E-06,      -1.47262,0.0559302,0.0551541,7.19703e-05
15017,-6.0,1.0,0.0,  -3.02463E-03,   495.791E-06,      -1.46714,0.0560219,0.054891,8.61528e-05
15018,-7.0,1.0,0.0,  -3.51874E-03,   491.321E-06,      -1.46064,0.0561296,0.05458,0.000100215
15023,-8.0,1.0,0.0,  -4.00801E-03,   486.167E-06,      -1.45310,0.056253,0.0542213,0.000114133
15026,-9.0,1.0,0.0,  -4.49160E-03,   480.331E-06,      -1.44451,0.0563915,0.0538149,0.00012788
15027,-10.0,1.0,0.0,  -4.96858E-03,   473.817E-06,      -1.43486,0.0565448,0.0533609,0.000141428
15032,-11.0,1.0,0.0,  -5.43797E-03,   466.630E-06,      -1.42413,0.0567122,0.0528596,0.000154748
15033,-12.0,1.0,0.0,  -5.89870E-03,   458.775E-06,      -1.41230,0.0568933,0.0523113,0.000167806
15038,-13.0,1.0,0.0,  -6.34964E-03,   450.260E-06,      -1.39934,0.0570873,0.0517165,0.000180566
15041,-14.0,1.0,0.0,  -6.78953E-03,   441.095E-06,      -1.38524,0.0572935,0.0510756,0.00019299
15042,-15.0,1.0,0.0,  -7.21706E-03,   431.291E-06,      -1.36998,0.0575113,0.0503894,0.000205037
15047,-16.0,1.0,0.0,  -7.63077E-03,   420.862E-06,      -1.35353,0.0577397,0.0496587,0.000216662
15048,-17.0,1.0,0.0,  -8.02912E-03,   409.825E-06,      -1.33587,0.0579779,0.0488847,0.000227819
15053,-18.0,1.0,0.0,  -8.41046E-03,   398.199E-06,      -1.31696,0.0582249,0.0480685,0.000238457
15056,-19.0,1.0,0.0,  -8.77303E-03,   386.009E-06,      -1.29680,0.05848,0.0472118,0.000248525
15057,-20.0,1.0,0.0,  -9.11492E-03,   373.278E-06,      -1.27534,0.0587419,0.0463161,0.000257968
15062,-21.0,1.0,0.0,  -9.43414E-03,   360.038E-06,      -1.25257,0.0590098,0.0453836,0.000266729
15063,-22.0,1.0,0.0,  -9.72856E-03,   346.322E-06,      -1.22846,0.0592824,0.0444164,0.000274752
15068,-23.0,1.0,0.0,  -9.99595E-03,   332.167E-06,      -1.20298,0.0595588,0.0434172,0.000281976
15071,-24.0,1.0,0.0,  -10.2339E-03,   317.614E-06,      -1.17611,0.0598378,0.0423887,0.000288344
15072,-25.0,1.0,0.0,  -10.4401E-03,   302.707E-06,      -1.14781,0.0601184,0.041334,0.000293798
15077,-26.0,1.0,0.0,  -10.6117E-03,   287.497E-06,      -1.11808,0.0603993,0.0402566,0.000298281
15078,-27.0,1.0,0.0,  -10.7462E-03,   272.034E-06,      -1.08688,0.0606795,0.0391601,0.00030174
15083,-28.0,1.0,0.0,  -10.8408E-03,   256.376E-06,      -1.05419,0.0609579,0.0380485,0.000304123
15086,-29.0,1.0,0.0,  -10.8926E-03,   240.582E-06,      -1.01999,0.0612333,0.0369259,0.000305384
15087,-30.0,1.0,0.0,  -10.8985E-03,   224.714E-06,  -984.263E-03,0.0615048,0.0357967,0.000305483
15092,-31.0,1.0,0.0,  -10.8556E-03,   208.838E-06,  -946.982E-03,0.0617713,0.0346656,0.000304383
15093,-32.0,1.0,0.0,  -10.7607E-03,   193.021E-06,  -908.131E-03,0.0620317,0.0335373,0.000302057
15098,-33.0,1.0,0.0,  -10.6105E-03,   177.334E-06,  -867.694E-03,0.0622852,0.0324169,0.000298485
15101,-34.0,1.0,0.0,  -10.4019E-03,   161.847E-06,  -825.656E-03,0.0625307,0.0313093,0.000293655
15102,-35.0,1.0,0.0,  -10.1315E-03,   146.633E-06,  -782.000E-03,0.0627676,0.0302197,0.000287565
15107,-36.0,1.0,0.0,  -9.79594E-03,   131.764E-06,  -736.716E-03,0.0629948,0.0291532,0.000280221
15108,-37.0,1.0,0.0,  -9.39181E-03,   117.314E-06,  -689.790E-03,0.0632115,0.0281151,0.000271643
15113,-38.0,1.0,0.0,  -8.91568E-03,   103.354E-06,  -641.212E-03,0.0634167,0.0271104,0.000261856
15116,-39.0,1.0,0.0,  -8.36409E-03,   89.9558E-06,  -590.974E-03,0.0636086,0.0261437,0.000250903
15117,-40.0,1.0,0.0,  -7.73360E-03,   77.1892E-06,  -539.066E-03,0.0637838,0.0252193,0.000238837
15122,-41.0,1.0,0.0,  -7.02078E-03,   65.1218E-06,  -485.485E-03,0.0639336,0.0243395,0.000225736
15123,-42.0,1.0,0.0,  -6.22241E-03,   53.8192E-06,  -430.229E-03,0.0640349,0.0235021,0.000211707
15128,-43.0,1.0,0.0,  -5.33579E-03,   43.3453E-06,  -373.306E-03,0.0640239,0.0226925,0.000196936
15131,-44.0,1.0,0.0,  -4.35976E-03,   33.7632E-06,  -314.752E-03,0.0637226,0.0218617,0.000181724
15132,-45.0,1.0,0.0,  -3.29767E-03,   25.1387E-06,  -254.674E-03,0.0626322,0.0208639,0.000166652
15137,-46.0,1.0,0.0,  -2.16568E-03,   17.5476E-06,  -193.380E-03,0.0593495,0.019282,0.000152625
15138,-47.0,1.0,0.0,  -1.01605E-03,   11.0913E-06,  -131.744E-03,0.049922,0.0159348,0.000140846
15143,-48.0,1.0,0.0,   2.17365E-06,   5.91804E-06,  -72.2265E-03,0.0231958,0.00748244,0.000130472
15146,-49.0,1.0,0.0,   519.430E-06,   2.21451E-06,  -21.7732E-03,-0.0523357,-0.015511,0.000108873
15147,-50.0,1.0,0.0,   2.89794E-39,  -875.528E-42,           -0.,-0.108121,-0.0324396,6.57213e-05
15152,50.0,0.0,0.0,  -2.90084E-39,  -878.089E-42,           -0.,-0.108138,-0.0324446,0.0
15153,49.0,0.0,0.0,  -519.628E-06,   2.94415E-15,  -21.7786E-03,-0.0523321,-0.0155099,0.0
15158,48.0,0.0,0.0,  -2.14525E-06,  -483.700E-18,  -72.2427E-03,0.0232217,0.00749021,0.0
15161,47.0,0.0,0.0,   1.01638E-03,   208.665E-18,  -131.770E-03,0.049949,0.0159427,-9.09495e-13
15162,46.0,0.0,0.0,   2.16628E-03,   834.554E-18,  -193.416E-03,0.0593744,0.019289,0.0
15167,45.0,0.0,0.0,   3.29852E-03,   1.36353E-15,  -254.719E-03,0.0626555,0.0208701,-1.81899e-12
15168,44.0,0.0,0.0,   4.36087E-03,   9.63950E-15,  -314.807E-03,0.0637451,0.0218672,-1.81899e-12
15173,43.0,0.0,0.0,   5.33716E-03,   9.24145E-15,  -373.371E-03,0.064046,0.0226975,1.81899e-12
15176,42.0,0.0,0.0,   6.22406E-03,  -4.49319E-15,  -430.304E-03,0.0640569,0.0235066,0.0
15177,41.0,0.0,0.0,   7.02270E-03,  -1.66101E-15,  -485.571E-03,0.0639556,0.0243434,0.0
15182,40.0,0.0,0.0,   7.73580E-03,  -6.86108E-15,  -539.164E-03,0.0638059,0.0252227,-3.63798e-12
15183,39.0,0.0,0.0,   8.36659E-03,  -1.89936E-15,  -591.083E-03,0.0636308,0.0261466,-3.63798e-12
15188,38.0,0.0,0.0,   8.91846E-03,  -3.70845E-15,  -641.334E-03,0.063439,0.0271126,0.0
15191,37.0,0.0,0.0,   9.39488E-03,  -7.91390E-15,  -689.924E-03,0.063234,0.0281167,1.81899e-12
15192,36.0,0.0,0.0,   9.79929E-03,  -4.81486E-15,  -736.863E-03,0.0630173,0.0291542,0.0
15197,35.0,0.0,0.0,   10.1351E-03,  -7.13543E-15,  -782.161E-03,0.0627903,0.0302201,-3.63798e-12
15198,34.0,0.0,0.0,   10.4058E-03,  -2.75843E-15,  -825.830E-03,0.0625535,0.031309,-3.63798e-12
15203,33.0,0.0,0.0,   10.6146E-03,  -3.04690E-15,  -867.882E-03,0.0623081,0.032416,-3.63798e-12
15206,32.0,0.0,0.0,   10.7650E-03,  -8.86376E-15,  -908.333E-03,0.0620548,0.0335359,0.0
15207,31.0,0.0,0.0,   10.8601E-03,  -7.92394E-15,  -947.198E-03,0.0617944,0.0346635,-3.63798e-12
15212,30.0,0.0,0.0,   10.9032E-03,  -7.37271E-15,  -984.493E-03,0.0615281,0.0357941,-3.63798e-12
15213,29.0,0.0,0.0,   10.8975E-03,  -10.2813E-15,      -1.02024,0.0612568,0.0369227,0.0
15218,28.0,0.0,0.0,   10.8458E-03,  -11.0875E-15,      -1.05445,0.0609814,0.0380448,0.0
15221,27.0,0.0,0.0,   10.7514E-03,  -10.0645E-15,      -1.08715,0.0607032,0.039156,3.63798e-12
15222,26.0,0.0,0.0,   10.6169E-03,  -12.8604E-15,      -1.11837,0.0604231,0.040252,-3.63798e-12
15227,25.0,0.0,0.0,   10.4453E-03,  -14.8061E-15,      -1.14811,0.0601422,0.041329,0.0
15228,24.0,0.0,0.0,   10.2392E-03,  -17.3518E-15,      -1.17642,0.0598618,0.0423832,0.0
15233,23.0,0.0,0.0,   10.0013E-03,  -15.7468E-15,      -1.20331,0.0595828,0.0434113,-1.81899e-12
15236,22.0,0.0,0.0,   9.73385E-03,  -14.8321E-15,      -1.22880,0.0593065,0.0444103,1.81899e-12
15237,21.0,0.0,0.0,   9.43938E-03,  -18.3420E-15,      -1.25292,0.0590338,0.0453771,-3.63798e-12
15242,20.0,0.0,0.0,   9.12009E-03,  -17.1716E-15,      -1.27571,0.058766,0.0463094,0.0
15243,19.0,0.0,0.0,   8.77810E-03,  -16.1454E-15,      -1.29717,0.0585041,0.0472048,-1.81899e-12
15248,18.0,0.0,0.0,   8.41541E-03,  -17.0642E-15,      -1.31735,0.0582491,0.0480614,3.63798e-12
15251,17.0,0.0,0.0,   8.03393E-03,  -17.4421E-15,      -1.33627,0.058002,0.0488773,3.63798e-12
15252,16.0,0.0,0.0,   7.63540E-03,  -19.8172E-15,      -1.35394,0.0577638,0.0496512,-1.81899e-12
15257,15.0,0.0,0.0,   7.22150E-03,  -17.7856E-15,      -1.37040,0.0575354,0.0503817,-3.63798e-12
15258,14.0,0.0,0.0,   6.79377E-03,  -16.2316E-15,      -1.38567,0.0573177,0.0510678,0.0
15263,13.0,0.0,0.0,   6.35365E-03,  -16.5059E-15,      -1.39978,0.0571115,0.0517085,0.0
15266,12.0,0.0,0.0,   5.90247E-03,  -16.5712E-15,      -1.41274,0.0569174,0.0523033,-1.81899e-12
15267,11.0,0.0,0.0,   5.44147E-03,  -15.2685E-15,      -1.42458,0.0567364,0.0528515,-1.81899e-12
15272,10.0,0.0,0.0,   4.97181E-03,  -13.2326E-15,      -1.43532,0.0565689,0.0533527,0.0
15273,9.0,0.0,0.0,   4.49454E-03,  -12.6184E-15,      -1.44498,0.0564156,0.0538066,0.0
15278,8.0,0.0,0.0,   4.01066E-03,  -11.3050E-15,      -1.45357,0.056277,0.054213,9.09495e-13
15281,7.0,0.0,0.0,   3.52108E-03,  -10.0079E-15,      -1.46111,0.0561537,0.0545717,-1.81899e-12
15282,6.0,0.0,0.0,   3.02665E-03,  -8.08477E-15,      -1.46762,0.0560459,0.0548826,-9.09495e-13
15287,5.0,0.0,0.0,   2.52817E-03,  -7.73126E-15,      -1.47310,0.0559541,0.0551457,0.0
15288,4.0,0.0,0.0,   2.02639E-03,  -7.14280E-15,      -1.47758,0.0558786,0.0553609,0.0
15293,3.0,0.0,0.0,   1.52202E-03,  -7.55411E-15,      -1.48105,0.0558196,0.0555283,1.36424e-12
15294,2.0,0.0,0.0,   1.01573E-03,  -8.17567E-15,      -1.48352,0.0557774,0.0556478,2.27374e-13
15299,1.0,0.0,0.0,   508.181E-06,  -10.3250E-15,      -1.48500,0.0557519,0.0557196,5.68434e-14
15300,0.0,0.0,0.0,   11.0336E-15,  -6.58892E-15,      -1.48549,0.0557435,0.0557435,-1.7053e-13
15305,-1.0,0.0,0.0,  -508.181E-06,  -9.52290E-15,      -1.48500,0.0557519,0.0557196,5.11591e-13
15308,-2.0,0.0,0.0,  -1.01573E-03,  -2.55697E-15,      -1.48352,0.0557774,0.0556478,-2.27374e-13
15309,-3.0,0.0,0.0,  -1.52202E-03,   861.195E-18,      -1.48105,0.0558196,0.0555283,-1.36424e-12
15314,-4.0,0.0,0.0,  -2.02639E-03,   1.70587E-15,      -1.47758,0.0558786,0.0553609,-4.54747e-13
15315,-5.0,0.0,0.0,  -2.52817E-03,   3.50734E-15,      -1.47310,0.0559541,0.0551457,4.54747e-13
15320,-6.0,0.0,0.0,  -3.02665E-03,   3.89361E-15,      -1.46762,0.0560459,0.0548826,0.0
15323,-7.0,0.0,0.0,  -3.52108E-03,   4.40190E-15,      -1.46111,0.0561537,0.0545717,9.09495e-13
15324,-8.0,0.0,0.0,  -4.01066E-03,   9.83806E-15,      -1.45357,0.056277,0.054213,0.0
15329,-9.0,0.0,0.0,  -4.49454E-03,   4.85884E-15,      -1.44498,0.0564156,0.0538066,9.09495e-13
15330,-10.0,0.0,0.0,  -4.97181E-03,  -9.32155E-15,      -1.43532,0.0565689,0.0533527,0.0
15335,-11.0,0.0,0.0,  -5.44147E-03,  -11.1802E-15,      -1.42458,0.0567364,0.0528515,1.81899e-12
15338,-12.0,0.0,0.0,  -5.90247E-03,  -10.0087E-15,      -1.41274,0.0569174,0.0523033,0.0
15339,-13.0,0.0,0.0,  -6.35365E-03,  -7.03979E-15,      -1.39978,0.0571115,0.0517085,-3.63798e-12
15344,-14.0,0.0,0.0,  -6.79377E-03,  -5.44960E-15,      -1.38567,0.0573177,0.0510678,0.0
15345,-15.0,0.0,0.0,  -7.22150E-03,  -2.02229E-15,      -1.37040,0.0575354,0.0503817,1.81899e-12
15350,-16.0,0.0,0.0,  -7.63540E-03,  -624.692E-18,      -1.35394,0.0577638,0.0496512,-5.45697e-12
15353,-17.0,0.0,0.0,  -8.03393E-03,  -4.51924E-15,      -1.33627,0.058002,0.0488773,-1.81899e-12
15354,-18.0,0.0,0.0,  -8.41541E-03,  -2.09907E-15,      -1.31735,0.0582491,0.0480614,-3.63798e-12
15359,-19.0,0.0,0.0,  -8.77810E-03,  -7.50277E-15,      -1.29717,0.0585041,0.0472048,-1.81899e-12
15360,-20.0,0.0,0.0,  -9.12009E-03,  -6.66005E-15,      -1.27571,0.058766,0.0463094,-1.81899e-12
15365,-21.0,0.0,0.0,  -9.43938E-03,  -4.76091E-15,      -1.25292,0.0590338,0.0453771,1.81899e-12
15368,-22.0,0.0,0.0,  -9.73385E-03,  -1.39754E-15,      -1.22880,0.0593065,0.0444103,0.0
15369,-23.0,0.0,0.0,  -10.0013E-03,  -1.95723E-15,      -1.20331,0.0595828,0.0434113,-1.81899e-12
15374,-24.0,0.0,0.0,  -10.2392E-03,  -4.95083E-15,      -1.17642,0.0598618,0.0423832,0.0
15375,-25.0,0.0,0.0,  -10.4453E-03,  -579.571E-18,      -1.14811,0.0601422,0.041329,-3.63798e-12
15380,-26.0,0.0,0.0,  -10.6169E-03,   1.33264E-15,      -1.11837,0.0604231,0.040252,0.0
15383,-27.0,0.0,0.0,  -10.7514E-03,  -135.289E-18,      -1.08715,0.0607032,0.039156,-3.63798e-12
15384,-28.0,0.0,0.0,  -10.8458E-03,  -1.45531E-15,      -1.05445,0.0609814,0.0380448,0.0
15389,-29.0,0.0,0.0,  -10.8975E-03,   2.42464E-15,      -1.02024,0.0612568,0.0369227,-3.63798e-12
15390,-30.0,0.0,0.0,  -10.9032E-03,   6.14534E-15,  -984.493E-03,0.0615281,0.0357941,3.63798e-12
15395,-31.0,0.0,0.0,  -10.8601E-03,  -2.16457E-15,  -947.198E-03,0.0617944,0.0346635,7.27596e-12
15398,-32.0,0.0,0.0,  -10.7650E-03,   572.244E-18,  -908.333E-03,0.0620548,0.0335359,0.0
15399,-33.0,0.0,0.0,  -10.6146E-03,   4.76535E-15,  -867.882E-03,0.0623081,0.032416,0.0
15404,-34.0,0.0,0.0,  -10.4058E-03,   2.93439E-15,  -825.830E-03,0.0625535,0.031309,0.0
15405,-35.0,0.0,0.0,  -10.1351E-03,   3.41898E-15,  -782.161E-03,0.0627903,0.0302201,0.0
15410,-36.0,0.0,0.0,  -9.79929E-03,   2.73588E-15,  -736.863E-03,0.0630173,0.0291542,0.0
15413,-37.0,0.0,0.0,  -9.39488E-03,   7.26460E-15,  -689.924E-03,0.063234,0.0281167,-1.81899e-12
15414,-38.0,0.0,0.0,  -8.91846E-03,   7.95803E-15,  -641.334E-03,0.063439,0.0271126,1.81899e-12
15419,-39.0,0.0,0.0,  -8.36659E-03,   7.59240E-15,  -591.083E-03,0.0636308,0.0261466,-3.63798e-12
15420,-40.0,0.0,0.0,  -7.73580E-03,   14.7408E-15,  -539.164E-03,0.0638059,0.0252227,1.81899e-12
15425,-41.0,0.0,0.0,  -7.02270E-03,   8.62988E-15,  -485.571E-03,0.0639556,0.0243434,1.81899e-12
15428,-42.0,0.0,0.0,  -6.22406E-03,   5.15762E-15,  -430.304E-03,0.0640569,0.0235066,3.63798e-12
15429,-43.0,0.0,0.0,  -5.33716E-03,   3.61709E-15,  -373.371E-03,0.064046,0.0226975,1.81899e-12
15434,-44.0,0.0,0.0,  -4.36087E-03,   8.88547E-15,  -314.807E-03,0.0637451,0.0218672,-1.81899e-12
15435,-45.0,0.0,0.0,  -3.29852E-03,   258.715E-18,  -254.719E-03,0.0626555,0.0208701,1.81899e-12
15440,-46.0,0.0,0.0,  -2.16628E-03,   7.74612E-15,  -193.416E-03,0.0593744,0.019289,2.72848e-12
15443,-47.0,0.0,0.0,  -1.01638E-03,  -5.03362E-15,  -131.770E-03,0.049949,0.0159427,9.09495e-13
15444,-48.0,0.0,0.0,   2.14525E-06,  -2.79199E-15,  -72.2427E-03,0.0232217,0.00749021,0.0
15449,-49.0,0.0,0.0,   519.628E-06,   577.021E-18,  -21.7786E-03,-0.0523321,-0.0155099,9.09495e-13
15450,-50.0,0.0,0.0,   2.90084E-39,  -878.089E-42,           -0.,-0.108138,-0.0324446,9.09495e-13
15455,50.0,-1.0,0.0,  -2.90133E-39,  -879.912E-42,           -0.,-0.108121,-0.0324396,6.57213e-05
15458,49.0,-1.0,0.0,  -519.430E-06,  -2.21451E-06,  -21.7732E-03,-0.0523357,-0.015511,0.000108873
15459,48.0,-1.0,0.0,  -2.17365E-06,  -5.91804E-06,  -72.2265E-03,0.0231958,0.00748244,0.000130472
15464,47.0,-1.0,0.0,   1.01605E-03,  -11.0913E-06,  -131.744E-03,0.049922,0.0159348,0.000140846
15465,46.0,-1.0,0.0,   2.16568E-03,  -17.5476E-06,  -193.380E-03,0.0593495,0.019282,0.000152625
15470,45.0,-1.0,0.0,   3.29767E-03,  -25.1387E-06,  -254.674E-03,0.0626322,0.0208639,0.000166652
15473,44.0,-1.0,0.0,   4.35976E-03,  -33.7632E-06,  -314.752E-03,0.0637226,0.0218617,0.000181724
15474,43.0,-1.0,0.0,   5.33579E-03,  -43.3453E-06,  -373.306E-03,0.0640239,0.0226925,0.000196936
15479,42.0,-1.0,0.0,   6.22241E-03,  -53.8192E-06,  -430.229E-03,0.0640349,0.0235021,0.000211707
15480,41.0,-1.0,0.0,   7.02078E-03,  -65.1218E-06,  -485.485E-03,0.0639336,0.0243395,0.000225736
15485,40.0,-1.0,0.0,   7.73360E-03,  -77.1892E-06,  -539.066E-03,0.0637838,0.0252193,0.000238837
15488,39.0,-1.0,0.0,   8.36409E-03,  -89.9558E-06,  -590.974E-03,0.0636086,0.0261437,0.000250903
15489,38.0,-1.0,0.0,   8.91568E-03,  -103.354E-06,  -641.212E-03,0.0634167,0.0271104,0.000261856
15494,37.0,-1.0,0.0,   9.39181E-03,  -117.314E-06,  -689.790E-03,0.0632115,0.0281151,0.000271643
15495,36.0,-1.0,0.0,   9.79594E-03,  -131.764E-06,  -736.716E-03,0.0629948,0.0291532,0.000280221
15500,35.0,-1.0,0.0,   10.1315E-03,  -146.633E-06,  -782.000E-03,0.0627676,0.0302197,0.000287565
15503,34.0,-1.0,0.0,   10.4019E-03,  -161.847E-06,  -825.656E-03,0.0625307,0.0313093,0.000293655
15504,33.0,-1.0,0.0,   10.6105E-03,  -177.334E-06,  -867.694E-03,0.0622852,0.0324169,0.000298485
15509,32.0,-1.0,0.0,   10.7607E-03,  -193.021E-06,  -908.131E-03,0.0620317,0.0335373,0.000302057
15510,31.0,-1.0,0.0,   10.8556E-03,  -208.838E-06,  -946.982E-03,0.0617713,0.0346656,0.000304383
15515,30.0,-1.0,0.0,   10.8985E-03,  -224.714E-06,  -984.263E-03,0.0615048,0.0357967,0.000305483
15518,29.0,-1.0,0.0,   10.8926E-03,  -240.582E-06,      -1.01999,0.0612333,0.0369259,0.000305384
15519,28.0,-1.0,0.0,   10.8408E-03,  -256.376E-06,      -1.05419,0.0609579,0.0380485,0.000304123
15524,27.0,-1.0,0.0,   10.7462E-03,  -272.034E-06,      -1.08688,0.0606795,0.0391601,0.00030174
15525,26.0,-1.0,0.0,   10.6117E-03,  -287.497E-06,      -1.11808,0.0603993,0.0402566,0.000298281
15530,25.0,-1.0,0.0,   10.4401E-03,  -302.707E-06,      -1.14781,0.0601184,0.041334,0.000293798
15533,24.0,-1.0,0.0,   10.2339E-03,  -317.614E-06,      -1.17611,0.0598378,0.0423887,0.000288344
15534,23.0,-1.0,0.0,   9.99595E-03,  -332.167E-06,      -1.20298,0.0595588,0.0434172,0.000281976
15539,22.0,-1.0,0.0,   9.72856E-03,  -346.322E-06,      -1.22846,0.0592824,0.0444164,0.000274752
15540,21.0,-1.0,0.0,   9.43414E-03,  -360.038E-06,      -1.25257,0.0590097,0.0453836,0.000266729
15545,20.0,-1.0,0.0,   9.11492E-03,  -373.278E-06,      -1.27534,0.0587419,0.0463161,0.000257968
15548,19.0,-1.0,0.0,   8.77303E-03,  -386.009E-06,      -1.29680,0.05848,0.0472118,0.000248525
15549,18.0,-1.0,0.0,   8.41046E-03,  -398.199E-06,      -1.31696,0.058225,0.0480685,0.000238457
15554,17.0,-1.0,0.0,   8.02912E-03,  -409.825E-06,      -1.33587,0.0579779,0.0488847,0.000227819
15555,16.0,-1.0,0.0,   7.63077E-03,  -420.862E-06,      -1.35353,0.0577397,0.0496587,0.000216662
15560,15.0,-1.0,0.0,   7.21706E-03,  -431.291E-06,      -1.36998,0.0575113,0.0503894,0.000205037
15563,14.0,-1.0,0.0,   6.78953E-03,  -441.095E-06,      -1.38524,0.0572935,0.0510756,0.00019299
15564,13.0,-1.0,0.0,   6.34964E-03,  -450.260E-06,      -1.39934,0.0570873,0.0517165,0.000180566
15569,12.0,-1.0,0.0,   5.89870E-03,  -458.775E-06,      -1.41230,0.0568933,0.0523113,0.000167806
15570,11.0,-1.0,0.0,   5.43797E-03,  -466.630E-06,      -1.42413,0.0567122,0.0528596,0.000154748
15575,10.0,-1.0,0.0,   4.96858E-03,  -473.817E-06,      -1.43486,0.0565448,0.0533609,0.000141428
15578,9.0,-1.0,0.0,   4.49160E-03,  -480.331E-06,      -1.44451,0.0563915,0.0538149,0.00012788
15579,8.0,-1.0,0.0,   4.00801E-03,  -486.167E-06,      -1.45310,0.056253,0.0542213,0.000114133
15584,7.0,-1.0,0.0,   3.51874E-03,  -491.321E-06,      -1.46064,0.0561296,0.05458,0.000100215
15585,6.0,-1.0,0.0,   3.02463E-03,  -495.791E-06,      -1.46714,0.0560219,0.054891,8.61528e-05
15590,5.0,-1.0,0.0,   2.52648E-03,  -499.575E-06,      -1.47262,0.0559302,0.0551541,7.19703e-05
15593,4.0,-1.0,0.0,   2.02503E-03,  -502.673E-06,      -1.47709,0.0558547,0.0553693,5.769e-05
15594,3.0,-1.0,0.0,   1.52099E-03,  -505.082E-06,      -1.48056,0.0557957,0.0555367,4.33332e-05
15599,2.0,-1.0,0.0,   1.01505E-03,  -506.804E-06,      -1.48303,0.0557534,0.0556563,2.89198e-05
15600,1.0,-1.0,0.0,   507.836E-06,  -507.836E-06,      -1.48451,0.055728,0.055728,1.44691e-05
15605,0.0,-1.0,0.0,   7.96528E-15,  -508.181E-06,      -1.48500,0.0557196,0.0557519,2.84217e-13
15608,-1.0,-1.0,0.0,  -507.836E-06,  -507.836E-06,      -1.48451,0.055728,0.055728,-1.44691e-05
15609,-2.0,-1.0,0.0,  -1.01505E-03,  -506.804E-06,      -1.48303,0.0557534,0.0556563,-2.89198e-05
15614,-3.0,-1.0,0.0,  -1.52099E-03,  -505.082E-06,      -1.48056,0.0557957,0.0555367,-4.33332e-05
15615,-4.0,-1.0,0.0,  -2.02503E-03,  -502.673E-06,      -1.47709,0.0558547,0.0553693,-5.769e-05
15620,-5.0,-1.0,0.0,  -2.52648E-03,  -499.575E-06,      -1.47262,0.0559302,0.0551541,-7.19703e-05
15623,-6.0,-1.0,0.0,  -3.02463E-03,  -495.791E-06,      -1.46714,0.0560219,0.054891,-8.61528e-05
15624,-7.0,-1.0,0.0,  -3.51874E-03,  -491.321E-06,      -1.46064,0.0561296,0.05458,-0.000100215
15629,-8.0,-1.0,0.0,  -4.00801E-03,  -486.167E-06,      -1.45310,0.056253,0.0542213,-0.000114133
15630,-9.0,-1.0,0.0,  -4.49160E-03,  -480.331E-06,      -1.44451,0.0563915,0.0538149,-0.00012788
15635,-10.0,-1.0,0.0,  -4.96858E-03,  -473.817E-06,      -1.43486,0.0565448,0.0533609,-0.000141428
15638,-11.0,-1.0,0.0,  -5.43797E-03,  -466.630E-06,      -1.42413,0.0567122,0.0528596,-0.000154748
15639,-12.0,-1.0,0.0,  -5.89870E-03,  -458.775E-06,      -1.41230,0.0568933,0.0523113,-0.000167806
15644,-13.0,-1.0,0.0,  -6.34964E-03,  -450.260E-06,      -1.39934,0.0570873,0.0517165,-0.000180566
15645,-14.0,-1.0,0.0,  -6.78953E-03,  -441.095E-06,      -1.38524,0.0572935,0.0510756,-0.00019299
15650,-15.0,-1.0,0.0,  -7.21706E-03,  -431.291E-06,      -1.36998,0.0575113,0.0503894,-0.000205037
15653,-16.0,-1.0,0.0,  -7.63077E-03,  -420.862E-06,      -1.35353,0.0577397,0.0496587,-0.000216662
15654,-17.0,-1.0,0.0,  -8.02912E-03,  -409.825E-06,      -1.33587,0.0579779,0.0488847,-0.000227819
15659,-18.0,-1.0,0.0,  -8.41046E-03,  -398.199E-06,      -1.31696,0.058225,0.0480685,-0.000238457
15660,-19.0,-1.0,0.0,  -8.77303E-03,  -386.009E-06,      -1.29680,0.05848,0.0472118,-0.000248525
15665,-20.0,-1.0,0.0,  -9.11492E-03,  -373.278E-06,      -1.27534,0.0587419,0.0463161,-0.000257968
15668,-21.0,-1.0,0.0,  -9.43414E-03,  -360.038E-06,      -1.25257,0.0590097,0.0453836,-0.000266729
15669,-22.0,-1.0,0.0,  -9.72856E-03,  -346.322E-06,      -1.22846,0.0592824,0.0444164,-0.000274752
15674,-23.0,-1.0,0.0,  -9.99595E-03,  -332.167E-06,      -1.20298,0.0595588,0.0434172,-0.000281976
15675,-24.0,-1.0,0.0,  -10.2339E-03,  -317.614E-06,      -1.17611,0.0598378,0.0423887,-0.000288344
15680,-25.0,-1.0,0.0,  -10.4401E-03,  -302.707E-06,      -1.14781,0.0601184,0.041334,-0.000293798
15683,-26.0,-1.0,0.0,  -10.6117E-03,  -287.497E-06,      -1.11808,0.0603993,0.0402566,-0.000298281
15684,-27.0,-1.0,0.0,  -10.7462E-03,  -272.034E-06,      -1.08688,0.0606795,0.0391601,-0.00030174
15689,-28.0,-1.0,0.0,  -10.8408E-03,  -256.376E-06,      -1.05419,0.0609579,0.0380485,-0.000304123
15690,-29.0,-1.0,0.0,  -10.8926E-03,  -240.582E-06,      -1.01999,0.0612333,0.0369259,-0.000305384
15695,-30.0,-1.0,0.0,  -10.8985E-03,  -224.714E-06,  -984.263E-03,0.0615048,0.0357967,-0.000305483
15698,-31.0,-1.0,0.0,  -10.8556E-03,  -208.838E-06,  -946.982E-03,0.0617712,0.0346656,-0.000304383
15699,-32.0,-1.0,0.0,  -10.7607E-03,  -193.021E-06,  -908.131E-03,0.0620317,0.0335373,-0.000302057
15704,-33.0,-1.0,0.0,  -10.6105E-03,  -177.334E-06,  -867.694E-03,0.0622852,0.0324169,-0.000298485
15705,-34.0,-1.0,0.0,  -10.4019E-03,  -161.847E-06,  -825.656E-03,0.0625307,0.0313093,-0.000293655
15710,-35.0,-1.0,0.0,  -10.1315E-03,  -146.633E-06,  -782.000E-03,0.0627676,0.0302197,-0.000287565
15713,-36.0,-1.0,0.0,  -9.79594E-03,  -131.764E-06,  -736.716E-03,0.0629948,0.0291532,-0.000280221
15714,-37.0,-1.0,0.0,  -9.39181E-03,  -117.314E-06,  -689.790E-03,0.0632115,0.0281151,-0.000271643
15719,-38.0,-1.0,0.0,  -8.91568E-03,  -103.354E-06,  -641.212E-03,0.0634167,0.0271104,-0.000261856
15720,-39.0,-1.0,0.0,  -8.36409E-03,  -89.9558E-06,  -590.974E-03,0.0636086,0.0261437,-0.000250903
15725,-40.0,-1.0,0.0,  -7.73360E-03,  -77.1892E-06,  -539.066E-03,0.0637838,0.0252193,-0.000238837
15728,-41.0,-1.0,0.0,  -7.02078E-03,  -65.1218E-06,  -485.485E-03,0.0639336,0.0243395,-0.000225736
15729,-42.0,-1.0,0.0,  -6.22241E-03,  -53.8192E-06,  -430.229E-03,0.0640349,0.0235021,-0.000211707
15734,-43.0,-1.0,0.0,  -5.33579E-03,  -43.3453E-06,  -373.306E-03,0.0640239,0.0226925,-0.000196936
15735,-44.0,-1.0,0.0,  -4.35976E-03,  -33.7632E-06,  -314.752E-03,0.0637226,0.0218617,-0.000181724
15740,-45.0,-1.0,0.0,  -3.29767E-03,  -25.1387E-06,  -254.674E-03,0.0626322,0.0208639,-0.000166652
15743,-46.0,-1.0,0.0,  -2.16568E-03,  -17.5476E-06,  -193.380E-03,0.0593495,0.019282,-0.000152625
15744,-47.0,-1.0,0.0,  -1.01605E-03,  -11.0913E-06,  -131.744E-03,0.049922,0.0159348,-0.000140846
15749,-48.0,-1.0,0.0,   2.17365E-06,  -5.91804E-06,  -72.2265E-03,0.0231958,0.00748244,-0.000130472
15750,-49.0,-1.0,0.0,   519.430E-06,  -2.21451E-06,  -21.7732E-03,-0.0523357,-0.015511,-0.000108873
15755,-50.0,-1.0,0.0,   2.90133E-39,  -879.912E-42,           -0.,-0.108121,-0.0324396,-6.57213e-05
15758,50.0,-2.0,0.0,  -2.89939E-39,  -880.996E-42,           -0.,-0.108071,-0.0324246,0.000131385
15759,49.0,-2.0,0.0,  -518.834E-06,  -4.42611E-06,  -21.7570E-03,-0.0523464,-0.0155144,0.000217774
15764,48.0,-2.0,0.0,  -2.25889E-06,  -11.8318E-06,  -72.1781E-03,0.023118,0.00745914,0.000261039
15765,47.0,-2.0,0.0,   1.01507E-03,  -22.1789E-06,  -131.664E-03,0.049841,0.0159111,0.000281811
15770,46.0,-2.0,0.0,   2.16388E-03,  -35.0939E-06,  -193.272E-03,0.0592747,0.019261,0.000305381
15773,45.0,-2.0,0.0,   3.29510E-03,  -50.2797E-06,  -254.538E-03,0.0625621,0.0208453,0.000333449
15774,44.0,-2.0,0.0,   4.35642E-03,  -67.5331E-06,  -314.587E-03,0.063655,0.021845,0.000363614
15779,43.0,-2.0,0.0,   5.33167E-03,  -86.7020E-06,  -373.112E-03,0.0639574,0.0226775,0.000394059
15780,42.0,-2.0,0.0,   6.21748E-03,  -107.655E-06,  -430.003E-03,0.0639687,0.0234887,0.000423623
15785,41.0,-2.0,0.0,   7.01501E-03,  -130.264E-06,  -485.227E-03,0.0638674,0.0243277,0.000451699
15788,40.0,-2.0,0.0,   7.72697E-03,  -154.403E-06,  -538.774E-03,0.0637175,0.0252091,0.000477916
15789,39.0,-2.0,0.0,   8.35660E-03,  -179.940E-06,  -590.646E-03,0.063542,0.0261353,0.000502059
15794,38.0,-2.0,0.0,   8.90732E-03,  -206.738E-06,  -640.848E-03,0.0633498,0.0271037,0.000523971
15795,37.0,-2.0,0.0,   9.38260E-03,  -234.659E-06,  -689.387E-03,0.0631443,0.0281103,0.000543546
15800,36.0,-2.0,0.0,   9.78590E-03,  -263.559E-06,  -736.274E-03,0.0629271,0.0291502,0.0005607
15803,35.0,-2.0,0.0,   10.1207E-03,  -293.295E-06,  -781.519E-03,0.0626995,0.0302185,0.000575379
15804,34.0,-2.0,0.0,   10.3903E-03,  -323.720E-06,  -825.133E-03,0.0624623,0.03131,0.000587548
15809,33.0,-2.0,0.0,   10.5982E-03,  -354.688E-06,  -867.131E-03,0.0622163,0.0324194,0.000597192
15810,32.0,-2.0,0.0,   10.7477E-03,  -386.055E-06,  -907.525E-03,0.0619624,0.0335417,0.000604317
15815,31.0,-2.0,0.0,   10.8420E-03,  -417.678E-06,  -946.334E-03,0.0617016,0.0346717,0.000608947
15818,30.0,-2.0,0.0,   10.8843E-03,  -449.418E-06,  -983.573E-03,0.0614348,0.0358045,0.000611122
15819,29.0,-2.0,0.0,   10.8779E-03,  -481.140E-06,      -1.01926,0.061163,0.0369353,0.000610899
15824,28.0,-2.0,0.0,   10.8258E-03,  -512.712E-06,      -1.05342,0.0608872,0.0380595,0.000608349
15825,27.0,-2.0,0.0,   10.7308E-03,  -544.010E-06,      -1.08606,0.0606085,0.0391726,0.000603555
15830,26.0,-2.0,0.0,   10.5961E-03,  -574.914E-06,      -1.11722,0.060328,0.0402705,0.000596609
15833,25.0,-2.0,0.0,   10.4242E-03,  -605.313E-06,      -1.14691,0.0600468,0.0413492,0.000587615
15834,24.0,-2.0,0.0,   10.2180E-03,  -635.102E-06,      -1.17516,0.059766,0.042405,0.00057668
15839,23.0,-2.0,0.0,   9.98001E-03,  -664.183E-06,      -1.20200,0.0594868,0.0434346,0.000563918
15840,22.0,-2.0,0.0,   9.71268E-03,  -692.467E-06,      -1.22744,0.0592102,0.0444348,0.000549445
15845,21.0,-2.0,0.0,   9.41840E-03,  -719.872E-06,      -1.25151,0.0589374,0.0454029,0.000533379
15848,20.0,-2.0,0.0,   9.09940E-03,  -746.323E-06,      -1.27425,0.0586695,0.0463362,0.000515837
15849,19.0,-2.0,0.0,   8.75781E-03,  -771.755E-06,      -1.29567,0.0584075,0.0472326,0.000496934
15854,18.0,-2.0,0.0,   8.39561E-03,  -796.107E-06,      -1.31580,0.0581524,0.0480901,0.000476784
15855,17.0,-2.0,0.0,   8.01471E-03,  -819.328E-06,      -1.33467,0.0579053,0.0489068,0.000455495
15860,16.0,-2.0,0.0,   7.61686E-03,  -841.372E-06,      -1.35230,0.0576671,0.0496814,0.000433173
15863,15.0,-2.0,0.0,   7.20371E-03,  -862.201E-06,      -1.36872,0.0574387,0.0504125,0.000409916
15864,14.0,-2.0,0.0,   6.77682E-03,  -881.781E-06,      -1.38396,0.057221,0.0510991,0.000385819
15869,13.0,-2.0,0.0,   6.33760E-03,  -900.085E-06,      -1.39803,0.0570148,0.0517403,0.00036097
15870,12.0,-2.0,0.0,   5.88740E-03,  -917.088E-06,      -1.41096,0.0568209,0.0523355,0.000335452
15875,11.0,-2.0,0.0,   5.42744E-03,  -932.773E-06,      -1.42277,0.0566399,0.052884,0.000309341
15878,10.0,-2.0,0.0,   4.95887E-03,  -947.125E-06,      -1.43348,0.0564725,0.0533855,0.000282708
15879,9.0,-2.0,0.0,   4.48276E-03,  -960.131E-06,      -1.44311,0.0563193,0.0538396,0.00025562
15884,8.0,-2.0,0.0,   4.00007E-03,  -971.783E-06,      -1.45168,0.0561809,0.0542462,0.000228136
15885,7.0,-2.0,0.0,   3.51172E-03,  -982.074E-06,      -1.45920,0.0560576,0.0546051,0.000200313
15890,6.0,-2.0,0.0,   3.01857E-03,  -990.998E-06,      -1.46569,0.05595,0.0549161,0.000172202
15893,5.0,-2.0,0.0,   2.52139E-03,  -998.553E-06,      -1.47116,0.0558583,0.0551793,0.000143853
15894,4.0,-2.0,0.0,   2.02094E-03,  -1.00474E-03,      -1.47562,0.0557828,0.0553946,0.000115308
15899,3.0,-2.0,0.0,   1.51791E-03,  -1.00955E-03,      -1.47908,0.0557239,0.0555621,8.66118e-05
15900,2.0,-2.0,0.0,   1.01298E-03,  -1.01298E-03,      -1.48155,0.0556817,0.0556817,5.78028e-05
15905,1.0,-2.0,0.0,   506.804E-06,  -1.01505E-03,      -1.48303,0.0556563,0.0557534,2.89198e-05
15908,0.0,-2.0,0.0,   4.33779E-15,  -1.01573E-03,      -1.48352,0.0556478,0.0557774,4.54747e-13
15909,-1.0,-2.0,0.0,  -506.804E-06,  -1.01505E-03,      -1.48303,0.0556563,0.0557534,-2.89198e-05
15914,-2.0,-2.0,0.0,  -1.01298E-03,  -1.01298E-03,      -1.48155,0.0556817,0.0556817,-5.78028e-05
15915,-3.0,-2.0,0.0,  -1.51791E-03,  -1.00955E-03,      -1.47908,0.0557239,0.0555621,-8.66118e-05
15920,-4.0,-2.0,0.0,  -2.02094E-03,  -1.00474E-03,      -1.47562,0.0557828,0.0553946,-0.000115308
15923,-5.0,-2.0,0.0,  -2.52139E-03,  -998.553E-06,      -1.47116,0.0558583,0.0551793,-0.000143853
15924,-6.0,-2.0,0.0,  -3.01857E-03,  -990.998E-06,      -1.46569,0.05595,0.0549161,-0.000172202
15929,-7.0,-2.0,0.0,  -3.51172E-03,  -982.074E-06,      -1.45920,0.0560576,0.0546051,-0.000200313
15930,-8.0,-2.0,0.0,  -4.00007E-03,  -971.783E-06,      -1.45168,0.0561809,0.0542462,-0.000228136
15935,-9.0,-2.0,0.0,  -4.48276E-03,  -960.131E-06,      -1.44311,0.0563193,0.0538396,-0.00025562
15938,-10.0,-2.0,0.0,  -4.95887E-03,  -947.125E-06,      -1.43348,0.0564725,0.0533855,-0.000282708
15939,-11.0,-2.0,0.0,  -5.42744E-03,  -932.773E-06,      -1.42277,0.0566399,0.052884,-0.000309341
15944,-12.0,-2.0,0.0,  -5.88740E-03,  -917.088E-06,      -1.41096,0.0568209,0.0523355,-0.000335451
15945,-13.0,-2.0,0.0,  -6.33760E-03,  -900.085E-06,      -1.39803,0.0570148,0.0517403,-0.00036097
15950,-14.0,-2.0,0.0,  -6.77682E-03,  -881.781E-06,      -1.38396,0.057221,0.0510991,-0.000385819
15953,-15.0,-2.0,0.0,  -7.20371E-03,  -862.201E-06,      -1.36872,0.0574387,0.0504125,-0.000409916
15954,-16.0,-2.0,0.0,  -7.61686E-03,  -841.372E-06,      -1.35230,0.0576671,0.0496814,-0.000433173
15959,-17.0,-2.0,0.0,  -8.01471E-03,  -819.328E-06,      -1.33467,0.0579053,0.0489068,-0.000455495
15960,-18.0,-2.0,0.0,  -8.39561E-03,  -796.107E-06,      -1.31580,0.0581524,0.0480901,-0.000476784
15965,-19.0,-2.0,0.0,  -8.75781E-03,  -771.755E-06,      -1.29567,0.0584075,0.0472326,-0.000496934
15968,-20.0,-2.0,0.0,  -9.09940E-03,  -746.323E-06,      -1.27425,0.0586695,0.0463363,-0.000515837
15969,-21.0,-2.0,0.0,  -9.41840E-03,  -719.872E-06,      -1.25151,0.0589374,0.0454029,-0.000533379
15974,-22.0,-2.0,0.0,  -9.71268E-03,  -692.467E-06,      -1.22744,0.0592102,0.0444348,-0.000549446
15975,-23.0,-2.0,0.0,  -9.98001E-03,  -664.183E-06,      -1.20200,0.0594868,0.0434346,-0.000563918
15980,-24.0,-2.0,0.0,  -10.2180E-03,  -635.102E-06,      -1.17516,0.059766,0.042405,-0.00057668
15983,-25.0,-2.0,0.0,  -10.4242E-03,  -605.313E-06,      -1.14691,0.0600468,0.0413492,-0.000587615
15984,-26.0,-2.0,0.0,  -10.5961E-03,  -574.914E-06,      -1.11722,0.060328,0.0402705,-0.000596609
15989,-27.0,-2.0,0.0,  -10.7308E-03,  -544.010E-06,      -1.08606,0.0606085,0.0391726,-0.000603555
15990,-28.0,-2.0,0.0,  -10.8258E-03,  -512.712E-06,      -1.05342,0.0608872,0.0380595,-0.000608349
15995,-29.0,-2.0,0.0,  -10.8779E-03,  -481.140E-06,      -1.01926,0.061163,0.0369353,-0.000610899
15998,-30.0,-2.0,0.0,  -10.8843E-03,  -449.418E-06,  -983.573E-03,0.0614348,0.0358045,-0.000611122
15999,-31.0,-2.0,0.0,  -10.8420E-03,  -417.678E-06,  -946.334E-03,0.0617016,0.0346717,-0.000608947
16004,-32.0,-2.0,0.0,  -10.7477E-03,  -386.055E-06,  -907.525E-03,0.0619624,0.0335417,-0.000604317
16005,-33.0,-2.0,0.0,  -10.5982E-03,  -354.688E-06,  -867.131E-03,0.0622163,0.0324194,-0.000597192
16010,-34.0,-2.0,0.0,  -10.3903E-03,  -323.720E-06,  -825.133E-03,0.0624623,0.03131,-0.000587548
16013,-35.0,-2.0,0.0,  -10.1207E-03,  -293.295E-06,  -781.519E-03,0.0626995,0.0302185,-0.000575379
16014,-36.0,-2.0,0.0,  -9.78590E-03,  -263.559E-06,  -736.274E-03,0.0629271,0.0291502,-0.0005607
16019,-37.0,-2.0,0.0,  -9.38260E-03,  -234.659E-06,  -689.387E-03,0.0631443,0.0281102,-0.000543545
16020,-38.0,-2.0,0.0,  -8.90732E-03,  -206.738E-06,  -640.848E-03,0.0633498,0.0271037,-0.000523971
16025,-39.0,-2.0,0.0,  -8.35660E-03,  -179.940E-06,  -590.646E-03,0.063542,0.0261353,-0.000502059
16028,-40.0,-2.0,0.0,  -7.72697E-03,  -154.403E-06,  -538.774E-03,0.0637175,0.0252091,-0.000477916
16029,-41.0,-2.0,0.0,  -7.01501E-03,  -130.264E-06,  -485.227E-03,0.0638674,0.0243277,-0.000451699
16034,-42.0,-2.0,0.0,  -6.21748E-03,  -107.655E-06,  -430.003E-03,0.0639687,0.0234887,-0.000423623
16035,-43.0,-2.0,0.0,  -5.33167E-03,  -86.7020E-06,  -373.112E-03,0.0639574,0.0226775,-0.000394059
16040,-44.0,-2.0,0.0,  -4.35642E-03,  -67.5331E-06,  -314.587E-03,0.063655,0.021845,-0.000363614
16043,-45.0,-2.0,0.0,  -3.29510E-03,  -50.2797E-06,  -254.538E-03,0.0625621,0.0208453,-0.000333449
16044,-46.0,-2.0,0.0,  -2.16388E-03,  -35.0939E-06,  -193.272E-03,0.0592747,0.019261,-0.000305381
16049,-47.0,-2.0,0.0,  -1.01507E-03,  -22.1789E-06,  -131.664E-03,0.049841,0.0159111,-0.000281811
16050,-48.0,-2.0,0.0,   2.25889E-06,  -11.8318E-06,  -72.1781E-03,0.023118,0.00745914,-0.000261039
16055,-49.0,-2.0,0.0,   518.834E-06,  -4.42611E-06,  -21.7570E-03,-0.0523464,-0.0155144,-0.000217774
16058,-50.0,-2.0,0.0,   2.89939E-39,  -880.996E-42,           -0.,-0.108071,-0.0324246,-0.000131385
16059,50.0,-3.0,0.0,  -2.89501E-39,  -881.334E-42,           -0.,-0.107988,-0.0323996,0.000196934
16064,49.0,-3.0,0.0,  -517.842E-06,  -6.63189E-06,  -21.7299E-03,-0.0523641,-0.01552,0.000326734
16065,48.0,-3.0,0.0,  -2.40110E-06,  -17.7368E-06,  -72.0972E-03,0.0229884,0.0074203,0.000391795
16070,47.0,-3.0,0.0,   1.01344E-03,  -33.2590E-06,  -131.532E-03,0.049706,0.0158716,0.000423012
16073,46.0,-3.0,0.0,   2.16087E-03,  -52.6375E-06,  -193.092E-03,0.0591499,0.0192259,0.000458399
16074,45.0,-3.0,0.0,   3.29081E-03,  -75.4251E-06,  -254.311E-03,0.0624452,0.0208142,0.00050054
16079,44.0,-3.0,0.0,   4.35085E-03,  -101.316E-06,  -314.312E-03,0.0635423,0.0218172,0.000545836
16080,43.0,-3.0,0.0,   5.32479E-03,  -130.081E-06,  -372.787E-03,0.0638465,0.0226525,0.000591559
16085,42.0,-3.0,0.0,   6.20924E-03,  -161.522E-06,  -429.627E-03,0.0638585,0.0234663,0.000635958
16088,41.0,-3.0,0.0,   7.00537E-03,  -195.448E-06,  -484.796E-03,0.0637572,0.0243079,0.000678118
16089,40.0,-3.0,0.0,   7.71590E-03,  -231.667E-06,  -538.286E-03,0.0636069,0.0251922,0.000717481
16094,39.0,-3.0,0.0,   8.34409E-03,  -269.980E-06,  -590.098E-03,0.063431,0.0261212,0.000753722
16095,38.0,-3.0,0.0,   8.89337E-03,  -310.183E-06,  -640.239E-03,0.0632382,0.0270925,0.000786605
16100,37.0,-3.0,0.0,   9.36722E-03,  -352.067E-06,  -688.715E-03,0.063032,0.0281022,0.00081597
16103,36.0,-3.0,0.0,   9.76913E-03,  -395.417E-06,  -735.537E-03,0.0628143,0.0291452,0.000841694
16104,35.0,-3.0,0.0,   10.1026E-03,  -440.015E-06,  -780.714E-03,0.062586,0.0302166,0.000863693
16109,34.0,-3.0,0.0,   10.3709E-03,  -485.642E-06,  -824.261E-03,0.0623481,0.0313112,0.000881916
16110,33.0,-3.0,0.0,   10.5776E-03,  -532.080E-06,  -866.189E-03,0.0621015,0.0324237,0.000896343
16115,32.0,-3.0,0.0,   10.7259E-03,  -579.111E-06,  -906.514E-03,0.061847,0.033549,0.000906982
16118,31.0,-3.0,0.0,   10.8192E-03,  -626.521E-06,  -945.251E-03,0.0615855,0.034682,0.000913871
16119,30.0,-3.0,0.0,   10.8607E-03,  -674.101E-06,  -982.419E-03,0.0613181,0.0358176,0.000917073
16124,29.0,-3.0,0.0,   10.8535E-03,  -721.648E-06,      -1.01804,0.0610456,0.0369512,0.000916673
16125,28.0,-3.0,0.0,   10.8006E-03,  -768.965E-06,      -1.05212,0.0607693,0.0380779,0.000912778
16130,27.0,-3.0,0.0,   10.7051E-03,  -815.865E-06,      -1.08470,0.0604901,0.0391935,0.000905516
16133,26.0,-3.0,0.0,   10.5699E-03,  -862.170E-06,      -1.11578,0.0602091,0.0402936,0.000895027
16134,25.0,-3.0,0.0,   10.3978E-03,  -907.713E-06,      -1.14541,0.0599275,0.0413744,0.000881466
16139,24.0,-3.0,0.0,   10.1914E-03,  -952.336E-06,      -1.17359,0.0596463,0.0424322,0.000864996
16140,23.0,-3.0,0.0,   9.95341E-03,  -995.894E-06,      -1.20036,0.0593667,0.0434636,0.000845789
16145,22.0,-3.0,0.0,   9.68619E-03,  -1.03825E-03,      -1.22573,0.0590899,0.0444655,0.00082402
16148,21.0,-3.0,0.0,   9.39215E-03,  -1.07929E-03,      -1.24974,0.0588168,0.0454351,0.000799866
16149,20.0,-3.0,0.0,   9.07352E-03,  -1.11890E-03,      -1.27242,0.0585487,0.0463698,0.000773503
16154,19.0,-3.0,0.0,   8.73242E-03,  -1.15697E-03,      -1.29378,0.0582866,0.0472674,0.000745106
16155,18.0,-3.0,0.0,   8.37085E-03,  -1.19342E-03,      -1.31385,0.0580314,0.048126,0.000714845
16160,17.0,-3.0,0.0,   7.99067E-03,  -1.22818E-03,      -1.33267,0.0577843,0.0489437,0.000682882
16163,16.0,-3.0,0.0,   7.59367E-03,  -1.26117E-03,      -1.35025,0.057546,0.0497191,0.000649376
16164,15.0,-3.0,0.0,   7.18147E-03,  -1.29235E-03,      -1.36662,0.0573177,0.0504509,0.000614476
16169,14.0,-3.0,0.0,   6.75562E-03,  -1.32164E-03,      -1.38181,0.0571001,0.0511382,0.000578322
16170,13.0,-3.0,0.0,   6.31754E-03,  -1.34903E-03,      -1.39583,0.056894,0.0517799,0.000541047
16175,12.0,-3.0,0.0,   5.86855E-03,  -1.37447E-03,      -1.40872,0.0567001,0.0523756,0.000502775
16178,11.0,-3.0,0.0,   5.40990E-03,  -1.39794E-03,      -1.42050,0.0565193,0.0529245,0.000463619
16179,10.0,-3.0,0.0,   4.94270E-03,  -1.41941E-03,      -1.43117,0.0563521,0.0534264,0.000423687
16184,9.0,-3.0,0.0,   4.46802E-03,  -1.43886E-03,      -1.44077,0.056199,0.0538808,0.000383077
16185,8.0,-3.0,0.0,   3.98682E-03,  -1.45629E-03,      -1.44931,0.0560607,0.0542877,0.000341878
16190,7.0,-3.0,0.0,   3.50002E-03,  -1.47168E-03,      -1.45681,0.0559376,0.0546467,0.000300175
16193,6.0,-3.0,0.0,   3.00846E-03,  -1.48503E-03,      -1.46328,0.05583,0.054958,0.000258044
16194,5.0,-3.0,0.0,   2.51291E-03,  -1.49633E-03,      -1.46873,0.0557384,0.0552213,0.000215558
16199,4.0,-3.0,0.0,   2.01411E-03,  -1.50558E-03,      -1.47318,0.0556631,0.0554367,0.000172782
16200,3.0,-3.0,0.0,   1.51277E-03,  -1.51277E-03,      -1.47662,0.0556043,0.0556043,0.00012978
16205,2.0,-3.0,0.0,   1.00955E-03,  -1.51791E-03,      -1.47908,0.0555621,0.0557239,8.66118e-05
16208,1.0,-3.0,0.0,   505.082E-06,  -1.52099E-03,      -1.48056,0.0555367,0.0557957,4.33332e-05
16209,0.0,-3.0,0.0,  -176.029E-18,  -1.52202E-03,      -1.48105,0.0555283,0.0558196,0.0
16214,-1.0,-3.0,0.0,  -505.082E-06,  -1.52099E-03,      -1.48056,0.0555367,0.0557957,-4.33332e-05
16215,-2.0,-3.0,0.0,  -1.00955E-03,  -1.51791E-03,      -1.47908,0.0555621,0.0557239,-8.66118e-05
16220,-3.0,-3.0,0.0,  -1.51277E-03,  -1.51277E-03,      -1.47662,0.0556043,0.0556043,-0.00012978
16223,-4.0,-3.0,0.0,  -2.01411E-03,  -1.50558E-03,      -1.47318,0.0556631,0.0554367,-0.000172782
16224,-5.0,-3.0,0.0,  -2.51291E-03,  -1.49633E-03,      -1.46873,0.0557384,0.0552213,-0.000215558
16229,-6.0,-3.0,0.0,  -3.00846E-03,  -1.48503E-03,      -1.46328,0.05583,0.054958,-0.000258044
16230,-7.0,-3.0,0.0,  -3.50002E-03,  -1.47168E-03,      -1.45681,0.0559376,0.0546467,-0.000300175
16235,-8.0,-3.0,0.0,  -3.98682E-03,  -1.45629E-03,      -1.44931,0.0560607,0.0542877,-0.000341878
16238,-9.0,-3.0,0.0,  -4.46802E-03,  -1.43886E-03,      -1.44077,0.056199,0.0538808,-0.000383077
16239,-10.0,-3.0,0.0,  -4.94270E-03,  -1.41941E-03,      -1.43117,0.0563521,0.0534264,-0.000423687
16244,-11.0,-3.0,0.0,  -5.40990E-03,  -1.39794E-03,      -1.42050,0.0565193,0.0529245,-0.000463619
16245,-12.0,-3.0,0.0,  -5.86855E-03,  -1.37447E-03,      -1.40872,0.0567001,0.0523756,-0.000502775
16250,-13.0,-3.0,0.0,  -6.31754E-03,  -1.34903E-03,      -1.39583,0.056894,0.0517799,-0.000541047
16251,-14.0,-3.0,0.0,  -6.75562E-03,  -1.32164E-03,      -1.38181,0.0571001,0.0511382,-0.000578322
16256,-15.0,-3.0,0.0,  -7.18147E-03,  -1.29235E-03,      -1.36662,0.0573177,0.0504509,-0.000614476
16257,-16.0,-3.0,0.0,  -7.59367E-03,  -1.26117E-03,      -1.35025,0.057546,0.0497191,-0.000649376
16262,-17.0,-3.0,0.0,  -7.99067E-03,  -1.22818E-03,      -1.33267,0.0577843,0.0489437,-0.000682882
16265,-18.0,-3.0,0.0,  -8.37085E-03,  -1.19342E-03,      -1.31385,0.0580314,0.048126,-0.000714845
16266,-19.0,-3.0,0.0,  -8.73242E-03,  -1.15697E-03,      -1.29378,0.0582866,0.0472674,-0.000745106
16271,-20.0,-3.0,0.0,  -9.07352E-03,  -1.11890E-03,      -1.27242,0.0585487,0.0463698,-0.000773503
16272,-21.0,-3.0,0.0,  -9.39215E-03,  -1.07929E-03,      -1.24974,0.0588168,0.0454351,-0.000799866
16277,-22.0,-3.0,0.0,  -9.68619E-03,  -1.03825E-03,      -1.22573,0.0590899,0.0444655,-0.00082402
16280,-23.0,-3.0,0.0,  -9.95341E-03,  -995.894E-06,      -1.20036,0.0593667,0.0434636,-0.000845789
16281,-24.0,-3.0,0.0,  -10.1914E-03,  -952.336E-06,      -1.17359,0.0596463,0.0424322,-0.000864996
16286,-25.0,-3.0,0.0,  -10.3978E-03,  -907.713E-06,      -1.14541,0.0599275,0.0413744,-0.000881466
16287,-26.0,-3.0,0.0,  -10.5699E-03,  -862.170E-06,      -1.11578,0.0602091,0.0402936,-0.000895027
16292,-27.0,-3.0,0.0,  -10.7051E-03,  -815.865E-06,      -1.08470,0.0604901,0.0391935,-0.000905516
16295,-28.0,-3.0,0.0,  -10.8006E-03,  -768.965E-06,      -1.05212,0.0607693,0.0380779,-0.000912778
16296,-29.0,-3.0,0.0,  -10.8535E-03,  -721.648E-06,      -1.01804,0.0610456,0.0369512,-0.000916673
16301,-30.0,-3.0,0.0,  -10.8607E-03,  -674.101E-06,  -982.419E-03,0.0613181,0.0358176,-0.000917073
16302,-31.0,-3.0,0.0,  -10.8192E-03,  -626.521E-06,  -945.251E-03,0.0615855,0.034682,-0.000913871
16307,-32.0,-3.0,0.0,  -10.7259E-03,  -579.111E-06,  -906.514E-03,0.061847,0.033549,-0.000906982
16310,-33.0,-3.0,0.0,  -10.5776E-03,  -532.080E-06,  -866.189E-03,0.0621015,0.0324237,-0.000896343
16311,-34.0,-3.0,0.0,  -10.3709E-03,  -485.642E-06,  -824.261E-03,0.0623481,0.0313112,-0.000881916
16316,-35.0,-3.0,0.0,  -10.1026E-03,  -440.015E-06,  -780.714E-03,0.062586,0.0302166,-0.000863693
16317,-36.0,-3.0,0.0,  -9.76913E-03,  -395.417E-06,  -735.537E-03,0.0628143,0.0291452,-0.000841694
16322,-37.0,-3.0,0.0,  -9.36722E-03,  -352.067E-06,  -688.715E-03,0.063032,0.0281022,-0.00081597
16325,-38.0,-3.0,0.0,  -8.89337E-03,  -310.183E-06,  -640.239E-03,0.0632382,0.0270925,-0.000786605
16326,-39.0,-3.0,0.0,  -8.34409E-03,  -269.980E-06,  -590.098E-03,0.063431,0.0261212,-0.000753722
16331,-40.0,-3.0,0.0,  -7.71590E-03,  -231.667E-06,  -538.286E-03,0.0636069,0.0251922,-0.000717481
16332,-41.0,-3.0,0.0,  -7.00537E-03,  -195.448E-06,  -484.796E-03,0.0637572,0.0243079,-0.000678118
16337,-42.0,-3.0,0.0,  -6.20924E-03,  -161.522E-06,  -429.627E-03,0.0638585,0.0234663,-0.000635958
16340,-43.0,-3.0,0.0,  -5.32479E-03,  -130.081E-06,  -372.787E-03,0.0638465,0.0226525,-0.000591559
16341,-44.0,-3.0,0.0,  -4.35085E-03,  -101.316E-06,  -314.312E-03,0.0635423,0.0218172,-0.000545836
16346,-45.0,-3.0,0.0,  -3.29081E-03,  -75.4251E-06,  -254.311E-03,0.0624452,0.0208142,-0.00050054
16347,-46.0,-3.0,0.0,  -2.16087E-03,  -52.6375E-06,  -193.092E-03,0.0591499,0.0192259,-0.000458399
16352,-47.0,-3.0,0.0,  -1.01344E-03,  -33.2590E-06,  -131.532E-03,0.049706,0.0158716,-0.000423012
16355,-48.0,-3.0,0.0,   2.40110E-06,  -17.7368E-06,  -72.0972E-03,0.0229884,0.0074203,-0.000391795
16356,-49.0,-3.0,0.0,   517.842E-06,  -6.63189E-06,  -21.7299E-03,-0.0523641,-0.01552,-0.000326734
16361,-50.0,-3.0,0.0,   2.89501E-39,  -881.334E-42,           -0.,-0.107988,-0.0323996,-0.000196934
16362,50.0,-4.0,0.0,  -2.88820E-39,  -880.918E-42,           -0.,-0.10787,-0.0323643,0.000262308
16367,49.0,-4.0,0.0,  -516.450E-06,  -8.82890E-06,  -21.6920E-03,-0.0523886,-0.0155278,0.000435779
16370,48.0,-4.0,0.0,  -2.60046E-06,  -23.6289E-06,  -71.9837E-03,0.0228068,0.00736589,0.000522836
16371,47.0,-4.0,0.0,   1.01115E-03,  -44.3278E-06,  -131.346E-03,0.0495167,0.0158162,0.000564568
16376,46.0,-4.0,0.0,   2.15665E-03,  -70.1767E-06,  -192.839E-03,0.058975,0.0191767,0.00061181
16377,45.0,-4.0,0.0,   3.28478E-03,  -100.577E-06,  -253.992E-03,0.0622813,0.0207708,0.000668072
16382,44.0,-4.0,0.0,   4.34303E-03,  -135.119E-06,  -313.926E-03,0.0633844,0.0217783,0.00072856
16385,43.0,-4.0,0.0,   5.31512E-03,  -173.494E-06,  -372.331E-03,0.0636912,0.0226175,0.000789626
16386,42.0,-4.0,0.0,   6.19766E-03,  -215.438E-06,  -429.098E-03,0.063704,0.023435,0.000848923
16391,41.0,-4.0,0.0,   6.99183E-03,  -260.693E-06,  -484.191E-03,0.0636027,0.0242804,0.000905224
16392,40.0,-4.0,0.0,   7.70035E-03,  -309.003E-06,  -537.601E-03,0.0634519,0.0251685,0.000957778
16397,39.0,-4.0,0.0,   8.32651E-03,  -360.103E-06,  -589.330E-03,0.0632753,0.0261015,0.00100615
16400,38.0,-4.0,0.0,   8.87376E-03,  -413.718E-06,  -639.384E-03,0.0630818,0.027077,0.00105002
16401,37.0,-4.0,0.0,   9.34562E-03,  -469.567E-06,  -687.771E-03,0.0628748,0.0280909,0.00108918
16406,36.0,-4.0,0.0,   9.74557E-03,  -527.365E-06,  -734.501E-03,0.0626562,0.0291383,0.00112346
16407,35.0,-4.0,0.0,   10.0771E-03,  -586.819E-06,  -779.585E-03,0.062427,0.0302141,0.00115276
16412,34.0,-4.0,0.0,   10.3437E-03,  -647.637E-06,  -823.035E-03,0.0621881,0.031313,0.001177
16415,33.0,-4.0,0.0,   10.5487E-03,  -709.527E-06,  -864.866E-03,0.0619406,0.0324299,0.00119616
16416,32.0,-4.0,0.0,   10.6954E-03,  -772.198E-06,  -905.093E-03,0.0616851,0.0335594,0.00121025
16421,31.0,-4.0,0.0,   10.7873E-03,  -835.364E-06,  -943.731E-03,0.0614227,0.0346965,0.00121933
16422,30.0,-4.0,0.0,   10.8275E-03,  -898.747E-06,  -980.799E-03,0.0611544,0.0358361,0.00122349
16427,29.0,-4.0,0.0,   10.8191E-03,  -962.074E-06,      -1.01632,0.0608812,0.0369734,0.00122283
16430,28.0,-4.0,0.0,   10.7653E-03,  -1.02509E-03,      -1.05030,0.060604,0.0381038,0.00121751
16431,27.0,-4.0,0.0,   10.6691E-03,  -1.08753E-03,      -1.08278,0.0603241,0.0392227,0.00120769
16436,26.0,-4.0,0.0,   10.5333E-03,  -1.14918E-03,      -1.11377,0.0600424,0.0403261,0.00119357
16437,25.0,-4.0,0.0,   10.3608E-03,  -1.20979E-03,      -1.14329,0.0597602,0.0414099,0.00117536
16442,24.0,-4.0,0.0,   10.1542E-03,  -1.26918E-03,      -1.17138,0.0594785,0.0424704,0.00115327
16445,23.0,-4.0,0.0,   9.91610E-03,  -1.32713E-03,      -1.19805,0.0591985,0.0435044,0.00112754
16446,22.0,-4.0,0.0,   9.64905E-03,  -1.38349E-03,      -1.22334,0.0589212,0.0445086,0.0010984
16451,21.0,-4.0,0.0,   9.35535E-03,  -1.43807E-03,      -1.24726,0.0586479,0.0454802,0.0010661
16452,20.0,-4.0,0.0,   9.03725E-03,  -1.49074E-03,      -1.26985,0.0583795,0.0464168,0.00103085
16457,19.0,-4.0,0.0,   8.69684E-03,  -1.54137E-03,      -1.29112,0.0581172,0.0473161,0.000992912
16460,18.0,-4.0,0.0,   8.33614E-03,  -1.58984E-03,      -1.31112,0.0578619,0.0481761,0.000952496
16461,17.0,-4.0,0.0,   7.95699E-03,  -1.63604E-03,      -1.32986,0.0576147,0.0489952,0.000909825
16466,16.0,-4.0,0.0,   7.56117E-03,  -1.67990E-03,      -1.34736,0.0573765,0.0497717,0.000865109
16467,15.0,-4.0,0.0,   7.15030E-03,  -1.72132E-03,      -1.36367,0.0571482,0.0505046,0.000818548
16472,14.0,-4.0,0.0,   6.72591E-03,  -1.76026E-03,      -1.37879,0.0569307,0.0511928,0.000770328
16475,13.0,-4.0,0.0,   6.28943E-03,  -1.79664E-03,      -1.39276,0.0567247,0.0518353,0.000720626
16476,12.0,-4.0,0.0,   5.84216E-03,  -1.83044E-03,      -1.40559,0.056531,0.0524316,0.000669606
16481,11.0,-4.0,0.0,   5.38533E-03,  -1.86161E-03,      -1.41731,0.0563504,0.0529812,0.00061742
16482,10.0,-4.0,0.0,   4.92005E-03,  -1.89013E-03,      -1.42794,0.0561833,0.0534835,0.000564209
16487,9.0,-4.0,0.0,   4.44738E-03,  -1.91597E-03,      -1.43749,0.0560305,0.0539384,0.000510104
16490,8.0,-4.0,0.0,   3.96828E-03,  -1.93911E-03,      -1.44599,0.0558924,0.0543455,0.000455223
16491,7.0,-4.0,0.0,   3.48364E-03,  -1.95955E-03,      -1.45346,0.0557694,0.0547049,0.000399678
16496,6.0,-4.0,0.0,   2.99430E-03,  -1.97728E-03,      -1.45989,0.0556621,0.0550164,0.00034357
16497,5.0,-4.0,0.0,   2.50103E-03,  -1.99228E-03,      -1.46532,0.0555707,0.0552799,0.000286993
16502,4.0,-4.0,0.0,   2.00456E-03,  -2.00456E-03,      -1.46974,0.0554955,0.0554955,0.000230037
16505,3.0,-4.0,0.0,   1.50558E-03,  -2.01411E-03,      -1.47318,0.0554367,0.0556631,0.000172782
16506,2.0,-4.0,0.0,   1.00474E-03,  -2.02094E-03,      -1.47562,0.0553946,0.0557828,0.000115308
16511,1.0,-4.0,0.0,   502.673E-06,  -2.02503E-03,      -1.47709,0.0553693,0.0558547,5.769e-05
16512,0.0,-4.0,0.0,  -3.78996E-15,  -2.02639E-03,      -1.47758,0.0553609,0.0558786,-4.54747e-13
16517,-1.0,-4.0,0.0,  -502.673E-06,  -2.02503E-03,      -1.47709,0.0553693,0.0558547,-5.769e-05
16520,-2.0,-4.0,0.0,  -1.00474E-03,  -2.02094E-03,      -1.47562,0.0553946,0.0557828,-0.000115308
16521,-3.0,-4.0,0.0,  -1.50558E-03,  -2.01411E-03,      -1.47318,0.0554367,0.0556631,-0.000172782
16526,-4.0,-4.0,0.0,  -2.00456E-03,  -2.00456E-03,      -1.46974,0.0554955,0.0554955,-0.000230037
16527,-5.0,-4.0,0.0,  -2.50103E-03,  -1.99228E-03,      -1.46532,0.0555707,0.0552799,-0.000286993
16532,-6.0,-4.0,0.0,  -2.99430E-03,  -1.97728E-03,      -1.45989,0.0556621,0.0550164,-0.00034357
16535,-7.0,-4.0,0.0,  -3.48364E-03,  -1.95955E-03,      -1.45346,0.0557694,0.0547049,-0.000399678
16536,-8.0,-4.0,0.0,  -3.96828E-03,  -1.93911E-03,      -1.44599,0.0558924,0.0543455,-0.000455223
16541,-9.0,-4.0,0.0,  -4.44738E-03,  -1.91597E-03,      -1.43749,0.0560305,0.0539384,-0.000510104
16542,-10.0,-4.0,0.0,  -4.92005E-03,  -1.89013E-03,      -1.42794,0.0561833,0.0534835,-0.000564209
16547,-11.0,-4.0,0.0,  -5.38533E-03,  -1.86161E-03,      -1.41731,0.0563504,0.0529812,-0.00061742
16550,-12.0,-4.0,0.0,  -5.84216E-03,  -1.83044E-03,      -1.40559,0.056531,0.0524316,-0.000669606
16551,-13.0,-4.0,0.0,  -6.28943E-03,  -1.79664E-03,      -1.39276,0.0567247,0.0518353,-0.000720626
16556,-14.0,-4.0,0.0,  -6.72591E-03,  -1.76026E-03,      -1.37879,0.0569307,0.0511928,-0.000770328
16557,-15.0,-4.0,0.0,  -7.15030E-03,  -1.72132E-03,      -1.36367,0.0571482,0.0505046,-0.000818548
16562,-16.0,-4.0,0.0,  -7.56117E-03,  -1.67990E-03,      -1.34736,0.0573765,0.0497717,-0.000865109
16565,-17.0,-4.0,0.0,  -7.95699E-03,  -1.63604E-03,      -1.32986,0.0576147,0.0489952,-0.000909825
16566,-18.0,-4.0,0.0,  -8.33614E-03,  -1.58984E-03,      -1.31112,0.0578619,0.0481761,-0.000952496
16571,-19.0,-4.0,0.0,  -8.69684E-03,  -1.54137E-03,      -1.29112,0.0581172,0.0473161,-0.000992912
16572,-20.0,-4.0,0.0,  -9.03725E-03,  -1.49074E-03,      -1.26985,0.0583795,0.0464168,-0.00103085
16577,-21.0,-4.0,0.0,  -9.35535E-03,  -1.43807E-03,      -1.24726,0.0586479,0.0454802,-0.0010661
16580,-22.0,-4.0,0.0,  -9.64905E-03,  -1.38349E-03,      -1.22334,0.0589212,0.0445086,-0.0010984
16581,-23.0,-4.0,0.0,  -9.91610E-03,  -1.32713E-03,      -1.19805,0.0591985,0.0435044,-0.00112754
16586,-24.0,-4.0,0.0,  -10.1542E-03,  -1.26918E-03,      -1.17138,0.0594785,0.0424704,-0.00115327
16587,-25.0,-4.0,0.0,  -10.3608E-03,  -1.20979E-03,      -1.14329,0.0597602,0.0414099,-0.00117536
16592,-26.0,-4.0,0.0,  -10.5333E-03,  -1.14918E-03,      -1.11377,0.0600424,0.0403261,-0.00119357
16595,-27.0,-4.0,0.0,  -10.6691E-03,  -1.08753E-03,      -1.08278,0.0603241,0.0392227,-0.00120769
16596,-28.0,-4.0,0.0,  -10.7653E-03,  -1.02509E-03,      -1.05030,0.060604,0.0381038,-0.00121751
16601,-29.0,-4.0,0.0,  -10.8191E-03,  -962.074E-06,      -1.01632,0.0608812,0.0369734,-0.00122283
16602,-30.0,-4.0,0.0,  -10.8275E-03,  -898.747E-06,  -980.799E-03,0.0611544,0.0358361,-0.00122349
16607,-31.0,-4.0,0.0,  -10.7873E-03,  -835.364E-06,  -943.731E-03,0.0614227,0.0346965,-0.00121933
16610,-32.0,-4.0,0.0,  -10.6954E-03,  -772.198E-06,  -905.093E-03,0.0616851,0.0335594,-0.00121025
16611,-33.0,-4.0,0.0,  -10.5487E-03,  -709.527E-06,  -864.866E-03,0.0619406,0.0324299,-0.00119616
16616,-34.0,-4.0,0.0,  -10.3437E-03,  -647.637E-06,  -823.035E-03,0.0621882,0.031313,-0.001177
16617,-35.0,-4.0,0.0,  -10.0771E-03,  -586.819E-06,  -779.585E-03,0.062427,0.0302141,-0.00115276
16622,-36.0,-4.0,0.0,  -9.74557E-03,  -527.365E-06,  -734.501E-03,0.0626562,0.0291383,-0.00112346
16625,-37.0,-4.0,0.0,  -9.34562E-03,  -469.567E-06,  -687.771E-03,0.0628748,0.0280909,-0.00108918
16626,-38.0,-4.0,0.0,  -8.87376E-03,  -413.718E-06,  -639.384E-03,0.0630818,0.027077,-0.00105002
16631,-39.0,-4.0,0.0,  -8.32651E-03,  -360.103E-06,  -589.330E-03,0.0632753,0.0261015,-0.00100615
16632,-40.0,-4.0,0.0,  -7.70035E-03,  -309.003E-06,  -537.601E-03,0.0634519,0.0251685,-0.000957778
16637,-41.0,-4.0,0.0,  -6.99183E-03,  -260.693E-06,  -484.191E-03,0.0636027,0.0242804,-0.000905224
16640,-42.0,-4.0,0.0,  -6.19766E-03,  -215.438E-06,  -429.098E-03,0.063704,0.023435,-0.000848923
16641,-43.0,-4.0,0.0,  -5.31512E-03,  -173.494E-06,  -372.331E-03,0.0636912,0.0226175,-0.000789627
16646,-44.0,-4.0,0.0,  -4.34303E-03,  -135.119E-06,  -313.926E-03,0.0633844,0.0217783,-0.00072856
16647,-45.0,-4.0,0.0,  -3.28478E-03,  -100.577E-06,  -253.992E-03,0.0622813,0.0207708,-0.000668072
16652,-46.0,-4.0,0.0,  -2.15665E-03,  -70.1767E-06,  -192.839E-03,0.058975,0.0191767,-0.00061181
16655,-47.0,-4.0,0.0,  -1.01115E-03,  -44.3278E-06,  -131.346E-03,0.0495167,0.0158162,-0.000564568
16656,-48.0,-4.0,0.0,   2.60046E-06,  -23.6289E-06,  -71.9837E-03,0.0228068,0.00736589,-0.000522836
16661,-49.0,-4.0,0.0,   516.450E-06,  -8.82890E-06,  -21.6920E-03,-0.0523886,-0.0155278,-0.000435779
16662,-50.0,-4.0,0.0,   2.88820E-39,  -880.918E-42,           -0.,-0.10787,-0.0323643,-0.000262308
16667,50.0,-5.0,0.0,  -2.87892E-39,  -879.742E-42,           -0.,-0.107719,-0.0323188,0.000327449
16670,49.0,-5.0,0.0,  -514.658E-06,  -11.0141E-06,  -21.6431E-03,-0.0524198,-0.0155378,0.000544936
16671,48.0,-5.0,0.0,  -2.85717E-06,  -29.5033E-06,  -71.8373E-03,0.0225733,0.00729591,0.000654255
16676,47.0,-5.0,0.0,   1.00819E-03,  -55.3812E-06,  -131.106E-03,0.0492732,0.0157449,0.0007066
16677,46.0,-5.0,0.0,   2.15120E-03,  -87.7097E-06,  -192.512E-03,0.0587498,0.0191134,0.00076575
16682,45.0,-5.0,0.0,   3.27699E-03,  -125.737E-06,  -253.580E-03,0.0620705,0.0207148,0.000836196
16685,44.0,-5.0,0.0,   4.33292E-03,  -168.946E-06,  -313.428E-03,0.0631812,0.0217282,0.000911957
16686,43.0,-5.0,0.0,   5.30263E-03,  -216.951E-06,  -371.743E-03,0.0634913,0.0225724,0.000988455
16691,42.0,-5.0,0.0,   6.18271E-03,  -269.416E-06,  -428.415E-03,0.0635052,0.0233947,0.00106274
16692,41.0,-5.0,0.0,   6.97433E-03,  -326.019E-06,  -483.409E-03,0.0634038,0.0242449,0.00113325
16697,40.0,-5.0,0.0,   7.68026E-03,  -386.437E-06,  -536.716E-03,0.0632525,0.0251381,0.00119906
16700,39.0,-5.0,0.0,   8.30380E-03,  -450.335E-06,  -588.337E-03,0.0630751,0.0260763,0.0012596
16701,38.0,-5.0,0.0,   8.84845E-03,  -517.369E-06,  -638.280E-03,0.0628805,0.0270572,0.00131448
16706,37.0,-5.0,0.0,   9.31772E-03,  -587.188E-06,  -686.552E-03,0.0626724,0.0280766,0.00136344
16707,36.0,-5.0,0.0,   9.71516E-03,  -659.431E-06,  -733.163E-03,0.0624526,0.0291296,0.00140626
16712,35.0,-5.0,0.0,   10.0443E-03,  -733.731E-06,  -778.126E-03,0.0622222,0.030211,0.00144282
16715,34.0,-5.0,0.0,   10.3085E-03,  -809.724E-06,  -821.453E-03,0.0619822,0.0313156,0.00147302
16716,33.0,-5.0,0.0,   10.5113E-03,  -887.040E-06,  -863.159E-03,0.0617334,0.0324379,0.00149685
16721,32.0,-5.0,0.0,   10.6561E-03,  -965.317E-06,  -903.258E-03,0.0614767,0.0335729,0.00151432
16722,31.0,-5.0,0.0,   10.7461E-03,  -1.04420E-03,  -941.768E-03,0.0612132,0.0347152,0.0015255
16727,30.0,-5.0,0.0,   10.7846E-03,  -1.12333E-03,  -978.707E-03,0.0609437,0.03586,0.00153051
16730,29.0,-5.0,0.0,   10.7748E-03,  -1.20238E-03,      -1.01409,0.0606694,0.0370022,0.00152948
16731,28.0,-5.0,0.0,   10.7198E-03,  -1.28102E-03,      -1.04795,0.0603912,0.0381372,0.00152262
16736,27.0,-5.0,0.0,   10.6226E-03,  -1.35893E-03,      -1.08030,0.0601103,0.0392605,0.00151013
16737,26.0,-5.0,0.0,   10.4860E-03,  -1.43583E-03,      -1.11116,0.0598278,0.0403679,0.00149227
16742,25.0,-5.0,0.0,   10.3130E-03,  -1.51143E-03,      -1.14056,0.0595448,0.0414555,0.00146929
16745,24.0,-5.0,0.0,   10.1061E-03,  -1.58548E-03,      -1.16853,0.0592624,0.0425196,0.00144148
16746,23.0,-5.0,0.0,   9.86804E-03,  -1.65773E-03,      -1.19508,0.0589818,0.0435568,0.00140912
16751,22.0,-5.0,0.0,   9.60120E-03,  -1.72796E-03,      -1.22025,0.0587041,0.0445639,0.00137252
16752,21.0,-5.0,0.0,   9.30795E-03,  -1.79598E-03,      -1.24405,0.0584303,0.0455382,0.00133197
16757,20.0,-5.0,0.0,   8.99053E-03,  -1.86160E-03,      -1.26653,0.0581616,0.0464772,0.00128777
16760,19.0,-5.0,0.0,   8.65103E-03,  -1.92466E-03,      -1.28770,0.0578991,0.0473787,0.00124021
16761,18.0,-5.0,0.0,   8.29145E-03,  -1.98502E-03,      -1.30759,0.0576437,0.0482406,0.00118958
16766,17.0,-5.0,0.0,   7.91364E-03,  -2.04255E-03,      -1.32623,0.0573965,0.0490613,0.00113616
16767,16.0,-5.0,0.0,   7.51935E-03,  -2.09715E-03,      -1.34365,0.0571583,0.0498394,0.0010802
16772,15.0,-5.0,0.0,   7.11019E-03,  -2.14871E-03,      -1.35986,0.0569301,0.0505735,0.00102195
16775,14.0,-5.0,0.0,   6.68770E-03,  -2.19716E-03,      -1.37490,0.0567127,0.0512628,0.000961653
16776,13.0,-5.0,0.0,   6.25327E-03,  -2.24244E-03,      -1.38879,0.0565069,0.0519063,0.000899524
16781,12.0,-5.0,0.0,   5.80821E-03,  -2.28449E-03,      -1.40155,0.0563135,0.0525035,0.000835766
16782,11.0,-5.0,0.0,   5.35372E-03,  -2.32327E-03,      -1.41320,0.0561331,0.0530537,0.00077057
16787,10.0,-5.0,0.0,   4.89093E-03,  -2.35874E-03,      -1.42376,0.0559663,0.0535567,0.000704109
16790,9.0,-5.0,0.0,   4.42085E-03,  -2.39088E-03,      -1.43326,0.0558137,0.0540121,0.000636546
16791,8.0,-5.0,0.0,   3.94444E-03,  -2.41966E-03,      -1.44171,0.0556759,0.0544197,0.000568029
16796,7.0,-5.0,0.0,   3.46259E-03,  -2.44508E-03,      -1.44913,0.0555532,0.0547794,0.000498694
16797,6.0,-5.0,0.0,   2.97611E-03,  -2.46711E-03,      -1.45553,0.0554461,0.0550911,0.000428666
16802,5.0,-5.0,0.0,   2.48577E-03,  -2.48577E-03,      -1.46092,0.0553549,0.0553549,0.000358063
16805,4.0,-5.0,0.0,   1.99228E-03,  -2.50103E-03,      -1.46532,0.0552799,0.0555707,0.000286993
16806,3.0,-5.0,0.0,   1.49633E-03,  -2.51291E-03,      -1.46873,0.0552213,0.0557384,0.000215558
16811,2.0,-5.0,0.0,   998.553E-06,  -2.52139E-03,      -1.47116,0.0551793,0.0558583,0.000143853
16812,1.0,-5.0,0.0,   499.575E-06,  -2.52648E-03,      -1.47262,0.0551541,0.0559302,7.19703e-05
16817,0.0,-5.0,0.0,  -2.89763E-15,  -2.52817E-03,      -1.47310,0.0551457,0.0559541,4.54747e-13
16820,-1.0,-5.0,0.0,  -499.575E-06,  -2.52648E-03,      -1.47262,0.0551541,0.0559302,-7.19703e-05
16821,-2.0,-5.0,0.0,  -998.553E-06,  -2.52139E-03,      -1.47116,0.0551793,0.0558583,-0.000143853
16826,-3.0,-5.0,0.0,  -1.49633E-03,  -2.51291E-03,      -1.46873,0.0552213,0.0557384,-0.000215558
16827,-4.0,-5.0,0.0,  -1.99228E-03,  -2.50103E-03,      -1.46532,0.0552799,0.0555707,-0.000286993
16832,-5.0,-5.0,0.0,  -2.48577E-03,  -2.48577E-03,      -1.46092,0.0553549,0.0553549,-0.000358063
16835,-6.0,-5.0,0.0,  -2.97611E-03,  -2.46711E-03,      -1.45553,0.0554461,0.0550911,-0.000428666
16836,-7.0,-5.0,0.0,  -3.46259E-03,  -2.44508E-03,      -1.44913,0.0555532,0.0547794,-0.000498694
16841,-8.0,-5.0,0.0,  -3.94444E-03,  -2.41966E-03,      -1.44171,0.0556759,0.0544197,-0.000568029
16842,-9.0,-5.0,0.0,  -4.42085E-03,  -2.39088E-03,      -1.43326,0.0558137,0.0540121,-0.000636546
16847,-10.0,-5.0,0.0,  -4.89093E-03,  -2.35874E-03,      -1.42376,0.0559663,0.0535567,-0.000704109
16850,-11.0,-5.0,0.0,  -5.35372E-03,  -2.32327E-03,      -1.41320,0.0561331,0.0530537,-0.00077057
16851,-12.0,-5.0,0.0,  -5.80821E-03,  -2.28449E-03,      -1.40155,0.0563135,0.0525035,-0.000835766
16856,-13.0,-5.0,0.0,  -6.25327E-03,  -2.24244E-03,      -1.38879,0.0565069,0.0519063,-0.000899524
16857,-14.0,-5.0,0.0,  -6.68770E-03,  -2.19716E-03,      -1.37490,0.0567127,0.0512628,-0.000961653
16862,-15.0,-5.0,0.0,  -7.11019E-03,  -2.14871E-03,      -1.35986,0.0569301,0.0505735,-0.00102195
16865,-16.0,-5.0,0.0,  -7.51935E-03,  -2.09715E-03,      -1.34365,0.0571583,0.0498394,-0.0010802
16866,-17.0,-5.0,0.0,  -7.91364E-03,  -2.04255E-03,      -1.32623,0.0573965,0.0490613,-0.00113616
16871,-18.0,-5.0,0.0,  -8.29145E-03,  -1.98502E-03,      -1.30759,0.0576437,0.0482406,-0.00118958
16872,-19.0,-5.0,0.0,  -8.65103E-03,  -1.92466E-03,      -1.28770,0.0578991,0.0473787,-0.00124021
16877,-20.0,-5.0,0.0,  -8.99053E-03,  -1.86160E-03,      -1.26653,0.0581616,0.0464772,-0.00128777
16880,-21.0,-5.0,0.0,  -9.30795E-03,  -1.79598E-03,      -1.24405,0.0584303,0.0455382,-0.00133197
16881,-22.0,-5.0,0.0,  -9.60120E-03,  -1.72796E-03,      -1.22025,0.0587041,0.0445639,-0.00137252
16886,-23.0,-5.0,0.0,  -9.86804E-03,  -1.65773E-03,      -1.19508,0.0589818,0.0435568,-0.00140912
16887,-24.0,-5.0,0.0,  -10.1061E-03,  -1.58548E-03,      -1.16853,0.0592624,0.0425196,-0.00144148
16892,-25.0,-5.0,0.0,  -10.3130E-03,  -1.51143E-03,      -1.14056,0.0595448,0.0414555,-0.00146929
16895,-26.0,-5.0,0.0,  -10.4860E-03,  -1.43583E-03,      -1.11116,0.0598278,0.0403679,-0.00149227
16896,-27.0,-5.0,0.0,  -10.6226E-03,  -1.35893E-03,      -1.08030,0.0601103,0.0392605,-0.00151013
16901,-28.0,-5.0,0.0,  -10.7198E-03,  -1.28102E-03,      -1.04795,0.0603912,0.0381372,-0.00152262
16902,-29.0,-5.0,0.0,  -10.7748E-03,  -1.20238E-03,      -1.01409,0.0606694,0.0370022,-0.00152948
16907,-30.0,-5.0,0.0,  -10.7846E-03,  -1.12333E-03,  -978.707E-03,0.0609437,0.03586,-0.00153051
16910,-31.0,-5.0,0.0,  -10.7461E-03,  -1.04420E-03,  -941.768E-03,0.0612132,0.0347152,-0.0015255
16911,-32.0,-5.0,0.0,  -10.6561E-03,  -965.317E-06,  -903.258E-03,0.0614767,0.0335729,-0.00151432
16916,-33.0,-5.0,0.0,  -10.5113E-03,  -887.040E-06,  -863.159E-03,0.0617334,0.0324379,-0.00149685
16917,-34.0,-5.0,0.0,  -10.3085E-03,  -809.724E-06,  -821.453E-03,0.0619822,0.0313156,-0.00147302
16922,-35.0,-5.0,0.0,  -10.0443E-03,  -733.731E-06,  -778.126E-03,0.0622222,0.030211,-0.00144282
16925,-36.0,-5.0,0.0,  -9.71516E-03,  -659.431E-06,  -733.163E-03,0.0624526,0.0291296,-0.00140626
16926,-37.0,-5.0,0.0,  -9.31772E-03,  -587.188E-06,  -686.552E-03,0.0626724,0.0280766,-0.00136344
16931,-38.0,-5.0,0.0,  -8.84845E-03,  -517.369E-06,  -638.280E-03,0.0628805,0.0270572,-0.00131448
16932,-39.0,-5.0,0.0,  -8.30380E-03,  -450.335E-06,  -588.337E-03,0.0630751,0.0260763,-0.0012596
16937,-40.0,-5.0,0.0,  -7.68026E-03,  -386.437E-06,  -536.716E-03,0.0632525,0.0251381,-0.00119906
16940,-41.0,-5.0,0.0,  -6.97433E-03,  -326.019E-06,  -483.409E-03,0.0634038,0.0242449,-0.00113325
16941,-42.0,-5.0,0.0,  -6.18271E-03,  -269.416E-06,  -428.415E-03,0.0635052,0.0233947,-0.00106274
16946,-43.0,-5.0,0.0,  -5.30263E-03,  -216.951E-06,  -371.743E-03,0.0634913,0.0225724,-0.000988455
16947,-44.0,-5.0,0.0,  -4.33292E-03,  -168.946E-06,  -313.428E-03,0.0631812,0.0217282,-0.000911957
16952,-45.0,-5.0,0.0,  -3.27699E-03,  -125.737E-06,  -253.580E-03,0.0620705,0.0207148,-0.000836196
16955,-46.0,-5.0,0.0,  -2.15120E-03,  -87.7097E-06,  -192.512E-03,0.0587498,0.0191134,-0.00076575
16956,-47.0,-5.0,0.0,  -1.00819E-03,  -55.3812E-06,  -131.106E-03,0.0492732,0.0157449,-0.0007066
16961,-48.0,-5.0,0.0,   2.85717E-06,  -29.5033E-06,  -71.8373E-03,0.0225733,0.00729591,-0.000654255
16962,-49.0,-5.0,0.0,   514.658E-06,  -11.0141E-06,  -21.6431E-03,-0.0524198,-0.0155378,-0.000544936
16967,-50.0,-5.0,0.0,   2.87892E-39,  -879.742E-42,           -0.,-0.107719,-0.0323188,-0.000327449
16970,50.0,-6.0,0.0,  -2.86717E-39,  -877.797E-42,           -0.,-0.107532,-0.0322629,0.000392294
16971,49.0,-6.0,0.0,  -512.462E-06,  -13.1845E-06,  -21.5832E-03,-0.0524573,-0.0155497,0.000654232
16976,48.0,-6.0,0.0,  -3.17142E-06,  -35.3554E-06,  -71.6578E-03,0.0222878,0.00721032,0.000786149
16977,47.0,-6.0,0.0,   1.00455E-03,  -66.4148E-06,  -130.812E-03,0.048975,0.0156576,0.000849229
16982,46.0,-6.0,0.0,   2.14450E-03,  -105.234E-06,  -192.111E-03,0.0584741,0.0190359,0.000920353
16985,45.0,-6.0,0.0,   3.26742E-03,  -150.906E-06,  -253.075E-03,0.0618123,0.0206463,0.00100506
16986,44.0,-6.0,0.0,   4.32050E-03,  -202.805E-06,  -312.817E-03,0.0629325,0.0216669,0.0010962
16991,43.0,-6.0,0.0,   5.28727E-03,  -260.462E-06,  -371.021E-03,0.0632467,0.0225174,0.00118824
16992,42.0,-6.0,0.0,   6.16432E-03,  -323.472E-06,  -427.577E-03,0.063262,0.0233455,0.00127761
16997,41.0,-6.0,0.0,   6.95283E-03,  -391.444E-06,  -482.449E-03,0.0631605,0.0242017,0.00136244
17000,40.0,-6.0,0.0,   7.65557E-03,  -463.988E-06,  -535.629E-03,0.0630085,0.025101,0.00144157
17001,39.0,-6.0,0.0,   8.27590E-03,  -540.699E-06,  -587.118E-03,0.06283,0.0260456,0.00151434
17006,38.0,-6.0,0.0,   8.81733E-03,  -621.164E-06,  -636.923E-03,0.0626341,0.0270331,0.00158026
17007,37.0,-6.0,0.0,   9.28344E-03,  -704.954E-06,  -685.054E-03,0.0624247,0.0280593,0.00163902
17012,36.0,-6.0,0.0,   9.67779E-03,  -791.637E-06,  -731.520E-03,0.0622034,0.0291192,0.00169036
17015,35.0,-6.0,0.0,   10.0039E-03,  -880.771E-06,  -776.334E-03,0.0619716,0.0302075,0.00173413
17016,34.0,-6.0,0.0,   10.2653E-03,  -971.914E-06,  -819.509E-03,0.06173,0.0313189,0.00177024
17021,33.0,-6.0,0.0,   10.4655E-03,  -1.06462E-03,  -861.061E-03,0.0614797,0.0324481,0.00179865
17022,32.0,-6.0,0.0,   10.6078E-03,  -1.15846E-03,  -901.004E-03,0.0612216,0.0335897,0.00181939
17027,31.0,-6.0,0.0,   10.6955E-03,  -1.25300E-03,  -939.356E-03,0.0609566,0.0347385,0.00183255
17030,30.0,-6.0,0.0,   10.7320E-03,  -1.34782E-03,  -976.137E-03,0.0606857,0.0358894,0.00183827
17031,29.0,-6.0,0.0,   10.7205E-03,  -1.44251E-03,      -1.01137,0.0604101,0.0370376,0.00183674
17036,28.0,-6.0,0.0,   10.6640E-03,  -1.53669E-03,      -1.04507,0.0601307,0.0381782,0.00182819
17037,27.0,-6.0,0.0,   10.5656E-03,  -1.62997E-03,      -1.07726,0.0598486,0.0393069,0.00181289
17042,26.0,-6.0,0.0,   10.4281E-03,  -1.72201E-03,      -1.10796,0.059565,0.0404193,0.00179113
17045,25.0,-6.0,0.0,   10.2544E-03,  -1.81248E-03,      -1.13721,0.0592811,0.0415115,0.00176324
17046,24.0,-6.0,0.0,   10.0472E-03,  -1.90106E-03,      -1.16502,0.0589979,0.0425798,0.00172956
17051,23.0,-6.0,0.0,   9.80914E-03,  -1.98747E-03,      -1.19143,0.0587166,0.0436209,0.00169044
17052,22.0,-6.0,0.0,   9.54257E-03,  -2.07145E-03,      -1.21645,0.0584382,0.0446316,0.00164625
17057,21.0,-6.0,0.0,   9.24989E-03,  -2.15276E-03,      -1.24012,0.058164,0.0456091,0.00159735
17060,20.0,-6.0,0.0,   8.93332E-03,  -2.23118E-03,      -1.26246,0.057895,0.046551,0.00154409
17061,19.0,-6.0,0.0,   8.59495E-03,  -2.30652E-03,      -1.28350,0.0576322,0.047455,0.00148684
17066,18.0,-6.0,0.0,   8.23675E-03,  -2.37862E-03,      -1.30326,0.0573767,0.0483192,0.00142593
17067,17.0,-6.0,0.0,   7.86058E-03,  -2.44733E-03,      -1.32178,0.0571295,0.049142,0.00136169
17072,16.0,-6.0,0.0,   7.46817E-03,  -2.51251E-03,      -1.33908,0.0568914,0.0499218,0.00129445
17075,15.0,-6.0,0.0,   7.06113E-03,  -2.57406E-03,      -1.35519,0.0566633,0.0506575,0.00122449
17076,14.0,-6.0,0.0,   6.64096E-03,  -2.63189E-03,      -1.37012,0.0564461,0.0513481,0.0011521
17081,13.0,-6.0,0.0,   6.20905E-03,  -2.68592E-03,      -1.38392,0.0562406,0.0519928,0.00107754
17082,12.0,-6.0,0.0,   5.76670E-03,  -2.73609E-03,      -1.39659,0.0560475,0.052591,0.00100106
17087,11.0,-6.0,0.0,   5.31508E-03,  -2.78234E-03,      -1.40815,0.0558674,0.0531421,0.000922883
17090,10.0,-6.0,0.0,   4.85532E-03,  -2.82465E-03,      -1.41865,0.0557009,0.0536457,0.000843211
17091,9.0,-6.0,0.0,   4.38841E-03,  -2.86297E-03,      -1.42808,0.0555487,0.0541017,0.00076224
17096,8.0,-6.0,0.0,   3.91530E-03,  -2.89730E-03,      -1.43646,0.0554112,0.0545098,0.000680144
17097,7.0,-6.0,0.0,   3.43685E-03,  -2.92760E-03,      -1.44383,0.0552889,0.05487,0.000597086
17102,6.0,-6.0,0.0,   2.95387E-03,  -2.95387E-03,      -1.45018,0.0551821,0.0551821,0.000513214
17105,5.0,-6.0,0.0,   2.46711E-03,  -2.97611E-03,      -1.45553,0.0550911,0.0554461,0.000428666
17106,4.0,-6.0,0.0,   1.97728E-03,  -2.99430E-03,      -1.45989,0.0550164,0.0556621,0.00034357
17111,3.0,-6.0,0.0,   1.48503E-03,  -3.00846E-03,      -1.46328,0.054958,0.05583,0.000258044
17112,2.0,-6.0,0.0,   990.998E-06,  -3.01857E-03,      -1.46569,0.0549161,0.05595,0.000172202
17117,1.0,-6.0,0.0,   495.791E-06,  -3.02463E-03,      -1.46714,0.054891,0.0560219,8.61528e-05
17120,0.0,-6.0,0.0,  -2.98137E-15,  -3.02665E-03,      -1.46762,0.0548826,0.0560459,-9.09495e-13
17121,-1.0,-6.0,0.0,  -495.791E-06,  -3.02463E-03,      -1.46714,0.054891,0.0560219,-8.61528e-05
17126,-2.0,-6.0,0.0,  -990.998E-06,  -3.01857E-03,      -1.46569,0.0549161,0.05595,-0.000172202
17127,-3.0,-6.0,0.0,  -1.48503E-03,  -3.00846E-03,      -1.46328,0.054958,0.05583,-0.000258044
17132,-4.0,-6.0,0.0,  -1.97728E-03,  -2.99430E-03,      -1.45989,0.0550164,0.0556621,-0.00034357
17135,-5.0,-6.0,0.0,  -2.46711E-03,  -2.97611E-03,      -1.45553,0.0550911,0.0554461,-0.000428666
17136,-6.0,-6.0,0.0,  -2.95387E-03,  -2.95387E-03,      -1.45018,0.0551821,0.0551821,-0.000513214
17141,-7.0,-6.0,0.0,  -3.43685E-03,  -2.92760E-03,      -1.44383,0.0552889,0.05487,-0.000597086
17142,-8.0,-6.0,0.0,  -3.91530E-03,  -2.89730E-03,      -1.43646,0.0554112,0.0545098,-0.000680144
17147,-9.0,-6.0,0.0,  -4.38841E-03,  -2.86297E-03,      -1.42808,0.0555487,0.0541017,-0.00076224
17150,-10.0,-6.0,0.0,  -4.85532E-03,  -2.82465E-03,      -1.41865,0.0557009,0.0536457,-0.000843211
17151,-11.0,-6.0,0.0,  -5.31508E-03,  -2.78234E-03,      -1.40815,0.0558674,0.0531421,-0.000922883
17156,-12.0,-6.0,0.0,  -5.76670E-03,  -2.73609E-03,      -1.39659,0.0560475,0.052591,-0.00100106
17157,-13.0,-6.0,0.0,  -6.20905E-03,  -2.68592E-03,      -1.38392,0.0562406,0.0519928,-0.00107754
17162,-14.0,-6.0,0.0,  -6.64096E-03,  -2.63189E-03,      -1.37012,0.0564461,0.0513481,-0.0011521
17165,-15.0,-6.0,0.0,  -7.06113E-03,  -2.57406E-03,      -1.35519,0.0566633,0.0506575,-0.00122449
17166,-16.0,-6.0,0.0,  -7.46817E-03,  -2.51251E-03,      -1.33908,0.0568914,0.0499218,-0.00129445
17171,-17.0,-6.0,0.0,  -7.86058E-03,  -2.44733E-03,      -1.32178,0.0571295,0.049142,-0.00136169
17172,-18.0,-6.0,0.0,  -8.23675E-03,  -2.37862E-03,      -1.30326,0.0573767,0.0483192,-0.00142593
17177,-19.0,-6.0,0.0,  -8.59495E-03,  -2.30652E-03,      -1.28350,0.0576322,0.047455,-0.00148684
17180,-20.0,-6.0,0.0,  -8.93332E-03,  -2.23118E-03,      -1.26246,0.057895,0.046551,-0.00154409
17181,-21.0,-6.0,0.0,  -9.24989E-03,  -2.15276E-03,      -1.24012,0.058164,0.0456091,-0.00159735
17186,-22.0,-6.0,0.0,  -9.54257E-03,  -2.07145E-03,      -1.21645,0.0584382,0.0446316,-0.00164625
17187,-23.0,-6.0,0.0,  -9.80914E-03,  -1.98747E-03,      -1.19143,0.0587166,0.0436209,-0.00169044
17192,-24.0,-6.0,0.0,  -10.0472E-03,  -1.90106E-03,      -1.16502,0.0589979,0.0425798,-0.00172956
17195,-25.0,-6.0,0.0,  -10.2544E-03,  -1.81248E-03,      -1.13721,0.0592811,0.0415115,-0.00176324
17196,-26.0,-6.0,0.0,  -10.4281E-03,  -1.72201E-03,      -1.10796,0.059565,0.0404193,-0.00179113
17201,-27.0,-6.0,0.0,  -10.5656E-03,  -1.62997E-03,      -1.07726,0.0598486,0.0393069,-0.00181289
17202,-28.0,-6.0,0.0,  -10.6640E-03,  -1.53669E-03,      -1.04507,0.0601307,0.0381782,-0.00182819
17207,-29.0,-6.0,0.0,  -10.7205E-03,  -1.44251E-03,      -1.01137,0.0604101,0.0370376,-0.00183674
17208,-30.0,-6.0,0.0,  -10.7320E-03,  -1.34782E-03,  -976.137E-03,0.0606857,0.0358894,-0.00183827
17213,-31.0,-6.0,0.0,  -10.6955E-03,  -1.25300E-03,  -939.356E-03,0.0609566,0.0347385,-0.00183255
17214,-32.0,-6.0,0.0,  -10.6078E-03,  -1.15846E-03,  -901.004E-03,0.0612216,0.0335897,-0.00181939
17219,-33.0,-6.0,0.0,  -10.4655E-03,  -1.06462E-03,  -861.061E-03,0.0614797,0.0324481,-0.00179865
17222,-34.0,-6.0,0.0,  -10.2653E-03,  -971.914E-06,  -819.509E-03,0.06173,0.0313189,-0.00177024
17223,-35.0,-6.0,0.0,  -10.0039E-03,  -880.771E-06,  -776.334E-03,0.0619716,0.0302075,-0.00173413
17228,-36.0,-6.0,0.0,  -9.67779E-03,  -791.637E-06,  -731.520E-03,0.0622034,0.0291192,-0.00169036
17229,-37.0,-6.0,0.0,  -9.28344E-03,  -704.954E-06,  -685.054E-03,0.0624247,0.0280593,-0.00163902
17234,-38.0,-6.0,0.0,  -8.81733E-03,  -621.164E-06,  -636.923E-03,0.0626341,0.0270331,-0.00158026
17237,-39.0,-6.0,0.0,  -8.27590E-03,  -540.699E-06,  -587.118E-03,0.06283,0.0260456,-0.00151434
17238,-40.0,-6.0,0.0,  -7.65557E-03,  -463.988E-06,  -535.629E-03,0.0630085,0.025101,-0.00144157
17243,-41.0,-6.0,0.0,  -6.95283E-03,  -391.444E-06,  -482.449E-03,0.0631605,0.0242017,-0.00136244
17244,-42.0,-6.0,0.0,  -6.16432E-03,  -323.472E-06,  -427.577E-03,0.063262,0.0233455,-0.00127761
17249,-43.0,-6.0,0.0,  -5.28727E-03,  -260.462E-06,  -371.021E-03,0.0632467,0.0225174,-0.00118824
17252,-44.0,-6.0,0.0,  -4.32050E-03,  -202.805E-06,  -312.817E-03,0.0629324,0.0216669,-0.0010962
17253,-45.0,-6.0,0.0,  -3.26742E-03,  -150.906E-06,  -253.075E-03,0.0618123,0.0206463,-0.00100506
17258,-46.0,-6.0,0.0,  -2.14450E-03,  -105.234E-06,  -192.111E-03,0.0584741,0.0190359,-0.000920353
17259,-47.0,-6.0,0.0,  -1.00455E-03,  -66.4148E-06,  -130.812E-03,0.048975,0.0156576,-0.000849229
17264,-48.0,-6.0,0.0,   3.17142E-06,  -35.3554E-06,  -71.6578E-03,0.0222878,0.00721032,-0.000786149
17267,-49.0,-6.0,0.0,   512.462E-06,  -13.1845E-06,  -21.5832E-03,-0.0524573,-0.0155497,-0.000654232
17268,-50.0,-6.0,0.0,   2.86717E-39,  -877.797E-42,           -0.,-0.107532,-0.0322629,-0.000392294
17273,50.0,-7.0,0.0,  -2.85293E-39,  -875.074E-42,           -0.,-0.10731,-0.0321963,0.000456779
17274,49.0,-7.0,0.0,  -509.860E-06,  -15.3369E-06,  -21.5120E-03,-0.0525007,-0.0155636,0.000763688
17279,48.0,-7.0,0.0,  -3.54335E-06,  -41.1803E-06,  -71.4446E-03,0.0219502,0.00710909,0.000918611
17282,47.0,-7.0,0.0,   1.00024E-03,  -77.4240E-06,  -130.462E-03,0.0486219,0.0155542,0.000992578
17283,46.0,-7.0,0.0,   2.13654E-03,  -122.748E-06,  -191.634E-03,0.0581477,0.0189441,0.00107576
17288,45.0,-7.0,0.0,   3.25604E-03,  -176.085E-06,  -252.474E-03,0.0615067,0.0205653,0.00117483
17289,44.0,-7.0,0.0,   4.30572E-03,  -236.699E-06,  -312.090E-03,0.0626381,0.0215944,0.00128147
17294,43.0,-7.0,0.0,   5.26901E-03,  -304.037E-06,  -370.162E-03,0.0629573,0.0224523,0.00138919
17297,42.0,-7.0,0.0,   6.14245E-03,  -377.618E-06,  -426.580E-03,0.0629741,0.0232875,0.00149379
17298,41.0,-7.0,0.0,   6.92724E-03,  -456.986E-06,  -481.308E-03,0.0628726,0.0241508,0.00159304
17303,40.0,-7.0,0.0,   7.62619E-03,  -541.678E-06,  -534.336E-03,0.0627197,0.0250574,0.00168558
17304,39.0,-7.0,0.0,   8.24270E-03,  -631.219E-06,  -585.668E-03,0.0625399,0.0260096,0.00177063
17309,38.0,-7.0,0.0,   8.78032E-03,  -725.123E-06,  -635.310E-03,0.0623425,0.0270049,0.00184763
17312,37.0,-7.0,0.0,   9.24266E-03,  -822.888E-06,  -683.273E-03,0.0621314,0.0280391,0.00191618
17313,36.0,-7.0,0.0,   9.63334E-03,  -924.003E-06,  -729.566E-03,0.0619084,0.0291071,0.00197602
17318,35.0,-7.0,0.0,   9.95594E-03,  -1.02795E-03,  -774.203E-03,0.0616748,0.0302036,0.00202695
17319,34.0,-7.0,0.0,   10.2140E-03,  -1.13422E-03,  -817.197E-03,0.0614314,0.0313232,0.00206887
17324,33.0,-7.0,0.0,   10.4110E-03,  -1.24228E-03,  -858.565E-03,0.0611793,0.0324604,0.00210175
17327,32.0,-7.0,0.0,   10.5503E-03,  -1.35162E-03,  -898.323E-03,0.0609194,0.0336099,0.00212563
17328,31.0,-7.0,0.0,   10.6354E-03,  -1.46175E-03,  -936.488E-03,0.0606527,0.0347664,0.00214062
17333,30.0,-7.0,0.0,   10.6696E-03,  -1.57217E-03,  -973.081E-03,0.0603802,0.0359247,0.0021469
17334,29.0,-7.0,0.0,   10.6560E-03,  -1.68241E-03,      -1.00812,0.0601029,0.0370798,0.00214469
17339,28.0,-7.0,0.0,   10.5977E-03,  -1.79202E-03,      -1.04163,0.0598221,0.0382271,0.00213428
17342,27.0,-7.0,0.0,   10.4979E-03,  -1.90055E-03,      -1.07364,0.0595386,0.039362,0.00211598
17343,26.0,-7.0,0.0,   10.3593E-03,  -2.00760E-03,      -1.10416,0.0592538,0.0404803,0.00209014
17348,25.0,-7.0,0.0,   10.1850E-03,  -2.11278E-03,      -1.13323,0.0589688,0.0415779,0.00205717
17349,24.0,-7.0,0.0,   9.97743E-03,  -2.21574E-03,      -1.16086,0.0586846,0.0426512,0.00201745
17354,23.0,-7.0,0.0,   9.73931E-03,  -2.31615E-03,      -1.18709,0.0584025,0.0436968,0.00197142
17357,22.0,-7.0,0.0,   9.47309E-03,  -2.41370E-03,      -1.21194,0.0581235,0.0447116,0.00191949
17358,21.0,-7.0,0.0,   9.18110E-03,  -2.50812E-03,      -1.23544,0.0578488,0.0456929,0.0018621
17363,20.0,-7.0,0.0,   8.86555E-03,  -2.59916E-03,      -1.25762,0.0575794,0.0466381,0.00179967
17364,19.0,-7.0,0.0,   8.52852E-03,  -2.68660E-03,      -1.27851,0.0573164,0.0475451,0.00173261
17369,18.0,-7.0,0.0,   8.17199E-03,  -2.77025E-03,      -1.29812,0.0570608,0.048412,0.00166133
17372,17.0,-7.0,0.0,   7.79777E-03,  -2.84994E-03,      -1.31650,0.0568135,0.049237,0.00158622
17373,16.0,-7.0,0.0,   7.40760E-03,  -2.92553E-03,      -1.33366,0.0565755,0.0500189,0.00150764
17378,15.0,-7.0,0.0,   7.00307E-03,  -2.99689E-03,      -1.34964,0.0563476,0.0507564,0.00142594
17379,14.0,-7.0,0.0,   6.58566E-03,  -3.06392E-03,      -1.36446,0.0561307,0.0514486,0.00134145
17384,13.0,-7.0,0.0,   6.15675E-03,  -3.12653E-03,      -1.37813,0.0559256,0.0520946,0.00125447
17387,12.0,-7.0,0.0,   5.71761E-03,  -3.18466E-03,      -1.39070,0.0557328,0.0526939,0.00116529
17388,11.0,-7.0,0.0,   5.26940E-03,  -3.23824E-03,      -1.40217,0.0555531,0.0532459,0.00107416
17393,10.0,-7.0,0.0,   4.81323E-03,  -3.28724E-03,      -1.41257,0.0553872,0.0537504,0.000981325
17394,9.0,-7.0,0.0,   4.35007E-03,  -3.33162E-03,      -1.42192,0.0552354,0.0542071,0.000887007
17399,8.0,-7.0,0.0,   3.88086E-03,  -3.37135E-03,      -1.43023,0.0550983,0.0546158,0.000791406
17402,7.0,-7.0,0.0,   3.40644E-03,  -3.40644E-03,      -1.43753,0.0549764,0.0549764,0.000694709
17403,6.0,-7.0,0.0,   2.92760E-03,  -3.43685E-03,      -1.44383,0.05487,0.0552889,0.000597086
17408,5.0,-7.0,0.0,   2.44508E-03,  -3.46259E-03,      -1.44913,0.0547794,0.0555532,0.000498694
17409,4.0,-7.0,0.0,   1.95955E-03,  -3.48364E-03,      -1.45346,0.0547049,0.0557694,0.000399678
17414,3.0,-7.0,0.0,   1.47168E-03,  -3.50002E-03,      -1.45681,0.0546467,0.0559376,0.000300175
17417,2.0,-7.0,0.0,   982.074E-06,  -3.51172E-03,      -1.45920,0.0546051,0.0560576,0.000200313
17418,1.0,-7.0,0.0,   491.321E-06,  -3.51874E-03,      -1.46064,0.05458,0.0561296,0.000100215
17423,0.0,-7.0,0.0,  -3.50684E-15,  -3.52108E-03,      -1.46111,0.0545717,0.0561537,0.0
17424,-1.0,-7.0,0.0,  -491.321E-06,  -3.51874E-03,      -1.46064,0.05458,0.0561296,-0.000100215
17429,-2.0,-7.0,0.0,  -982.074E-06,  -3.51172E-03,      -1.45920,0.0546051,0.0560576,-0.000200313
17432,-3.0,-7.0,0.0,  -1.47168E-03,  -3.50002E-03,      -1.45681,0.0546467,0.0559376,-0.000300175
17433,-4.0,-7.0,0.0,  -1.95955E-03,  -3.48364E-03,      -1.45346,0.0547049,0.0557694,-0.000399678
17438,-5.0,-7.0,0.0,  -2.44508E-03,  -3.46259E-03,      -1.44913,0.0547794,0.0555532,-0.000498694
17439,-6.0,-7.0,0.0,  -2.92760E-03,  -3.43685E-03,      -1.44383,0.05487,0.0552889,-0.000597086
17444,-7.0,-7.0,0.0,  -3.40644E-03,  -3.40644E-03,      -1.43753,0.0549764,0.0549764,-0.000694709
17447,-8.0,-7.0,0.0,  -3.88086E-03,  -3.37135E-03,      -1.43023,0.0550983,0.0546158,-0.000791406
17448,-9.0,-7.0,0.0,  -4.35007E-03,  -3.33162E-03,      -1.42192,0.0552354,0.0542071,-0.000887007
17453,-10.0,-7.0,0.0,  -4.81323E-03,  -3.28724E-03,      -1.41257,0.0553872,0.0537504,-0.000981325
17454,-11.0,-7.0,0.0,  -5.26940E-03,  -3.23824E-03,      -1.40217,0.0555531,0.0532459,-0.00107416
17459,-12.0,-7.0,0.0,  -5.71761E-03,  -3.18466E-03,      -1.39070,0.0557328,0.0526939,-0.00116529
17462,-13.0,-7.0,0.0,  -6.15675E-03,  -3.12653E-03,      -1.37813,0.0559256,0.0520946,-0.00125447
17463,-14.0,-7.0,0.0,  -6.58566E-03,  -3.06392E-03,      -1.36446,0.0561307,0.0514486,-0.00134145
17468,-15.0,-7.0,0.0,  -7.00307E-03,  -2.99689E-03,      -1.34964,0.0563476,0.0507564,-0.00142594
17469,-16.0,-7.0,0.0,  -7.40760E-03,  -2.92553E-03,      -1.33366,0.0565755,0.0500189,-0.00150764
17474,-17.0,-7.0,0.0,  -7.79777E-03,  -2.84994E-03,      -1.31650,0.0568135,0.049237,-0.00158622
17477,-18.0,-7.0,0.0,  -8.17199E-03,  -2.77025E-03,      -1.29812,0.0570608,0.048412,-0.00166133
17478,-19.0,-7.0,0.0,  -8.52852E-03,  -2.68660E-03,      -1.27851,0.0573164,0.0475451,-0.00173261
17483,-20.0,-7.0,0.0,  -8.86555E-03,  -2.59916E-03,      -1.25762,0.0575794,0.0466381,-0.00179967
17484,-21.0,-7.0,0.0,  -9.18110E-03,  -2.50812E-03,      -1.23544,0.0578488,0.0456929,-0.0018621
17489,-22.0,-7.0,0.0,  -9.47309E-03,  -2.41370E-03,      -1.21194,0.0581235,0.0447116,-0.00191949
17492,-23.0,-7.0,0.0,  -9.73931E-03,  -2.31615E-03,      -1.18709,0.0584025,0.0436968,-0.00197142
17493,-24.0,-7.0,0.0,  -9.97743E-03,  -2.21574E-03,      -1.16086,0.0586846,0.0426512,-0.00201745
17498,-25.0,-7.0,0.0,  -10.1850E-03,  -2.11278E-03,      -1.13323,0.0589688,0.0415779,-0.00205717
17499,-26.0,-7.0,0.0,  -10.3593E-03,  -2.00760E-03,      -1.10416,0.0592538,0.0404803,-0.00209014
17504,-27.0,-7.0,0.0,  -10.4979E-03,  -1.90055E-03,      -1.07364,0.0595387,0.039362,-0.00211598
17507,-28.0,-7.0,0.0,  -10.5977E-03,  -1.79202E-03,      -1.04163,0.0598221,0.0382271,-0.00213428
17508,-29.0,-7.0,0.0,  -10.6560E-03,  -1.68241E-03,      -1.00812,0.0601029,0.0370798,-0.00214469
17513,-30.0,-7.0,0.0,  -10.6696E-03,  -1.57217E-03,  -973.081E-03,0.0603802,0.0359247,-0.0021469
17514,-31.0,-7.0,0.0,  -10.6354E-03,  -1.46175E-03,  -936.488E-03,0.0606527,0.0347664,-0.00214062
17519,-32.0,-7.0,0.0,  -10.5503E-03,  -1.35162E-03,  -898.323E-03,0.0609194,0.0336099,-0.00212563
17522,-33.0,-7.0,0.0,  -10.4110E-03,  -1.24228E-03,  -858.565E-03,0.0611793,0.0324604,-0.00210175
17523,-34.0,-7.0,0.0,  -10.2140E-03,  -1.13422E-03,  -817.197E-03,0.0614314,0.0313232,-0.00206887
17528,-35.0,-7.0,0.0,  -9.95594E-03,  -1.02795E-03,  -774.203E-03,0.0616748,0.0302036,-0.00202695
17529,-36.0,-7.0,0.0,  -9.63334E-03,  -924.003E-06,  -729.566E-03,0.0619084,0.0291071,-0.00197602
17534,-37.0,-7.0,0.0,  -9.24266E-03,  -822.888E-06,  -683.273E-03,0.0621314,0.0280391,-0.00191618
17537,-38.0,-7.0,0.0,  -8.78032E-03,  -725.123E-06,  -635.310E-03,0.0623425,0.0270049,-0.00184763
17538,-39.0,-7.0,0.0,  -8.24270E-03,  -631.219E-06,  -585.668E-03,0.0625399,0.0260096,-0.00177063
17543,-40.0,-7.0,0.0,  -7.62619E-03,  -541.678E-06,  -534.336E-03,0.0627197,0.0250574,-0.00168558
17544,-41.0,-7.0,0.0,  -6.92724E-03,  -456.986E-06,  -481.308E-03,0.0628726,0.0241508,-0.00159304
17549,-42.0,-7.0,0.0,  -6.14245E-03,  -377.618E-06,  -426.580E-03,0.0629741,0.0232875,-0.00149379
17552,-43.0,-7.0,0.0,  -5.26901E-03,  -304.037E-06,  -370.162E-03,0.0629573,0.0224523,-0.00138919
17553,-44.0,-7.0,0.0,  -4.30572E-03,  -236.699E-06,  -312.090E-03,0.0626381,0.0215944,-0.00128147
17558,-45.0,-7.0,0.0,  -3.25604E-03,  -176.085E-06,  -252.474E-03,0.0615067,0.0205653,-0.00117483
17559,-46.0,-7.0,0.0,  -2.13654E-03,  -122.748E-06,  -191.634E-03,0.0581477,0.0189441,-0.00107576
17564,-47.0,-7.0,0.0,  -1.00024E-03,  -77.4240E-06,  -130.462E-03,0.0486219,0.0155542,-0.000992578
17567,-48.0,-7.0,0.0,   3.54335E-06,  -41.1803E-06,  -71.4446E-03,0.0219502,0.00710909,-0.000918611
17568,-49.0,-7.0,0.0,   509.860E-06,  -15.3369E-06,  -21.5120E-03,-0.0525007,-0.0155636,-0.000763688
17573,-50.0,-7.0,0.0,   2.85293E-39,  -875.074E-42,           -0.,-0.10731,-0.0321963,-0.000456779
17574,50.0,-8.0,0.0,  -2.83617E-39,  -871.563E-42,           -0.,-0.107052,-0.0321189,0.000520836
17579,49.0,-8.0,0.0,  -506.849E-06,  -17.4680E-06,  -21.4296E-03,-0.0525496,-0.0155793,0.000873326
17582,48.0,-8.0,0.0,  -3.97295E-06,  -46.9728E-06,  -71.1974E-03,0.0215605,0.00699219,0.00105174
17583,47.0,-8.0,0.0,   995.227E-06,  -88.4037E-06,  -130.056E-03,0.0482137,0.0154346,0.00113677
17588,46.0,-8.0,0.0,   2.12729E-03,  -140.248E-06,  -191.081E-03,0.0577701,0.0188379,0.00123211
17589,45.0,-8.0,0.0,   3.24280E-03,  -201.275E-06,  -251.776E-03,0.0611534,0.0204715,0.00134566
17594,44.0,-8.0,0.0,   4.28853E-03,  -270.633E-06,  -311.245E-03,0.0622978,0.0215107,0.00146795
17597,43.0,-8.0,0.0,   5.24776E-03,  -347.682E-06,  -369.165E-03,0.0626228,0.0223772,0.00159151
17598,42.0,-8.0,0.0,   6.11701E-03,  -431.867E-06,  -425.422E-03,0.0626415,0.0232206,0.00171148
17603,41.0,-8.0,0.0,   6.89748E-03,  -522.659E-06,  -479.982E-03,0.06254,0.0240921,0.00182529
17604,40.0,-8.0,0.0,   7.59203E-03,  -619.524E-06,  -532.834E-03,0.062386,0.0250072,0.00193136
17609,39.0,-8.0,0.0,   8.20409E-03,  -721.914E-06,  -583.983E-03,0.0622046,0.0259683,0.00202876
17612,38.0,-8.0,0.0,   8.73728E-03,  -829.268E-06,  -633.436E-03,0.0620054,0.0269727,0.00211686
17613,37.0,-8.0,0.0,   9.19526E-03,  -941.007E-06,  -681.202E-03,0.0617924,0.0280163,0.00219522
17618,36.0,-8.0,0.0,   9.58168E-03,  -1.05654E-03,  -727.294E-03,0.0615674,0.0290937,0.0022635
17619,35.0,-8.0,0.0,   9.90018E-03,  -1.17528E-03,  -771.725E-03,0.0613316,0.0301997,0.00232152
17624,34.0,-8.0,0.0,   10.1543E-03,  -1.29663E-03,  -814.510E-03,0.0610861,0.0313288,0.00236914
17627,33.0,-8.0,0.0,   10.3477E-03,  -1.41999E-03,  -855.664E-03,0.0608319,0.0324753,0.00240636
17628,32.0,-8.0,0.0,   10.4837E-03,  -1.54477E-03,  -895.206E-03,0.0605699,0.0336338,0.00243322
17633,31.0,-8.0,0.0,   10.5657E-03,  -1.67041E-03,  -933.155E-03,0.0603012,0.0347991,0.00244987
17634,30.0,-8.0,0.0,   10.5971E-03,  -1.79633E-03,  -969.530E-03,0.0600267,0.0359659,0.00245651
17639,29.0,-8.0,0.0,   10.5811E-03,  -1.92200E-03,      -1.00435,0.0597477,0.0371291,0.00245342
17642,28.0,-8.0,0.0,   10.5208E-03,  -2.04689E-03,      -1.03765,0.0594651,0.038284,0.00244092
17643,27.0,-8.0,0.0,   10.4194E-03,  -2.17053E-03,      -1.06944,0.0591801,0.0394261,0.0024194
17648,26.0,-8.0,0.0,   10.2797E-03,  -2.29242E-03,      -1.09974,0.0588939,0.040551,0.00238928
17649,25.0,-8.0,0.0,   10.1045E-03,  -2.41215E-03,      -1.12860,0.0586076,0.0416548,0.00235101
17654,24.0,-8.0,0.0,   9.89655E-03,  -2.52930E-03,      -1.15603,0.0583224,0.0427337,0.00230506
17657,23.0,-8.0,0.0,   9.65846E-03,  -2.64351E-03,      -1.18205,0.0580393,0.0437845,0.00225191
17658,22.0,-8.0,0.0,   9.39267E-03,  -2.75442E-03,      -1.20671,0.0577596,0.044804,0.00219208
17663,21.0,-8.0,0.0,   9.10149E-03,  -2.86174E-03,      -1.23002,0.0574844,0.0457895,0.00212604
17664,20.0,-8.0,0.0,   8.78715E-03,  -2.96518E-03,      -1.25201,0.0572146,0.0467386,0.0020543
17669,19.0,-8.0,0.0,   8.45171E-03,  -3.06450E-03,      -1.27271,0.0569513,0.0476489,0.00197732
17672,18.0,-8.0,0.0,   8.09711E-03,  -3.15949E-03,      -1.29216,0.0566956,0.0485188,0.00189558
17673,17.0,-8.0,0.0,   7.72518E-03,  -3.24995E-03,      -1.31037,0.0564484,0.0493464,0.00180952
17678,16.0,-8.0,0.0,   7.33762E-03,  -3.33572E-03,      -1.32738,0.0562106,0.0501306,0.00171955
17679,15.0,-8.0,0.0,   6.93601E-03,  -3.41668E-03,      -1.34321,0.055983,0.0508701,0.00162608
17684,14.0,-8.0,0.0,   6.52180E-03,  -3.49270E-03,      -1.35788,0.0557665,0.0515639,0.00152947
17687,13.0,-8.0,0.0,   6.09636E-03,  -3.56369E-03,      -1.37143,0.0555618,0.0522114,0.00143008
17688,12.0,-8.0,0.0,   5.66093E-03,  -3.62958E-03,      -1.38387,0.0553695,0.052812,0.00132822
17693,11.0,-8.0,0.0,   5.21668E-03,  -3.69031E-03,      -1.39523,0.0551904,0.0533651,0.00122418
17694,10.0,-8.0,0.0,   4.76465E-03,  -3.74583E-03,      -1.40552,0.0550249,0.0538705,0.00111824
17699,9.0,-8.0,0.0,   4.30583E-03,  -3.79611E-03,      -1.41478,0.0548737,0.0543279,0.00101066
17702,8.0,-8.0,0.0,   3.84112E-03,  -3.84112E-03,      -1.42301,0.0547372,0.0547372,0.00090164
17703,7.0,-8.0,0.0,   3.37135E-03,  -3.88086E-03,      -1.43023,0.0546158,0.0550983,0.000791406
17708,6.0,-8.0,0.0,   2.89730E-03,  -3.91530E-03,      -1.43646,0.0545098,0.0554112,0.000680144
17709,5.0,-8.0,0.0,   2.41966E-03,  -3.94444E-03,      -1.44171,0.0544197,0.0556759,0.000568029
17714,4.0,-8.0,0.0,   1.93911E-03,  -3.96828E-03,      -1.44599,0.0543455,0.0558924,0.000455223
17717,3.0,-8.0,0.0,   1.45629E-03,  -3.98682E-03,      -1.44931,0.0542877,0.0560607,0.000341878
17718,2.0,-8.0,0.0,   971.783E-06,  -4.00007E-03,      -1.45168,0.0542462,0.0561809,0.000228136
17723,1.0,-8.0,0.0,   486.167E-06,  -4.00801E-03,      -1.45310,0.0542213,0.056253,0.000114133
17724,0.0,-8.0,0.0,  -2.86484E-15,  -4.01066E-03,      -1.45357,0.054213,0.056277,9.09495e-13
17729,-1.0,-8.0,0.0,  -486.167E-06,  -4.00801E-03,      -1.45310,0.0542213,0.056253,-0.000114133
17732,-2.0,-8.0,0.0,  -971.783E-06,  -4.00007E-03,      -1.45168,0.0542462,0.0561809,-0.000228136
17733,-3.0,-8.0,0.0,  -1.45629E-03,  -3.98682E-03,      -1.44931,0.0542877,0.0560607,-0.000341878
17738,-4.0,-8.0,0.0,  -1.93911E-03,  -3.96828E-03,      -1.44599,0.0543455,0.0558924,-0.000455223
17739,-5.0,-8.0,0.0,  -2.41966E-03,  -3.94444E-03,      -1.44171,0.0544197,0.0556759,-0.000568029
17744,-6.0,-8.0,0.0,  -2.89730E-03,  -3.91530E-03,      -1.43646,0.0545098,0.0554112,-0.000680144
17747,-7.0,-8.0,0.0,  -3.37135E-03,  -3.88086E-03,      -1.43023,0.0546158,0.0550983,-0.000791406
17748,-8.0,-8.0,0.0,  -3.84112E-03,  -3.84112E-03,      -1.42301,0.0547372,0.0547372,-0.00090164
17753,-9.0,-8.0,0.0,  -4.30583E-03,  -3.79611E-03,      -1.41478,0.0548737,0.0543279,-0.00101066
17754,-10.0,-8.0,0.0,  -4.76465E-03,  -3.74583E-03,      -1.40552,0.0550249,0.0538705,-0.00111824
17759,-11.0,-8.0,0.0,  -5.21668E-03,  -3.69031E-03,      -1.39523,0.0551904,0.0533651,-0.00122418
17762,-12.0,-8.0,0.0,  -5.66093E-03,  -3.62958E-03,      -1.38387,0.0553695,0.052812,-0.00132822
17763,-13.0,-8.0,0.0,  -6.09636E-03,  -3.56369E-03,      -1.37143,0.0555618,0.0522114,-0.00143008
17768,-14.0,-8.0,0.0,  -6.52180E-03,  -3.49270E-03,      -1.35788,0.0557665,0.0515639,-0.00152947
17769,-15.0,-8.0,0.0,  -6.93601E-03,  -3.41668E-03,      -1.34321,0.055983,0.0508701,-0.00162608
17774,-16.0,-8.0,0.0,  -7.33762E-03,  -3.33572E-03,      -1.32738,0.0562106,0.0501306,-0.00171955
17777,-17.0,-8.0,0.0,  -7.72518E-03,  -3.24995E-03,      -1.31037,0.0564484,0.0493464,-0.00180952
17778,-18.0,-8.0,0.0,  -8.09711E-03,  -3.15949E-03,      -1.29216,0.0566956,0.0485188,-0.00189558
17783,-19.0,-8.0,0.0,  -8.45171E-03,  -3.06450E-03,      -1.27271,0.0569513,0.0476489,-0.00197732
17784,-20.0,-8.0,0.0,  -8.78715E-03,  -2.96518E-03,      -1.25201,0.0572146,0.0467386,-0.0020543
17789,-21.0,-8.0,0.0,  -9.10149E-03,  -2.86174E-03,      -1.23002,0.0574844,0.0457895,-0.00212604
17792,-22.0,-8.0,0.0,  -9.39267E-03,  -2.75442E-03,      -1.20671,0.0577596,0.044804,-0.00219208
17793,-23.0,-8.0,0.0,  -9.65846E-03,  -2.64351E-03,      -1.18205,0.0580393,0.0437845,-0.00225191
17798,-24.0,-8.0,0.0,  -9.89655E-03,  -2.52930E-03,      -1.15603,0.0583224,0.0427337,-0.00230506
17799,-25.0,-8.0,0.0,  -10.1045E-03,  -2.41215E-03,      -1.12860,0.0586076,0.0416548,-0.00235101
17804,-26.0,-8.0,0.0,  -10.2797E-03,  -2.29242E-03,      -1.09974,0.0588939,0.040551,-0.00238928
17807,-27.0,-8.0,0.0,  -10.4194E-03,  -2.17053E-03,      -1.06944,0.0591801,0.0394261,-0.0024194
17808,-28.0,-8.0,0.0,  -10.5208E-03,  -2.04689E-03,      -1.03765,0.0594651,0.038284,-0.00244092
17813,-29.0,-8.0,0.0,  -10.5811E-03,  -1.92200E-03,      -1.00435,0.0597477,0.0371291,-0.00245342
17814,-30.0,-8.0,0.0,  -10.5971E-03,  -1.79633E-03,  -969.530E-03,0.0600267,0.0359659,-0.00245651
17819,-31.0,-8.0,0.0,  -10.5657E-03,  -1.67041E-03,  -933.155E-03,0.0603012,0.0347991,-0.00244987
17822,-32.0,-8.0,0.0,  -10.4837E-03,  -1.54477E-03,  -895.206E-03,0.0605699,0.0336338,-0.00243322
17823,-33.0,-8.0,0.0,  -10.3477E-03,  -1.41999E-03,  -855.664E-03,0.0608319,0.0324753,-0.00240636
17828,-34.0,-8.0,0.0,  -10.1543E-03,  -1.29663E-03,  -814.510E-03,0.0610861,0.0313288,-0.00236914
17829,-35.0,-8.0,0.0,  -9.90018E-03,  -1.17528E-03,  -771.725E-03,0.0613316,0.0301997,-0.00232152
17834,-36.0,-8.0,0.0,  -9.58168E-03,  -1.05654E-03,  -727.294E-03,0.0615674,0.0290937,-0.0022635
17837,-37.0,-8.0,0.0,  -9.19526E-03,  -941.007E-06,  -681.202E-03,0.0617924,0.0280163,-0.00219522
17838,-38.0,-8.0,0.0,  -8.73728E-03,  -829.268E-06,  -633.436E-03,0.0620054,0.0269727,-0.00211686
17843,-39.0,-8.0,0.0,  -8.20409E-03,  -721.914E-06,  -583.983E-03,0.0622046,0.0259683,-0.00202876
17844,-40.0,-8.0,0.0,  -7.59203E-03,  -619.524E-06,  -532.834E-03,0.062386,0.0250072,-0.00193136
17849,-41.0,-8.0,0.0,  -6.89748E-03,  -522.659E-06,  -479.982E-03,0.06254,0.0240921,-0.00182529
17852,-42.0,-8.0,0.0,  -6.11701E-03,  -431.867E-06,  -425.422E-03,0.0626415,0.0232206,-0.00171148
17853,-43.0,-8.0,0.0,  -5.24776E-03,  -347.682E-06,  -369.165E-03,0.0626228,0.0223772,-0.00159151
17858,-44.0,-8.0,0.0,  -4.28853E-03,  -270.633E-06,  -311.245E-03,0.0622978,0.0215107,-0.00146795
17859,-45.0,-8.0,0.0,  -3.24280E-03,  -201.275E-06,  -251.776E-03,0.0611534,0.0204715,-0.00134566
17864,-46.0,-8.0,0.0,  -2.12729E-03,  -140.248E-06,  -191.081E-03,0.0577701,0.0188379,-0.00123211
17867,-47.0,-8.0,0.0,  -995.227E-06,  -88.4037E-06,  -130.056E-03,0.0482137,0.0154346,-0.00113677
17868,-48.0,-8.0,0.0,   3.97295E-06,  -46.9728E-06,  -71.1974E-03,0.0215605,0.00699219,-0.00105174
17873,-49.0,-8.0,0.0,   506.849E-06,  -17.4680E-06,  -21.4296E-03,-0.0525496,-0.0155793,-0.000873326
17874,-50.0,-8.0,0.0,   2.83617E-39,  -871.563E-42,           -0.,-0.107052,-0.0321189,-0.000520836
17879,50.0,-9.0,0.0,  -2.81686E-39,  -867.251E-42,           -0.,-0.106757,-0.0320304,0.000584394
17882,49.0,-9.0,0.0,  -503.425E-06,  -19.5743E-06,  -21.3356E-03,-0.0526034,-0.0155966,0.000983162
17883,48.0,-9.0,0.0,  -4.45996E-06,  -52.7274E-06,  -70.9155E-03,0.0211186,0.00685957,0.00118562
17888,47.0,-9.0,0.0,   989.510E-06,  -99.3483E-06,  -129.593E-03,0.04775,0.0152987,0.00128194
17889,46.0,-9.0,0.0,   2.11672E-03,  -157.730E-06,  -190.449E-03,0.0573411,0.0187172,0.00138955
17894,45.0,-9.0,0.0,   3.22767E-03,  -226.474E-06,  -250.980E-03,0.060752,0.0203651,0.00151772
17897,44.0,-9.0,0.0,   4.26887E-03,  -304.610E-06,  -310.281E-03,0.0619115,0.0214158,0.00165583
17898,43.0,-9.0,0.0,   5.22347E-03,  -391.406E-06,  -368.025E-03,0.0622431,0.0222922,0.00179542
17903,42.0,-9.0,0.0,   6.08792E-03,  -486.230E-06,  -424.100E-03,0.062264,0.0231449,0.00193095
17904,41.0,-9.0,0.0,   6.86345E-03,  -588.478E-06,  -478.467E-03,0.0621623,0.0240259,0.00205947
17909,40.0,-9.0,0.0,   7.55296E-03,  -697.542E-06,  -531.118E-03,0.0620071,0.0249507,0.00217917
17912,39.0,-9.0,0.0,   8.15995E-03,  -812.801E-06,  -582.058E-03,0.0618239,0.0259218,0.00228902
17913,38.0,-9.0,0.0,   8.68808E-03,  -933.612E-06,  -631.294E-03,0.0616226,0.0269367,0.00238826
17918,37.0,-9.0,0.0,   9.14108E-03,  -1.05932E-03,  -678.836E-03,0.0614073,0.0279909,0.0024764
17919,36.0,-9.0,0.0,   9.52265E-03,  -1.18926E-03,  -724.698E-03,0.0611799,0.0290792,0.00255308
17924,35.0,-9.0,0.0,   9.83649E-03,  -1.32276E-03,  -768.894E-03,0.0609417,0.030196,0.00261809
17927,34.0,-9.0,0.0,   10.0862E-03,  -1.45914E-03,  -811.438E-03,0.0606938,0.0313357,0.00267129
17928,33.0,-9.0,0.0,   10.2754E-03,  -1.59774E-03,  -852.349E-03,0.0604371,0.0324928,0.00271268
17933,32.0,-9.0,0.0,   10.4075E-03,  -1.73787E-03,  -891.645E-03,0.0601728,0.0336617,0.00274233
17934,31.0,-9.0,0.0,   10.4861E-03,  -1.87891E-03,  -929.345E-03,0.0599017,0.0348369,0.00276042
17939,30.0,-9.0,0.0,   10.5144E-03,  -2.02021E-03,  -965.471E-03,0.0596251,0.0360132,0.00276719
17942,29.0,-9.0,0.0,   10.4957E-03,  -2.16117E-03,      -1.00004,0.0593439,0.0371856,0.00276296
17943,28.0,-9.0,0.0,   10.4332E-03,  -2.30120E-03,      -1.03309,0.0590594,0.0383491,0.00274813
17948,27.0,-9.0,0.0,   10.3300E-03,  -2.43975E-03,      -1.06463,0.0587727,0.0394992,0.00272314
17949,26.0,-9.0,0.0,   10.1889E-03,  -2.57630E-03,      -1.09470,0.0584849,0.0406316,0.00268848
17954,25.0,-9.0,0.0,   10.0128E-03,  -2.71037E-03,      -1.12331,0.0581972,0.0417423,0.00264466
17957,24.0,-9.0,0.0,   9.80451E-03,  -2.84149E-03,      -1.15050,0.0579108,0.0428276,0.00259224
17958,23.0,-9.0,0.0,   9.56648E-03,  -2.96926E-03,      -1.17630,0.0576268,0.0438841,0.00253177
17963,22.0,-9.0,0.0,   9.30120E-03,  -3.09330E-03,      -1.20073,0.0573463,0.0449089,0.00246382
17964,21.0,-9.0,0.0,   9.01099E-03,  -3.21326E-03,      -1.22382,0.0570705,0.0458991,0.00238896
17969,20.0,-9.0,0.0,   8.69805E-03,  -3.32885E-03,      -1.24560,0.0568003,0.0468522,0.00230775
17972,19.0,-9.0,0.0,   8.36444E-03,  -3.43980E-03,      -1.26610,0.0565369,0.0477663,0.00222072
17973,18.0,-9.0,0.0,   8.01207E-03,  -3.54586E-03,      -1.28535,0.0562812,0.0486394,0.00212841
17978,17.0,-9.0,0.0,   7.64277E-03,  -3.64683E-03,      -1.30338,0.0560341,0.04947,0.00203131
17979,16.0,-9.0,0.0,   7.25819E-03,  -3.74254E-03,      -1.32021,0.0557965,0.0502566,0.0019299
17984,15.0,-9.0,0.0,   6.85991E-03,  -3.83284E-03,      -1.33587,0.0555694,0.0509982,0.00182462
17987,14.0,-9.0,0.0,   6.44936E-03,  -3.91761E-03,      -1.35038,0.0553533,0.051694,0.00171589
17988,13.0,-9.0,0.0,   6.02787E-03,  -3.99676E-03,      -1.36378,0.0551491,0.052343,0.00160409
17993,12.0,-9.0,0.0,   5.59668E-03,  -4.07019E-03,      -1.37608,0.0549575,0.0529449,0.00148959
17994,11.0,-9.0,0.0,   5.15691E-03,  -4.13786E-03,      -1.38731,0.0547791,0.0534992,0.00137271
17999,10.0,-9.0,0.0,   4.70960E-03,  -4.19971E-03,      -1.39749,0.0546143,0.0540055,0.00125375
18002,9.0,-9.0,0.0,   4.25571E-03,  -4.25571E-03,      -1.40664,0.0544638,0.0544638,0.00113298
18003,8.0,-9.0,0.0,   3.79611E-03,  -4.30583E-03,      -1.41478,0.0543279,0.0548737,0.00101066
18008,7.0,-9.0,0.0,   3.33162E-03,  -4.35007E-03,      -1.42192,0.0542071,0.0552354,0.000887007
18009,6.0,-9.0,0.0,   2.86297E-03,  -4.38841E-03,      -1.42808,0.0541017,0.0555487,0.00076224
18014,5.0,-9.0,0.0,   2.39088E-03,  -4.42085E-03,      -1.43326,0.0540121,0.0558137,0.000636546
18017,4.0,-9.0,0.0,   1.91597E-03,  -4.44738E-03,      -1.43749,0.0539384,0.0560305,0.000510104
18018,3.0,-9.0,0.0,   1.43886E-03,  -4.46802E-03,      -1.44077,0.0538808,0.056199,0.000383077
18023,2.0,-9.0,0.0,   960.131E-06,  -4.48276E-03,      -1.44311,0.0538396,0.0563193,0.00025562
18024,1.0,-9.0,0.0,   480.331E-06,  -4.49160E-03,      -1.44451,0.0538149,0.0563915,0.00012788
18029,0.0,-9.0,0.0,  -924.743E-18,  -4.49454E-03,      -1.44498,0.0538066,0.0564156,9.09495e-13
18032,-1.0,-9.0,0.0,  -480.331E-06,  -4.49160E-03,      -1.44451,0.0538149,0.0563915,-0.00012788
18033,-2.0,-9.0,0.0,  -960.131E-06,  -4.48276E-03,      -1.44311,0.0538396,0.0563193,-0.00025562
18038,-3.0,-9.0,0.0,  -1.43886E-03,  -4.46802E-03,      -1.44077,0.0538808,0.056199,-0.000383077
18039,-4.0,-9.0,0.0,  -1.91597E-03,  -4.44738E-03,      -1.43749,0.0539384,0.0560305,-0.000510104
18044,-5.0,-9.0,0.0,  -2.39088E-03,  -4.42085E-03,      -1.43326,0.0540121,0.0558137,-0.000636546
18047,-6.0,-9.0,0.0,  -2.86297E-03,  -4.38841E-03,      -1.42808,0.0541017,0.0555487,-0.00076224
18048,-7.0,-9.0,0.0,  -3.33162E-03,  -4.35007E-03,      -1.42192,0.0542071,0.0552354,-0.000887007
18053,-8.0,-9.0,0.0,  -3.79611E-03,  -4.30583E-03,      -1.41478,0.0543279,0.0548737,-0.00101066
18054,-9.0,-9.0,0.0,  -4.25571E-03,  -4.25571E-03,      -1.40664,0.0544638,0.0544638,-0.00113298
18059,-10.0,-9.0,0.0,  -4.70960E-03,  -4.19971E-03,      -1.39749,0.0546143,0.0540055,-0.00125375
18062,-11.0,-9.0,0.0,  -5.15691E-03,  -4.13786E-03,      -1.38731,0.054779,0.0534992,-0.00137271
18063,-12.0,-9.0,0.0,  -5.59668E-03,  -4.07019E-03,      -1.37608,0.0549575,0.0529449,-0.00148959
18068,-13.0,-9.0,0.0,  -6.02787E-03,  -3.99676E-03,      -1.36378,0.0551491,0.0523431,-0.00160409
18069,-14.0,-9.0,0.0,  -6.44936E-03,  -3.91761E-03,      -1.35038,0.0553533,0.051694,-0.00171589
18074,-15.0,-9.0,0.0,  -6.85991E-03,  -3.83284E-03,      -1.33587,0.0555694,0.0509982,-0.00182462
18077,-16.0,-9.0,0.0,  -7.25819E-03,  -3.74254E-03,      -1.32021,0.0557965,0.0502566,-0.0019299
18078,-17.0,-9.0,0.0,  -7.64277E-03,  -3.64683E-03,      -1.30338,0.0560341,0.04947,-0.00203131
18083,-18.0,-9.0,0.0,  -8.01207E-03,  -3.54586E-03,      -1.28535,0.0562812,0.0486394,-0.00212841
18084,-19.0,-9.0,0.0,  -8.36444E-03,  -3.43980E-03,      -1.26610,0.0565369,0.0477663,-0.00222072
18089,-20.0,-9.0,0.0,  -8.69805E-03,  -3.32885E-03,      -1.24560,0.0568003,0.0468522,-0.00230775
18092,-21.0,-9.0,0.0,  -9.01099E-03,  -3.21326E-03,      -1.22382,0.0570705,0.045899,-0.00238896
18093,-22.0,-9.0,0.0,  -9.30120E-03,  -3.09330E-03,      -1.20073,0.0573463,0.0449089,-0.00246382
18098,-23.0,-9.0,0.0,  -9.56648E-03,  -2.96926E-03,      -1.17630,0.0576268,0.0438841,-0.00253177
18099,-24.0,-9.0,0.0,  -9.80451E-03,  -2.84149E-03,      -1.15050,0.0579108,0.0428276,-0.00259224
18104,-25.0,-9.0,0.0,  -10.0128E-03,  -2.71037E-03,      -1.12331,0.0581972,0.0417423,-0.00264466
18107,-26.0,-9.0,0.0,  -10.1889E-03,  -2.57630E-03,      -1.09470,0.0584849,0.0406316,-0.00268848
18108,-27.0,-9.0,0.0,  -10.3300E-03,  -2.43975E-03,      -1.06463,0.0587727,0.0394992,-0.00272314
18113,-28.0,-9.0,0.0,  -10.4332E-03,  -2.30120E-03,      -1.03309,0.0590594,0.0383491,-0.00274813
18114,-29.0,-9.0,0.0,  -10.4957E-03,  -2.16117E-03,      -1.00004,0.0593439,0.0371856,-0.00276296
18119,-30.0,-9.0,0.0,  -10.5144E-03,  -2.02021E-03,  -965.471E-03,0.0596251,0.0360132,-0.00276719
18122,-31.0,-9.0,0.0,  -10.4861E-03,  -1.87891E-03,  -929.345E-03,0.0599017,0.0348369,-0.00276042
18123,-32.0,-9.0,0.0,  -10.4075E-03,  -1.73787E-03,  -891.645E-03,0.0601728,0.0336617,-0.00274233
18128,-33.0,-9.0,0.0,  -10.2754E-03,  -1.59774E-03,  -852.349E-03,0.0604371,0.0324928,-0.00271268
18129,-34.0,-9.0,0.0,  -10.0862E-03,  -1.45914E-03,  -811.438E-03,0.0606938,0.0313357,-0.00267129
18134,-35.0,-9.0,0.0,  -9.83649E-03,  -1.32276E-03,  -768.894E-03,0.0609417,0.030196,-0.00261809
18137,-36.0,-9.0,0.0,  -9.52265E-03,  -1.18926E-03,  -724.698E-03,0.0611799,0.0290792,-0.00255308
18138,-37.0,-9.0,0.0,  -9.14108E-03,  -1.05932E-03,  -678.836E-03,0.0614073,0.0279909,-0.0024764
18143,-38.0,-9.0,0.0,  -8.68808E-03,  -933.612E-06,  -631.294E-03,0.0616226,0.0269367,-0.00238826
18144,-39.0,-9.0,0.0,  -8.15995E-03,  -812.801E-06,  -582.058E-03,0.0618239,0.0259218,-0.00228902
18149,-40.0,-9.0,0.0,  -7.55296E-03,  -697.542E-06,  -531.118E-03,0.0620071,0.0249507,-0.00217918
18152,-41.0,-9.0,0.0,  -6.86345E-03,  -588.478E-06,  -478.467E-03,0.0621623,0.0240259,-0.00205947
18153,-42.0,-9.0,0.0,  -6.08792E-03,  -486.230E-06,  -424.100E-03,0.062264,0.0231449,-0.00193095
18158,-43.0,-9.0,0.0,  -5.22347E-03,  -391.406E-06,  -368.025E-03,0.0622431,0.0222922,-0.00179542
18159,-44.0,-9.0,0.0,  -4.26887E-03,  -304.610E-06,  -310.281E-03,0.0619115,0.0214158,-0.00165583
18164,-45.0,-9.0,0.0,  -3.22767E-03,  -226.474E-06,  -250.980E-03,0.060752,0.0203651,-0.00151772
18165,-46.0,-9.0,0.0,  -2.11672E-03,  -157.730E-06,  -190.449E-03,0.0573411,0.0187172,-0.00138955
18170,-47.0,-9.0,0.0,  -989.510E-06,  -99.3483E-06,  -129.593E-03,0.04775,0.0152987,-0.00128194
18171,-48.0,-9.0,0.0,   4.45996E-06,  -52.7274E-06,  -70.9155E-03,0.0211186,0.00685957,-0.00118562
18176,-49.0,-9.0,0.0,   503.425E-06,  -19.5743E-06,  -21.3356E-03,-0.0526034,-0.0155966,-0.000983162
18179,-50.0,-9.0,0.0,   2.81686E-39,  -867.251E-42,           -0.,-0.106757,-0.0320304,-0.000584394
18180,50.0,-10.0,0.0,  -2.79499E-39,  -862.128E-42,           -0.,-0.106423,-0.0319304,0.000647375
18185,49.0,-10.0,0.0,  -499.582E-06,  -21.6523E-06,  -21.2300E-03,-0.0526615,-0.0156155,0.00109321
18186,48.0,-10.0,0.0,  -5.00383E-06,  -58.4380E-06,  -70.5983E-03,0.0206244,0.0067112,0.00132036
18191,47.0,-10.0,0.0,   983.072E-06,  -110.251E-06,  -129.072E-03,0.0472303,0.0151464,0.00142821
18194,46.0,-10.0,0.0,   2.10480E-03,  -175.189E-06,  -189.737E-03,0.0568601,0.0185818,0.00154823
18195,45.0,-10.0,0.0,   3.21061E-03,  -251.681E-06,  -250.082E-03,0.0603022,0.0202458,0.00169118
18200,44.0,-10.0,0.0,   4.24669E-03,  -338.631E-06,  -309.193E-03,0.0614787,0.0213095,0.0018453
18201,43.0,-10.0,0.0,   5.19604E-03,  -435.214E-06,  -366.741E-03,0.061818,0.0221971,0.00200113
18206,42.0,-10.0,0.0,   6.05507E-03,  -540.716E-06,  -422.608E-03,0.0618412,0.0230604,0.00215243
18209,41.0,-10.0,0.0,   6.82503E-03,  -654.454E-06,  -476.758E-03,0.0617394,0.0239521,0.00229584
18210,40.0,-10.0,0.0,   7.50887E-03,  -775.746E-06,  -529.183E-03,0.0615828,0.0248879,0.00242932
18215,39.0,-10.0,0.0,   8.11013E-03,  -903.891E-06,  -579.886E-03,0.0613976,0.0258704,0.00255168
18216,38.0,-10.0,0.0,   8.63256E-03,  -1.03817E-03,  -628.877E-03,0.0611939,0.0268971,0.00266209
18221,37.0,-10.0,0.0,   9.07995E-03,  -1.17784E-03,  -676.167E-03,0.0609759,0.0279632,0.00276001
18224,36.0,-10.0,0.0,   9.45607E-03,  -1.32217E-03,  -721.769E-03,0.0607458,0.0290636,0.00284503
18225,35.0,-10.0,0.0,   9.76466E-03,  -1.47038E-03,  -765.699E-03,0.0605048,0.0301926,0.00291691
18230,34.0,-10.0,0.0,   10.0094E-03,  -1.62174E-03,  -807.973E-03,0.0602541,0.0313444,0.00297554
18231,33.0,-10.0,0.0,   10.1939E-03,  -1.77548E-03,  -848.609E-03,0.0599946,0.0325134,0.0030209
18236,32.0,-10.0,0.0,   10.3218E-03,  -1.93087E-03,  -887.627E-03,0.0597275,0.0336938,0.00305311
18239,31.0,-10.0,0.0,   10.3965E-03,  -2.08718E-03,  -925.047E-03,0.0594539,0.0348801,0.00307238
18240,30.0,-10.0,0.0,   10.4213E-03,  -2.24372E-03,  -960.892E-03,0.0591747,0.0360671,0.003079
18245,29.0,-10.0,0.0,   10.3997E-03,  -2.39979E-03,  -995.186E-03,0.0588912,0.0372495,0.00307336
18246,28.0,-10.0,0.0,   10.3347E-03,  -2.55477E-03,      -1.02795,0.0586046,0.0384226,0.0030559
18251,27.0,-10.0,0.0,   10.2294E-03,  -2.70804E-03,      -1.05922,0.0583159,0.0395816,0.00302714
18254,26.0,-10.0,0.0,   10.0869E-03,  -2.85902E-03,      -1.08901,0.0580264,0.0407223,0.00298764
18255,25.0,-10.0,0.0,   9.90992E-03,  -3.00718E-03,      -1.11735,0.0577372,0.0418406,0.00293799
18260,24.0,-10.0,0.0,   9.70117E-03,  -3.15201E-03,      -1.14428,0.0574495,0.0429328,0.00287883
18261,23.0,-10.0,0.0,   9.46324E-03,  -3.29308E-03,      -1.16982,0.0571645,0.0439957,0.00281079
18266,22.0,-10.0,0.0,   9.19858E-03,  -3.42996E-03,      -1.19399,0.0568832,0.0450261,0.0027345
18269,21.0,-10.0,0.0,   8.90950E-03,  -3.56229E-03,      -1.21684,0.0566068,0.0460214,0.00265062
18270,20.0,-10.0,0.0,   8.59818E-03,  -3.68973E-03,      -1.23838,0.0563364,0.0469791,0.00255976
18275,19.0,-10.0,0.0,   8.26665E-03,  -3.81200E-03,      -1.25866,0.0560728,0.0478972,0.00246253
18276,18.0,-10.0,0.0,   7.91683E-03,  -3.92884E-03,      -1.27769,0.0558172,0.0487738,0.00235953
18281,17.0,-10.0,0.0,   7.55049E-03,  -4.04003E-03,      -1.29550,0.0555703,0.0496075,0.00225131
18284,16.0,-10.0,0.0,   7.16929E-03,  -4.14539E-03,      -1.31213,0.0553332,0.0503968,0.00213839
18285,15.0,-10.0,0.0,   6.77476E-03,  -4.24475E-03,      -1.32760,0.0551065,0.0511407,0.00202127
18290,14.0,-10.0,0.0,   6.36833E-03,  -4.33800E-03,      -1.34194,0.0548911,0.0518384,0.00190041
18291,13.0,-10.0,0.0,   5.95129E-03,  -4.42503E-03,      -1.35518,0.0546877,0.0524892,0.00177624
18296,12.0,-10.0,0.0,   5.52485E-03,  -4.50576E-03,      -1.36732,0.0544968,0.0530925,0.00164914
18299,11.0,-10.0,0.0,   5.09011E-03,  -4.58013E-03,      -1.37841,0.0543192,0.0536479,0.00151948
18300,10.0,-10.0,0.0,   4.64809E-03,  -4.64809E-03,      -1.38846,0.0541553,0.0541553,0.00138758
18305,9.0,-10.0,0.0,   4.19971E-03,  -4.70960E-03,      -1.39749,0.0540055,0.0546143,0.00125375
18306,8.0,-10.0,0.0,   3.74583E-03,  -4.76465E-03,      -1.40552,0.0538705,0.0550249,0.00111824
18311,7.0,-10.0,0.0,   3.28724E-03,  -4.81323E-03,      -1.41257,0.0537504,0.0553872,0.000981325
18314,6.0,-10.0,0.0,   2.82465E-03,  -4.85532E-03,      -1.41865,0.0536457,0.0557009,0.000843211
18315,5.0,-10.0,0.0,   2.35874E-03,  -4.89093E-03,      -1.42376,0.0535567,0.0559663,0.000704109
18320,4.0,-10.0,0.0,   1.89013E-03,  -4.92005E-03,      -1.42794,0.0534835,0.0561833,0.000564209
18321,3.0,-10.0,0.0,   1.41941E-03,  -4.94270E-03,      -1.43117,0.0534264,0.0563521,0.000423687
18326,2.0,-10.0,0.0,   947.125E-06,  -4.95887E-03,      -1.43348,0.0533855,0.0564725,0.000282708
18329,1.0,-10.0,0.0,   473.817E-06,  -4.96858E-03,      -1.43486,0.0533609,0.0565448,0.000141428
18330,0.0,-10.0,0.0,  -482.409E-18,  -4.97181E-03,      -1.43532,0.0533527,0.0565689,0.0
18335,-1.0,-10.0,0.0,  -473.817E-06,  -4.96858E-03,      -1.43486,0.0533609,0.0565448,-0.000141428
18336,-2.0,-10.0,0.0,  -947.125E-06,  -4.95887E-03,      -1.43348,0.0533855,0.0564725,-0.000282708
18341,-3.0,-10.0,0.0,  -1.41941E-03,  -4.94270E-03,      -1.43117,0.0534264,0.0563521,-0.000423687
18344,-4.0,-10.0,0.0,  -1.89013E-03,  -4.92005E-03,      -1.42794,0.0534835,0.0561833,-0.000564209
18345,-5.0,-10.0,0.0,  -2.35874E-03,  -4.89093E-03,      -1.42376,0.0535567,0.0559663,-0.000704109
18350,-6.0,-10.0,0.0,  -2.82465E-03,  -4.85532E-03,      -1.41865,0.0536457,0.0557009,-0.000843211
18351,-7.0,-10.0,0.0,  -3.28724E-03,  -4.81323E-03,      -1.41257,0.0537504,0.0553872,-0.000981325
18356,-8.0,-10.0,0.0,  -3.74583E-03,  -4.76465E-03,      -1.40552,0.0538705,0.0550249,-0.00111824
18359,-9.0,-10.0,0.0,  -4.19971E-03,  -4.70960E-03,      -1.39749,0.0540055,0.0546143,-0.00125375
18360,-10.0,-10.0,0.0,  -4.64809E-03,  -4.64809E-03,      -1.38846,0.0541553,0.0541553,-0.00138758
18365,-11.0,-10.0,0.0,  -5.09011E-03,  -4.58013E-03,      -1.37841,0.0543192,0.0536479,-0.00151948
18366,-12.0,-10.0,0.0,  -5.52485E-03,  -4.50576E-03,      -1.36732,0.0544968,0.0530925,-0.00164914
18371,-13.0,-10.0,0.0,  -5.95129E-03,  -4.42503E-03,      -1.35518,0.0546877,0.0524892,-0.00177624
18374,-14.0,-10.0,0.0,  -6.36833E-03,  -4.33800E-03,      -1.34194,0.0548911,0.0518384,-0.00190041
18375,-15.0,-10.0,0.0,  -6.77476E-03,  -4.24475E-03,      -1.32760,0.0551065,0.0511407,-0.00202127
18380,-16.0,-10.0,0.0,  -7.16929E-03,  -4.14539E-03,      -1.31213,0.0553332,0.0503968,-0.00213839
18381,-17.0,-10.0,0.0,  -7.55049E-03,  -4.04003E-03,      -1.29550,0.0555703,0.0496075,-0.00225131
18386,-18.0,-10.0,0.0,  -7.91683E-03,  -3.92884E-03,      -1.27769,0.0558172,0.0487738,-0.00235953
18389,-19.0,-10.0,0.0,  -8.26665E-03,  -3.81200E-03,      -1.25866,0.0560728,0.0478972,-0.00246253
18390,-20.0,-10.0,0.0,  -8.59818E-03,  -3.68973E-03,      -1.23838,0.0563364,0.0469791,-0.00255976
18395,-21.0,-10.0,0.0,  -8.90950E-03,  -3.56229E-03,      -1.21684,0.0566068,0.0460214,-0.00265062
18396,-22.0,-10.0,0.0,  -9.19858E-03,  -3.42996E-03,      -1.19399,0.0568832,0.0450261,-0.0027345
18401,-23.0,-10.0,0.0,  -9.46324E-03,  -3.29308E-03,      -1.16982,0.0571645,0.0439957,-0.00281079
18404,-24.0,-10.0,0.0,  -9.70117E-03,  -3.15201E-03,      -1.14428,0.0574495,0.0429328,-0.00287883
18405,-25.0,-10.0,0.0,  -9.90992E-03,  -3.00718E-03,      -1.11735,0.0577372,0.0418406,-0.00293799
18410,-26.0,-10.0,0.0,  -10.0869E-03,  -2.85902E-03,      -1.08901,0.0580264,0.0407223,-0.00298764
18411,-27.0,-10.0,0.0,  -10.2294E-03,  -2.70804E-03,      -1.05922,0.0583159,0.0395816,-0.00302714
18416,-28.0,-10.0,0.0,  -10.3347E-03,  -2.55477E-03,      -1.02795,0.0586046,0.0384226,-0.0030559
18419,-29.0,-10.0,0.0,  -10.3997E-03,  -2.39979E-03,  -995.186E-03,0.0588912,0.0372495,-0.00307336
18420,-30.0,-10.0,0.0,  -10.4213E-03,  -2.24372E-03,  -960.892E-03,0.0591747,0.0360671,-0.003079
18425,-31.0,-10.0,0.0,  -10.3965E-03,  -2.08718E-03,  -925.047E-03,0.0594539,0.0348801,-0.00307238
18426,-32.0,-10.0,0.0,  -10.3218E-03,  -1.93087E-03,  -887.627E-03,0.0597275,0.0336938,-0.00305311
18431,-33.0,-10.0,0.0,  -10.1939E-03,  -1.77548E-03,  -848.609E-03,0.0599946,0.0325134,-0.0030209
18434,-34.0,-10.0,0.0,  -10.0094E-03,  -1.62174E-03,  -807.973E-03,0.0602541,0.0313444,-0.00297554
18435,-35.0,-10.0,0.0,  -9.76466E-03,  -1.47038E-03,  -765.699E-03,0.0605048,0.0301926,-0.00291691
18440,-36.0,-10.0,0.0,  -9.45607E-03,  -1.32217E-03,  -721.769E-03,0.0607458,0.0290636,-0.00284503
18441,-37.0,-10.0,0.0,  -9.07995E-03,  -1.17784E-03,  -676.167E-03,0.0609759,0.0279632,-0.00276001
18446,-38.0,-10.0,0.0,  -8.63256E-03,  -1.03817E-03,  -628.877E-03,0.0611939,0.0268971,-0.00266209
18449,-39.0,-10.0,0.0,  -8.11013E-03,  -903.891E-06,  -579.886E-03,0.0613976,0.0258704,-0.00255168
18450,-40.0,-10.0,0.0,  -7.50887E-03,  -775.746E-06,  -529.183E-03,0.0615828,0.0248879,-0.00242932
18455,-41.0,-10.0,0.0,  -6.82503E-03,  -654.454E-06,  -476.758E-03,0.0617394,0.0239521,-0.00229584
18456,-42.0,-10.0,0.0,  -6.05507E-03,  -540.716E-06,  -422.608E-03,0.0618412,0.0230604,-0.00215243
18461,-43.0,-10.0,0.0,  -5.19604E-03,  -435.214E-06,  -366.741E-03,0.061818,0.0221971,-0.00200113
18464,-44.0,-10.0,0.0,  -4.24669E-03,  -338.631E-06,  -309.193E-03,0.0614787,0.0213095,-0.0018453
18465,-45.0,-10.0,0.0,  -3.21061E-03,  -251.681E-06,  -250.082E-03,0.0603022,0.0202458,-0.00169118
18470,-46.0,-10.0,0.0,  -2.10480E-03,  -175.189E-06,  -189.737E-03,0.0568601,0.0185818,-0.00154823
18471,-47.0,-10.0,0.0,  -983.072E-06,  -110.251E-06,  -129.072E-03,0.0472303,0.0151464,-0.00142821
18476,-48.0,-10.0,0.0,   5.00383E-06,  -58.4380E-06,  -70.5983E-03,0.0206244,0.0067112,-0.00132036
18479,-49.0,-10.0,0.0,   499.582E-06,  -21.6523E-06,  -21.2300E-03,-0.0526615,-0.0156155,-0.00109321
18480,-50.0,-10.0,0.0,   2.79499E-39,  -862.128E-42,           -0.,-0.106423,-0.0319304,-0.000647375
18485,50.0,-11.0,0.0,  -2.77053E-39,  -856.178E-42,           -0.,-0.106051,-0.0318187,0.000709695
18486,49.0,-11.0,0.0,  -495.316E-06,  -23.6978E-06,  -21.1125E-03,-0.0527233,-0.0156356,0.00120347
18491,48.0,-11.0,0.0,  -5.60356E-06,  -64.0982E-06,  -70.2451E-03,0.0200779,0.00654702,0.00145604
18494,47.0,-11.0,0.0,   975.898E-06,  -121.106E-06,  -128.490E-03,0.0466543,0.0149774,0.00157571
18495,46.0,-11.0,0.0,   2.09149E-03,  -192.620E-06,  -188.944E-03,0.0563269,0.0184317,0.0017083
18500,45.0,-11.0,0.0,   3.19154E-03,  -276.892E-06,  -249.081E-03,0.0598037,0.0201136,0.00186621
18501,44.0,-11.0,0.0,   4.22191E-03,  -372.697E-06,  -307.980E-03,0.0609993,0.0211919,0.00203658
18506,43.0,-11.0,0.0,   5.16540E-03,  -479.110E-06,  -365.307E-03,0.0613471,0.022092,0.0022089
18509,42.0,-11.0,0.0,   6.01837E-03,  -595.330E-06,  -420.943E-03,0.0613731,0.0229673,0.00237618
18510,41.0,-11.0,0.0,   6.78210E-03,  -720.596E-06,  -474.851E-03,0.0612711,0.0238708,0.00253468
18515,40.0,-11.0,0.0,   7.45960E-03,  -854.145E-06,  -527.022E-03,0.0611129,0.024819,0.00268209
18516,39.0,-11.0,0.0,   8.05447E-03,  -995.193E-06,  -577.461E-03,0.0609253,0.0258143,0.00281706
18521,38.0,-11.0,0.0,   8.57055E-03,  -1.14294E-03,  -626.178E-03,0.0607188,0.026854,0.00293868
18524,37.0,-11.0,0.0,   9.01169E-03,  -1.29657E-03,  -673.185E-03,0.0604978,0.0279336,0.00304634
18525,36.0,-11.0,0.0,   9.38174E-03,  -1.45524E-03,  -718.497E-03,0.0602646,0.0290475,0.0031396
18530,35.0,-11.0,0.0,   9.68450E-03,  -1.61812E-03,  -762.130E-03,0.0600204,0.03019,0.00321822
18531,34.0,-11.0,0.0,   9.92372E-03,  -1.78438E-03,  -804.102E-03,0.0597665,0.0313552,0.00328208
18536,33.0,-11.0,0.0,   10.1031E-03,  -1.95317E-03,  -844.431E-03,0.059504,0.0325372,0.00333119
18539,32.0,-11.0,0.0,   10.2262E-03,  -2.12369E-03,  -883.139E-03,0.0592338,0.0337304,0.00336569
18540,31.0,-11.0,0.0,   10.2966E-03,  -2.29513E-03,  -920.247E-03,0.0589572,0.034929,0.00338584
18545,30.0,-11.0,0.0,   10.3177E-03,  -2.46673E-03,  -955.780E-03,0.0586753,0.0361278,0.00339199
18546,29.0,-11.0,0.0,   10.2927E-03,  -2.63773E-03,  -989.761E-03,0.0583893,0.0373213,0.00338459
18551,28.0,-11.0,0.0,   10.2250E-03,  -2.80743E-03,      -1.02222,0.0581002,0.0385048,0.00336416
18554,27.0,-11.0,0.0,   10.1176E-03,  -2.97517E-03,      -1.05317,0.0578094,0.0396735,0.00333129
18555,26.0,-11.0,0.0,   9.97352E-03,  -3.14032E-03,      -1.08266,0.0575181,0.0408232,0.00328661
18560,25.0,-11.0,0.0,   9.79554E-03,  -3.30229E-03,      -1.11070,0.0572273,0.0419498,0.00323082
18561,24.0,-11.0,0.0,   9.58638E-03,  -3.46054E-03,      -1.13734,0.0569383,0.0430496,0.00316462
18566,23.0,-11.0,0.0,   9.34863E-03,  -3.61459E-03,      -1.16258,0.0566522,0.0441193,0.00308871
18569,22.0,-11.0,0.0,   9.08472E-03,  -3.76400E-03,      -1.18648,0.0563702,0.0451558,0.00300384
18570,21.0,-11.0,0.0,   8.79694E-03,  -3.90836E-03,      -1.20906,0.0560932,0.0461566,0.0029107
18575,20.0,-11.0,0.0,   8.48746E-03,  -4.04732E-03,      -1.23034,0.0558225,0.0471192,0.00281
18576,19.0,-11.0,0.0,   8.15829E-03,  -4.18058E-03,      -1.25036,0.0555589,0.0480415,0.00270242
18581,18.0,-11.0,0.0,   7.81133E-03,  -4.30786E-03,      -1.26915,0.0553035,0.0489219,0.0025886
18584,17.0,-11.0,0.0,   7.44832E-03,  -4.42893E-03,      -1.28673,0.055057,0.0497587,0.00246915
18585,16.0,-11.0,0.0,   7.07089E-03,  -4.54360E-03,      -1.30314,0.0548204,0.0505508,0.00234467
18590,15.0,-11.0,0.0,   6.68056E-03,  -4.65171E-03,      -1.31840,0.0545945,0.0512972,0.00221569
18591,14.0,-11.0,0.0,   6.27871E-03,  -4.75313E-03,      -1.33255,0.0543799,0.0519969,0.0020827
18596,13.0,-11.0,0.0,   5.86661E-03,  -4.84775E-03,      -1.34560,0.0541773,0.0526494,0.00194618
18599,12.0,-11.0,0.0,   5.44545E-03,  -4.93549E-03,      -1.35758,0.0539875,0.0532541,0.00180655
18600,11.0,-11.0,0.0,   5.01629E-03,  -5.01629E-03,      -1.36851,0.0538108,0.0538108,0.0016642
18605,10.0,-11.0,0.0,   4.58013E-03,  -5.09011E-03,      -1.37841,0.0536479,0.0543192,0.00151948
18606,9.0,-11.0,0.0,   4.13786E-03,  -5.15691E-03,      -1.38731,0.0534992,0.0547791,0.00137271
18611,8.0,-11.0,0.0,   3.69031E-03,  -5.21668E-03,      -1.39523,0.0533651,0.0551904,0.00122418
18614,7.0,-11.0,0.0,   3.23824E-03,  -5.26940E-03,      -1.40217,0.0532459,0.0555531,0.00107416
18615,6.0,-11.0,0.0,   2.78234E-03,  -5.31508E-03,      -1.40815,0.0531421,0.0558674,0.000922883
18620,5.0,-11.0,0.0,   2.32327E-03,  -5.35372E-03,      -1.41320,0.0530537,0.0561331,0.00077057
18621,4.0,-11.0,0.0,   1.86161E-03,  -5.38533E-03,      -1.41731,0.0529812,0.0563504,0.00061742
18626,3.0,-11.0,0.0,   1.39794E-03,  -5.40990E-03,      -1.42050,0.0529245,0.0565193,0.000463619
18629,2.0,-11.0,0.0,   932.773E-06,  -5.42744E-03,      -1.42277,0.052884,0.0566399,0.000309341
18630,1.0,-11.0,0.0,   466.630E-06,  -5.43797E-03,      -1.42413,0.0528596,0.0567122,0.000154748
18635,0.0,-11.0,0.0,  -1.40973E-15,  -5.44147E-03,      -1.42458,0.0528515,0.0567364,0.0
18636,-1.0,-11.0,0.0,  -466.630E-06,  -5.43797E-03,      -1.42413,0.0528596,0.0567122,-0.000154748
18641,-2.0,-11.0,0.0,  -932.773E-06,  -5.42744E-03,      -1.42277,0.052884,0.0566399,-0.000309341
18644,-3.0,-11.0,0.0,  -1.39794E-03,  -5.40990E-03,      -1.42050,0.0529245,0.0565193,-0.000463619
18645,-4.0,-11.0,0.0,  -1.86161E-03,  -5.38533E-03,      -1.41731,0.0529812,0.0563504,-0.00061742
18650,-5.0,-11.0,0.0,  -2.32327E-03,  -5.35372E-03,      -1.41320,0.0530537,0.0561331,-0.00077057
18651,-6.0,-11.0,0.0,  -2.78234E-03,  -5.31508E-03,      -1.40815,0.0531421,0.0558674,-0.000922883
18656,-7.0,-11.0,0.0,  -3.23824E-03,  -5.26940E-03,      -1.40217,0.0532459,0.0555531,-0.00107416
18659,-8.0,-11.0,0.0,  -3.69031E-03,  -5.21668E-03,      -1.39523,0.0533651,0.0551904,-0.00122418
18660,-9.0,-11.0,0.0,  -4.13786E-03,  -5.15691E-03,      -1.38731,0.0534992,0.0547791,-0.00137271
18665,-10.0,-11.0,0.0,  -4.58013E-03,  -5.09011E-03,      -1.37841,0.0536479,0.0543192,-0.00151948
18666,-11.0,-11.0,0.0,  -5.01629E-03,  -5.01629E-03,      -1.36851,0.0538108,0.0538108,-0.0016642
18671,-12.0,-11.0,0.0,  -5.44545E-03,  -4.93549E-03,      -1.35758,0.0539875,0.0532541,-0.00180655
18674,-13.0,-11.0,0.0,  -5.86661E-03,  -4.84775E-03,      -1.34560,0.0541773,0.0526494,-0.00194618
18675,-14.0,-11.0,0.0,  -6.27871E-03,  -4.75313E-03,      -1.33255,0.0543799,0.0519969,-0.0020827
18680,-15.0,-11.0,0.0,  -6.68056E-03,  -4.65171E-03,      -1.31840,0.0545945,0.0512972,-0.00221569
18681,-16.0,-11.0,0.0,  -7.07089E-03,  -4.54360E-03,      -1.30314,0.0548204,0.0505508,-0.00234467
18686,-17.0,-11.0,0.0,  -7.44832E-03,  -4.42893E-03,      -1.28673,0.055057,0.0497587,-0.00246915
18689,-18.0,-11.0,0.0,  -7.81133E-03,  -4.30786E-03,      -1.26915,0.0553035,0.0489219,-0.0025886
18690,-19.0,-11.0,0.0,  -8.15829E-03,  -4.18058E-03,      -1.25036,0.0555589,0.0480415,-0.00270242
18695,-20.0,-11.0,0.0,  -8.48746E-03,  -4.04732E-03,      -1.23034,0.0558225,0.0471192,-0.00281
18696,-21.0,-11.0,0.0,  -8.79694E-03,  -3.90836E-03,      -1.20906,0.0560932,0.0461566,-0.0029107
18701,-22.0,-11.0,0.0,  -9.08472E-03,  -3.76400E-03,      -1.18648,0.0563702,0.0451558,-0.00300384
18704,-23.0,-11.0,0.0,  -9.34863E-03,  -3.61459E-03,      -1.16258,0.0566522,0.0441193,-0.00308871
18705,-24.0,-11.0,0.0,  -9.58638E-03,  -3.46054E-03,      -1.13734,0.0569383,0.0430496,-0.00316462
18710,-25.0,-11.0,0.0,  -9.79554E-03,  -3.30229E-03,      -1.11070,0.0572273,0.0419498,-0.00323082
18711,-26.0,-11.0,0.0,  -9.97352E-03,  -3.14032E-03,      -1.08266,0.0575181,0.0408232,-0.00328661
18716,-27.0,-11.0,0.0,  -10.1176E-03,  -2.97517E-03,      -1.05317,0.0578094,0.0396735,-0.00333129
18719,-28.0,-11.0,0.0,  -10.2250E-03,  -2.80743E-03,      -1.02222,0.0581002,0.0385048,-0.00336416
18720,-29.0,-11.0,0.0,  -10.2927E-03,  -2.63773E-03,  -989.761E-03,0.0583893,0.0373213,-0.00338459
18725,-30.0,-11.0,0.0,  -10.3177E-03,  -2.46673E-03,  -955.780E-03,0.0586753,0.0361278,-0.00339199
18726,-31.0,-11.0,0.0,  -10.2966E-03,  -2.29513E-03,  -920.247E-03,0.0589572,0.034929,-0.00338584
18731,-32.0,-11.0,0.0,  -10.2262E-03,  -2.12369E-03,  -883.139E-03,0.0592338,0.0337304,-0.00336569
18734,-33.0,-11.0,0.0,  -10.1031E-03,  -1.95317E-03,  -844.431E-03,0.059504,0.0325372,-0.00333119
18735,-34.0,-11.0,0.0,  -9.92372E-03,  -1.78438E-03,  -804.102E-03,0.0597665,0.0313552,-0.00328208
18740,-35.0,-11.0,0.0,  -9.68450E-03,  -1.61812E-03,  -762.130E-03,0.0600204,0.03019,-0.00321822
18741,-36.0,-11.0,0.0,  -9.38174E-03,  -1.45524E-03,  -718.497E-03,0.0602646,0.0290475,-0.0031396
18746,-37.0,-11.0,0.0,  -9.01169E-03,  -1.29657E-03,  -673.185E-03,0.0604978,0.0279336,-0.00304634
18749,-38.0,-11.0,0.0,  -8.57055E-03,  -1.14294E-03,  -626.178E-03,0.0607188,0.026854,-0.00293868
18750,-39.0,-11.0,0.0,  -8.05447E-03,  -995.193E-06,  -577.461E-03,0.0609253,0.0258143,-0.00281706
18755,-40.0,-11.0,0.0,  -7.45960E-03,  -854.145E-06,  -527.022E-03,0.0611129,0.024819,-0.00268209
18756,-41.0,-11.0,0.0,  -6.78210E-03,  -720.596E-06,  -474.851E-03,0.0612711,0.0238708,-0.00253468
18761,-42.0,-11.0,0.0,  -6.01837E-03,  -595.330E-06,  -420.943E-03,0.0613731,0.0229673,-0.00237618
18764,-43.0,-11.0,0.0,  -5.16540E-03,  -479.110E-06,  -365.307E-03,0.0613471,0.022092,-0.0022089
18765,-44.0,-11.0,0.0,  -4.22191E-03,  -372.697E-06,  -307.980E-03,0.0609993,0.0211919,-0.00203658
18770,-45.0,-11.0,0.0,  -3.19154E-03,  -276.892E-06,  -249.081E-03,0.0598037,0.0201136,-0.00186621
18771,-46.0,-11.0,0.0,  -2.09149E-03,  -192.620E-06,  -188.944E-03,0.0563269,0.0184317,-0.0017083
18776,-47.0,-11.0,0.0,  -975.898E-06,  -121.106E-06,  -128.490E-03,0.0466543,0.0149774,-0.00157571
18779,-48.0,-11.0,0.0,   5.60356E-06,  -64.0982E-06,  -70.2451E-03,0.0200779,0.00654702,-0.00145604
18780,-49.0,-11.0,0.0,   495.316E-06,  -23.6978E-06,  -21.1125E-03,-0.0527233,-0.0156356,-0.00120347
18785,-50.0,-11.0,0.0,   2.77053E-39,  -856.178E-42,           -0.,-0.106051,-0.0318187,-0.000709695
18786,50.0,-12.0,0.0,  -2.74344E-39,  -849.390E-42,           -0.,-0.105637,-0.0316948,0.000771261
18791,49.0,-12.0,0.0,  -490.621E-06,  -25.7068E-06,  -20.9829E-03,-0.0527878,-0.0156568,0.00131395
18794,48.0,-12.0,0.0,  -6.25756E-06,  -69.7006E-06,  -69.8551E-03,0.019479,0.00636698,0.00159275
18795,47.0,-12.0,0.0,   967.974E-06,  -131.904E-06,  -127.848E-03,0.0460215,0.0147916,0.00172458
18800,46.0,-12.0,0.0,   2.07677E-03,  -210.015E-06,  -188.066E-03,0.0557408,0.0182665,0.00186992
18801,45.0,-12.0,0.0,   3.17043E-03,  -302.103E-06,  -247.973E-03,0.0592561,0.0199684,0.00204301
18806,44.0,-12.0,0.0,   4.19445E-03,  -406.806E-06,  -306.638E-03,0.0604729,0.0210628,0.00222987
18809,43.0,-12.0,0.0,   5.13143E-03,  -523.094E-06,  -363.720E-03,0.0608303,0.021977,0.00241895
18810,42.0,-12.0,0.0,   5.97769E-03,  -650.078E-06,  -419.100E-03,0.0608594,0.0228655,0.00260249
18815,41.0,-12.0,0.0,   6.73452E-03,  -786.910E-06,  -472.739E-03,0.0607572,0.0237824,0.0027763
18816,40.0,-12.0,0.0,   7.40499E-03,  -932.742E-06,  -524.628E-03,0.0605971,0.0247442,0.00293779
18821,39.0,-12.0,0.0,   7.99280E-03,  -1.08671E-03,  -574.775E-03,0.0604068,0.0257536,0.00308547
18824,38.0,-12.0,0.0,   8.50185E-03,  -1.24793E-03,  -623.188E-03,0.0601971,0.0268079,0.00321832
18825,37.0,-12.0,0.0,   8.93608E-03,  -1.41548E-03,  -669.882E-03,0.0599728,0.0279022,0.00333568
18830,36.0,-12.0,0.0,   9.29943E-03,  -1.58847E-03,  -714.873E-03,0.059736,0.0290311,0.00343708
18831,35.0,-12.0,0.0,   9.59577E-03,  -1.76595E-03,  -758.177E-03,0.0594883,0.0301884,0.00352226
18836,34.0,-12.0,0.0,   9.82892E-03,  -1.94701E-03,  -799.813E-03,0.0592308,0.0313684,0.00359112
18839,33.0,-12.0,0.0,   10.0026E-03,  -2.13074E-03,  -839.803E-03,0.0589647,0.0325648,0.0036437
18840,32.0,-12.0,0.0,   10.1205E-03,  -2.31624E-03,  -878.168E-03,0.0586912,0.033772,0.00368017
18845,31.0,-12.0,0.0,   10.1862E-03,  -2.50264E-03,  -914.931E-03,0.0584114,0.0349841,0.00370085
18846,30.0,-12.0,0.0,   10.2032E-03,  -2.68909E-03,  -950.117E-03,0.0581264,0.0361956,0.00370616
18851,29.0,-12.0,0.0,   10.1747E-03,  -2.87478E-03,  -983.752E-03,0.0578375,0.0374012,0.00369661
18854,28.0,-12.0,0.0,   10.1040E-03,  -3.05896E-03,      -1.01586,0.0575459,0.038596,0.00367281
18855,27.0,-12.0,0.0,   9.99434E-03,  -3.24089E-03,      -1.04648,0.0572529,0.0397753,0.00363544
18860,26.0,-12.0,0.0,   9.84856E-03,  -3.41990E-03,      -1.07563,0.0569595,0.0409347,0.00358521
18861,25.0,-12.0,0.0,   9.66956E-03,  -3.59536E-03,      -1.10334,0.056667,0.0420701,0.00352291
18866,24.0,-12.0,0.0,   9.46002E-03,  -3.76669E-03,      -1.12965,0.0563767,0.043178,0.00344932
18869,23.0,-12.0,0.0,   9.22253E-03,  -3.93337E-03,      -1.15458,0.0560895,0.0442549,0.00336525
18870,22.0,-12.0,0.0,   8.95951E-03,  -4.09494E-03,      -1.17817,0.0558068,0.045298,0.0032715
18875,21.0,-12.0,0.0,   8.67323E-03,  -4.25096E-03,      -1.20045,0.0555294,0.0463045,0.00316886
18876,20.0,-12.0,0.0,   8.36583E-03,  -4.40106E-03,      -1.22144,0.0552585,0.0472722,0.00305811
18881,19.0,-12.0,0.0,   8.03931E-03,  -4.54492E-03,      -1.24119,0.0549951,0.048199,0.00294
18884,18.0,-12.0,0.0,   7.69554E-03,  -4.68226E-03,      -1.25971,0.05474,0.0490833,0.00281522
18885,17.0,-12.0,0.0,   7.33623E-03,  -4.81284E-03,      -1.27704,0.0544941,0.0499235,0.00268447
18890,16.0,-12.0,0.0,   6.96299E-03,  -4.93646E-03,      -1.29321,0.0542583,0.0507185,0.00254836
18891,15.0,-12.0,0.0,   6.57730E-03,  -5.05296E-03,      -1.30824,0.0540332,0.0514673,0.00240749
18896,14.0,-12.0,0.0,   6.18051E-03,  -5.16220E-03,      -1.32217,0.0538197,0.0521691,0.00226239
18899,13.0,-12.0,0.0,   5.77387E-03,  -5.26408E-03,      -1.33502,0.0536183,0.0528233,0.00211357
18900,12.0,-12.0,0.0,   5.35851E-03,  -5.35851E-03,      -1.34682,0.0534296,0.0534296,0.00196149
18905,11.0,-12.0,0.0,   4.93549E-03,  -5.44545E-03,      -1.35758,0.0532541,0.0539875,0.00180655
18906,10.0,-12.0,0.0,   4.50576E-03,  -5.52485E-03,      -1.36732,0.0530925,0.0544968,0.00164914
18911,9.0,-12.0,0.0,   4.07019E-03,  -5.59668E-03,      -1.37608,0.0529449,0.0549575,0.00148959
18914,8.0,-12.0,0.0,   3.62958E-03,  -5.66093E-03,      -1.38387,0.052812,0.0553695,0.00132822
18915,7.0,-12.0,0.0,   3.18466E-03,  -5.71761E-03,      -1.39070,0.0526939,0.0557328,0.00116529
18920,6.0,-12.0,0.0,   2.73609E-03,  -5.76670E-03,      -1.39659,0.052591,0.0560475,0.00100106
18921,5.0,-12.0,0.0,   2.28449E-03,  -5.80821E-03,      -1.40155,0.0525035,0.0563135,0.000835766
18926,4.0,-12.0,0.0,   1.83044E-03,  -5.84216E-03,      -1.40559,0.0524316,0.056531,0.000669606
18929,3.0,-12.0,0.0,   1.37447E-03,  -5.86855E-03,      -1.40872,0.0523756,0.0567001,0.000502775
18930,2.0,-12.0,0.0,   917.088E-06,  -5.88740E-03,      -1.41096,0.0523355,0.0568209,0.000335452
18935,1.0,-12.0,0.0,   458.775E-06,  -5.89870E-03,      -1.41230,0.0523113,0.0568933,0.000167806
18936,0.0,-12.0,0.0,   386.389E-18,  -5.90247E-03,      -1.41274,0.0523033,0.0569174,-1.81899e-12
18941,-1.0,-12.0,0.0,  -458.775E-06,  -5.89870E-03,      -1.41230,0.0523113,0.0568933,-0.000167806
18944,-2.0,-12.0,0.0,  -917.088E-06,  -5.88740E-03,      -1.41096,0.0523355,0.0568209,-0.000335452
18945,-3.0,-12.0,0.0,  -1.37447E-03,  -5.86855E-03,      -1.40872,0.0523756,0.0567001,-0.000502775
18950,-4.0,-12.0,0.0,  -1.83044E-03,  -5.84216E-03,      -1.40559,0.0524316,0.056531,-0.000669606
18951,-5.0,-12.0,0.0,  -2.28449E-03,  -5.80821E-03,      -1.40155,0.0525035,0.0563135,-0.000835766
18956,-6.0,-12.0,0.0,  -2.73609E-03,  -5.76670E-03,      -1.39659,0.052591,0.0560475,-0.00100106
18959,-7.0,-12.0,0.0,  -3.18466E-03,  -5.71761E-03,      -1.39070,0.0526939,0.0557328,-0.00116529
18960,-8.0,-12.0,0.0,  -3.62958E-03,  -5.66093E-03,      -1.38387,0.052812,0.0553695,-0.00132822
18965,-9.0,-12.0,0.0,  -4.07019E-03,  -5.59668E-03,      -1.37608,0.0529449,0.0549575,-0.00148959
18966,-10.0,-12.0,0.0,  -4.50576E-03,  -5.52485E-03,      -1.36732,0.0530925,0.0544968,-0.00164914
18971,-11.0,-12.0,0.0,  -4.93549E-03,  -5.44545E-03,      -1.35758,0.0532541,0.0539875,-0.00180655
18974,-12.0,-12.0,0.0,  -5.35851E-03,  -5.35851E-03,      -1.34682,0.0534296,0.0534296,-0.00196149
18975,-13.0,-12.0,0.0,  -5.77387E-03,  -5.26408E-03,      -1.33502,0.0536183,0.0528233,-0.00211357
18980,-14.0,-12.0,0.0,  -6.18051E-03,  -5.16220E-03,      -1.32217,0.0538197,0.0521691,-0.00226239
18981,-15.0,-12.0,0.0,  -6.57730E-03,  -5.05296E-03,      -1.30824,0.0540332,0.0514673,-0.00240749
18986,-16.0,-12.0,0.0,  -6.96299E-03,  -4.93646E-03,      -1.29321,0.0542583,0.0507185,-0.00254836
18989,-17.0,-12.0,0.0,  -7.33623E-03,  -4.81284E-03,      -1.27704,0.0544941,0.0499235,-0.00268447
18990,-18.0,-12.0,0.0,  -7.69554E-03,  -4.68226E-03,      -1.25971,0.05474,0.0490833,-0.00281522
18995,-19.0,-12.0,0.0,  -8.03931E-03,  -4.54492E-03,      -1.24119,0.0549951,0.048199,-0.00294
18996,-20.0,-12.0,0.0,  -8.36583E-03,  -4.40106E-03,      -1.22144,0.0552585,0.0472722,-0.00305811
19001,-21.0,-12.0,0.0,  -8.67323E-03,  -4.25096E-03,      -1.20045,0.0555294,0.0463045,-0.00316886
19004,-22.0,-12.0,0.0,  -8.95951E-03,  -4.09494E-03,      -1.17817,0.0558068,0.045298,-0.0032715
19005,-23.0,-12.0,0.0,  -9.22253E-03,  -3.93337E-03,      -1.15458,0.0560895,0.0442549,-0.00336525
19010,-24.0,-12.0,0.0,  -9.46002E-03,  -3.76669E-03,      -1.12965,0.0563767,0.043178,-0.00344932
19011,-25.0,-12.0,0.0,  -9.66956E-03,  -3.59536E-03,      -1.10334,0.056667,0.0420701,-0.00352291
19016,-26.0,-12.0,0.0,  -9.84856E-03,  -3.41990E-03,      -1.07563,0.0569595,0.0409347,-0.00358521
19019,-27.0,-12.0,0.0,  -9.99434E-03,  -3.24089E-03,      -1.04648,0.0572529,0.0397753,-0.00363544
19020,-28.0,-12.0,0.0,  -10.1040E-03,  -3.05896E-03,      -1.01586,0.0575459,0.038596,-0.00367281
19025,-29.0,-12.0,0.0,  -10.1747E-03,  -2.87478E-03,  -983.752E-03,0.0578375,0.0374012,-0.00369661
19026,-30.0,-12.0,0.0,  -10.2032E-03,  -2.68909E-03,  -950.117E-03,0.0581264,0.0361956,-0.00370616
19031,-31.0,-12.0,0.0,  -10.1862E-03,  -2.50264E-03,  -914.931E-03,0.0584114,0.0349841,-0.00370085
19034,-32.0,-12.0,0.0,  -10.1205E-03,  -2.31624E-03,  -878.168E-03,0.0586912,0.033772,-0.00368017
19035,-33.0,-12.0,0.0,  -10.0026E-03,  -2.13074E-03,  -839.803E-03,0.0589647,0.0325648,-0.0036437
19040,-34.0,-12.0,0.0,  -9.82892E-03,  -1.94701E-03,  -799.813E-03,0.0592308,0.0313684,-0.00359112
19041,-35.0,-12.0,0.0,  -9.59577E-03,  -1.76595E-03,  -758.177E-03,0.0594883,0.0301884,-0.00352226
19046,-36.0,-12.0,0.0,  -9.29943E-03,  -1.58847E-03,  -714.873E-03,0.059736,0.0290311,-0.00343708
19049,-37.0,-12.0,0.0,  -8.93608E-03,  -1.41548E-03,  -669.882E-03,0.0599728,0.0279022,-0.00333568
19050,-38.0,-12.0,0.0,  -8.50185E-03,  -1.24793E-03,  -623.188E-03,0.0601971,0.0268079,-0.00321832
19055,-39.0,-12.0,0.0,  -7.99280E-03,  -1.08671E-03,  -574.775E-03,0.0604068,0.0257536,-0.00308547
19056,-40.0,-12.0,0.0,  -7.40499E-03,  -932.742E-06,  -524.628E-03,0.0605971,0.0247442,-0.00293779
19061,-41.0,-12.0,0.0,  -6.73452E-03,  -786.910E-06,  -472.739E-03,0.0607572,0.0237824,-0.0027763
19064,-42.0,-12.0,0.0,  -5.97769E-03,  -650.078E-06,  -419.100E-03,0.0608594,0.0228655,-0.00260249
19065,-43.0,-12.0,0.0,  -5.13143E-03,  -523.094E-06,  -363.720E-03,0.0608303,0.021977,-0.00241895
19070,-44.0,-12.0,0.0,  -4.19445E-03,  -406.806E-06,  -306.638E-03,0.0604729,0.0210628,-0.00222987
19071,-45.0,-12.0,0.0,  -3.17043E-03,  -302.103E-06,  -247.973E-03,0.0592561,0.0199684,-0.00204301
19076,-46.0,-12.0,0.0,  -2.07677E-03,  -210.015E-06,  -188.066E-03,0.0557408,0.0182665,-0.00186992
19079,-47.0,-12.0,0.0,  -967.974E-06,  -131.904E-06,  -127.848E-03,0.0460215,0.0147916,-0.00172458
19080,-48.0,-12.0,0.0,   6.25756E-06,  -69.7006E-06,  -69.8551E-03,0.019479,0.00636698,-0.00159275
19085,-49.0,-12.0,0.0,   490.621E-06,  -25.7068E-06,  -20.9829E-03,-0.0527879,-0.0156568,-0.00131395
19086,-50.0,-12.0,0.0,   2.74344E-39,  -849.390E-42,           -0.,-0.105637,-0.0316948,-0.000771261
19091,50.0,-13.0,0.0,  -2.71368E-39,  -841.745E-42,           -0.,-0.105182,-0.0315584,0.000831968
19094,49.0,-13.0,0.0,  -485.491E-06,  -27.6745E-06,  -20.8409E-03,-0.0528544,-0.0156788,0.00142463
19095,48.0,-13.0,0.0,  -6.96351E-06,  -75.2371E-06,  -69.4274E-03,0.0188278,0.00617104,0.00173058
19100,47.0,-13.0,0.0,   959.283E-06,  -142.635E-06,  -127.143E-03,0.0453314,0.0145888,0.00187495
19101,46.0,-13.0,0.0,   2.06059E-03,  -227.366E-06,  -187.102E-03,0.0551013,0.0180863,0.00203327
19106,45.0,-13.0,0.0,   3.14720E-03,  -327.307E-06,  -246.756E-03,0.0586589,0.01981,0.00222176
19109,44.0,-13.0,0.0,   4.16422E-03,  -440.955E-06,  -305.162E-03,0.0598993,0.0209224,0.00242541
19110,43.0,-13.0,0.0,   5.09404E-03,  -567.167E-06,  -361.976E-03,0.0602673,0.0218521,0.00263156
19115,42.0,-13.0,0.0,   5.93290E-03,  -704.960E-06,  -417.073E-03,0.0602998,0.0227552,0.00283164
19116,41.0,-13.0,0.0,   6.68213E-03,  -853.396E-06,  -470.415E-03,0.0601974,0.0236867,0.00302099
19121,40.0,-13.0,0.0,   7.34487E-03,  -1.01154E-03,  -521.995E-03,0.0600351,0.0246637,0.00319674
19122,39.0,-13.0,0.0,   7.92491E-03,  -1.17844E-03,  -571.819E-03,0.0598418,0.0256886,0.00335723
19127,38.0,-13.0,0.0,   8.42624E-03,  -1.35312E-03,  -619.898E-03,0.0596286,0.0267589,0.00350133
19128,37.0,-13.0,0.0,   8.85291E-03,  -1.53458E-03,  -666.247E-03,0.0594004,0.0278695,0.00362832
19133,36.0,-13.0,0.0,   9.20891E-03,  -1.72181E-03,  -710.883E-03,0.0591596,0.0290147,0.00373772
19136,35.0,-13.0,0.0,   9.49823E-03,  -1.91381E-03,  -753.825E-03,0.0589079,0.0301884,0.00382925
19137,34.0,-13.0,0.0,   9.72474E-03,  -2.10957E-03,  -795.092E-03,0.0586464,0.0313845,0.00390284
19142,33.0,-13.0,0.0,   9.89227E-03,  -2.30809E-03,  -834.708E-03,0.0583765,0.0325967,0.00395855
19143,32.0,-13.0,0.0,   10.0045E-03,  -2.50840E-03,  -872.696E-03,0.0580992,0.033819,0.00399662
19148,31.0,-13.0,0.0,   10.0651E-03,  -2.70954E-03,  -909.080E-03,0.0578158,0.0350456,0.00401743
19151,30.0,-13.0,0.0,   10.0776E-03,  -2.91061E-03,  -943.886E-03,0.0575275,0.036271,0.00402146
19152,29.0,-13.0,0.0,   10.0453E-03,  -3.11074E-03,  -977.142E-03,0.0572356,0.0374896,0.00400932
19157,28.0,-13.0,0.0,   9.97153E-03,  -3.30909E-03,      -1.00888,0.0569412,0.0386966,0.00398171
19158,27.0,-13.0,0.0,   9.85938E-03,  -3.50489E-03,      -1.03912,0.0566457,0.0398871,0.00393939
19163,26.0,-13.0,0.0,   9.71186E-03,  -3.69741E-03,      -1.06790,0.0563503,0.0410568,0.00388318
19166,25.0,-13.0,0.0,   9.53182E-03,  -3.88599E-03,      -1.09525,0.0560561,0.0422017,0.00381396
19167,24.0,-13.0,0.0,   9.32196E-03,  -4.07001E-03,      -1.12121,0.0557644,0.0433181,0.00373261
19172,23.0,-13.0,0.0,   9.08483E-03,  -4.24893E-03,      -1.14579,0.0554763,0.0444027,0.00364002
19173,22.0,-13.0,0.0,   8.82285E-03,  -4.42223E-03,      -1.16905,0.0551929,0.0454526,0.00353708
19178,21.0,-13.0,0.0,   8.53828E-03,  -4.58949E-03,      -1.19100,0.0549152,0.0464652,0.00342468
19181,20.0,-13.0,0.0,   8.23323E-03,  -4.75031E-03,      -1.21168,0.0546443,0.0474381,0.00330366
19182,19.0,-13.0,0.0,   7.90967E-03,  -4.90435E-03,      -1.23112,0.0543812,0.0483696,0.00317483
19187,18.0,-13.0,0.0,   7.56944E-03,  -5.05133E-03,      -1.24935,0.0541267,0.0492578,0.00303897
19188,17.0,-13.0,0.0,   7.21422E-03,  -5.19100E-03,      -1.26641,0.0538816,0.0501015,0.0028968
19193,16.0,-13.0,0.0,   6.84560E-03,  -5.32316E-03,      -1.28231,0.0536467,0.0508994,0.00274902
19196,15.0,-13.0,0.0,   6.46500E-03,  -5.44764E-03,      -1.29710,0.0534229,0.0516507,0.00259625
19197,14.0,-13.0,0.0,   6.07376E-03,  -5.56432E-03,      -1.31080,0.0532106,0.0523546,0.00243907
19202,13.0,-13.0,0.0,   5.67308E-03,  -5.67308E-03,      -1.32343,0.0530106,0.0530106,0.00227802
19203,12.0,-13.0,0.0,   5.26408E-03,  -5.77387E-03,      -1.33502,0.0528233,0.0536183,0.00211357
19208,11.0,-13.0,0.0,   4.84775E-03,  -5.86661E-03,      -1.34560,0.0526494,0.0541773,0.00194618
19211,10.0,-13.0,0.0,   4.42503E-03,  -5.95129E-03,      -1.35518,0.0524892,0.0546877,0.00177624
19212,9.0,-13.0,0.0,   3.99676E-03,  -6.02787E-03,      -1.36378,0.052343,0.0551491,0.00160409
19217,8.0,-13.0,0.0,   3.56369E-03,  -6.09636E-03,      -1.37143,0.0522114,0.0555618,0.00143008
19218,7.0,-13.0,0.0,   3.12653E-03,  -6.15675E-03,      -1.37813,0.0520946,0.0559256,0.00125447
19223,6.0,-13.0,0.0,   2.68592E-03,  -6.20905E-03,      -1.38392,0.0519928,0.0562406,0.00107754
19226,5.0,-13.0,0.0,   2.24244E-03,  -6.25327E-03,      -1.38879,0.0519063,0.0565069,0.000899524
19227,4.0,-13.0,0.0,   1.79664E-03,  -6.28943E-03,      -1.39276,0.0518353,0.0567247,0.000720626
19232,3.0,-13.0,0.0,   1.34903E-03,  -6.31754E-03,      -1.39583,0.0517799,0.056894,0.000541047
19233,2.0,-13.0,0.0,   900.085E-06,  -6.33760E-03,      -1.39803,0.0517403,0.0570148,0.00036097
19238,1.0,-13.0,0.0,   450.260E-06,  -6.34964E-03,      -1.39934,0.0517165,0.0570873,0.000180566
19241,0.0,-13.0,0.0,  -521.722E-18,  -6.35365E-03,      -1.39978,0.0517085,0.0571115,-1.81899e-12
19242,-1.0,-13.0,0.0,  -450.260E-06,  -6.34964E-03,      -1.39934,0.0517165,0.0570873,-0.000180566
19247,-2.0,-13.0,0.0,  -900.085E-06,  -6.33760E-03,      -1.39803,0.0517403,0.0570148,-0.00036097
19248,-3.0,-13.0,0.0,  -1.34903E-03,  -6.31754E-03,      -1.39583,0.0517799,0.056894,-0.000541047
19253,-4.0,-13.0,0.0,  -1.79664E-03,  -6.28943E-03,      -1.39276,0.0518353,0.0567247,-0.000720626
19256,-5.0,-13.0,0.0,  -2.24244E-03,  -6.25327E-03,      -1.38879,0.0519063,0.0565069,-0.000899524
19257,-6.0,-13.0,0.0,  -2.68592E-03,  -6.20905E-03,      -1.38392,0.0519928,0.0562406,-0.00107754
19262,-7.0,-13.0,0.0,  -3.12653E-03,  -6.15675E-03,      -1.37813,0.0520946,0.0559256,-0.00125447
19263,-8.0,-13.0,0.0,  -3.56369E-03,  -6.09636E-03,      -1.37143,0.0522114,0.0555618,-0.00143008
19268,-9.0,-13.0,0.0,  -3.99676E-03,  -6.02787E-03,      -1.36378,0.0523431,0.0551491,-0.00160409
19271,-10.0,-13.0,0.0,  -4.42503E-03,  -5.95129E-03,      -1.35518,0.0524892,0.0546877,-0.00177624
19272,-11.0,-13.0,0.0,  -4.84775E-03,  -5.86661E-03,      -1.34560,0.0526494,0.0541773,-0.00194618
19277,-12.0,-13.0,0.0,  -5.26408E-03,  -5.77387E-03,      -1.33502,0.0528233,0.0536183,-0.00211357
19278,-13.0,-13.0,0.0,  -5.67308E-03,  -5.67308E-03,      -1.32343,0.0530106,0.0530106,-0.00227802
19283,-14.0,-13.0,0.0,  -6.07376E-03,  -5.56432E-03,      -1.31080,0.0532106,0.0523546,-0.00243907
19286,-15.0,-13.0,0.0,  -6.46500E-03,  -5.44764E-03,      -1.29710,0.0534229,0.0516507,-0.00259625
19287,-16.0,-13.0,0.0,  -6.84560E-03,  -5.32316E-03,      -1.28231,0.0536467,0.0508994,-0.00274902
19292,-17.0,-13.0,0.0,  -7.21422E-03,  -5.19100E-03,      -1.26641,0.0538816,0.0501015,-0.0028968
19293,-18.0,-13.0,0.0,  -7.56944E-03,  -5.05133E-03,      -1.24935,0.0541267,0.0492578,-0.00303897
19298,-19.0,-13.0,0.0,  -7.90967E-03,  -4.90435E-03,      -1.23112,0.0543812,0.0483696,-0.00317483
19301,-20.0,-13.0,0.0,  -8.23323E-03,  -4.75031E-03,      -1.21168,0.0546443,0.0474381,-0.00330366
19302,-21.0,-13.0,0.0,  -8.53828E-03,  -4.58949E-03,      -1.19100,0.0549152,0.0464652,-0.00342468
19307,-22.0,-13.0,0.0,  -8.82285E-03,  -4.42223E-03,      -1.16905,0.0551929,0.0454526,-0.00353708
19308,-23.0,-13.0,0.0,  -9.08483E-03,  -4.24893E-03,      -1.14579,0.0554763,0.0444027,-0.00364002
19313,-24.0,-13.0,0.0,  -9.32196E-03,  -4.07001E-03,      -1.12121,0.0557644,0.0433181,-0.00373261
19316,-25.0,-13.0,0.0,  -9.53182E-03,  -3.88599E-03,      -1.09525,0.0560561,0.0422017,-0.00381396
19317,-26.0,-13.0,0.0,  -9.71186E-03,  -3.69741E-03,      -1.06790,0.0563503,0.0410568,-0.00388318
19322,-27.0,-13.0,0.0,  -9.85938E-03,  -3.50489E-03,      -1.03912,0.0566457,0.0398871,-0.00393939
19323,-28.0,-13.0,0.0,  -9.97153E-03,  -3.30909E-03,      -1.00888,0.0569412,0.0386966,-0.00398171
19328,-29.0,-13.0,0.0,  -10.0453E-03,  -3.11074E-03,  -977.142E-03,0.0572356,0.0374896,-0.00400932
19331,-30.0,-13.0,0.0,  -10.0776E-03,  -2.91061E-03,  -943.886E-03,0.0575275,0.036271,-0.00402146
19332,-31.0,-13.0,0.0,  -10.0651E-03,  -2.70954E-03,  -909.080E-03,0.0578158,0.0350456,-0.00401743
19337,-32.0,-13.0,0.0,  -10.0045E-03,  -2.50840E-03,  -872.696E-03,0.0580992,0.033819,-0.00399662
19338,-33.0,-13.0,0.0,  -9.89227E-03,  -2.30809E-03,  -834.708E-03,0.0583765,0.0325967,-0.00395855
19343,-34.0,-13.0,0.0,  -9.72474E-03,  -2.10957E-03,  -795.092E-03,0.0586464,0.0313845,-0.00390284
19346,-35.0,-13.0,0.0,  -9.49823E-03,  -1.91381E-03,  -753.825E-03,0.0589079,0.0301884,-0.00382925
19347,-36.0,-13.0,0.0,  -9.20891E-03,  -1.72181E-03,  -710.883E-03,0.0591596,0.0290147,-0.00373772
19352,-37.0,-13.0,0.0,  -8.85291E-03,  -1.53458E-03,  -666.247E-03,0.0594004,0.0278695,-0.00362832
19353,-38.0,-13.0,0.0,  -8.42624E-03,  -1.35312E-03,  -619.898E-03,0.0596286,0.0267589,-0.00350133
19358,-39.0,-13.0,0.0,  -7.92491E-03,  -1.17844E-03,  -571.819E-03,0.0598418,0.0256886,-0.00335723
19361,-40.0,-13.0,0.0,  -7.34487E-03,  -1.01154E-03,  -521.995E-03,0.0600351,0.0246637,-0.00319674
19362,-41.0,-13.0,0.0,  -6.68213E-03,  -853.396E-06,  -470.415E-03,0.0601974,0.0236867,-0.00302099
19367,-42.0,-13.0,0.0,  -5.93290E-03,  -704.960E-06,  -417.073E-03,0.0602998,0.0227552,-0.00283164
19368,-43.0,-13.0,0.0,  -5.09404E-03,  -567.167E-06,  -361.976E-03,0.0602673,0.0218521,-0.00263156
19373,-44.0,-13.0,0.0,  -4.16422E-03,  -440.955E-06,  -305.162E-03,0.0598993,0.0209224,-0.00242541
19376,-45.0,-13.0,0.0,  -3.14720E-03,  -327.307E-06,  -246.756E-03,0.0586589,0.01981,-0.00222176
19377,-46.0,-13.0,0.0,  -2.06059E-03,  -227.366E-06,  -187.102E-03,0.0551013,0.0180863,-0.00203327
19382,-47.0,-13.0,0.0,  -959.283E-06,  -142.635E-06,  -127.143E-03,0.0453314,0.0145888,-0.00187495
19383,-48.0,-13.0,0.0,   6.96351E-06,  -75.2371E-06,  -69.4274E-03,0.0188278,0.00617104,-0.00173058
19388,-49.0,-13.0,0.0,   485.491E-06,  -27.6745E-06,  -20.8409E-03,-0.0528544,-0.0156788,-0.00142463
19391,-50.0,-13.0,0.0,   2.71368E-39,  -841.745E-42,           -0.,-0.105182,-0.0315584,-0.000831968
19392,50.0,-14.0,0.0,  -2.68122E-39,  -833.225E-42,           -0.,-0.104684,-0.0314089,0.000891701
19397,49.0,-14.0,0.0,  -479.917E-06,  -29.5958E-06,  -20.6863E-03,-0.0529219,-0.0157014,0.0015355
19398,48.0,-14.0,0.0,  -7.71819E-06,  -80.6987E-06,  -68.9612E-03,0.0181242,0.00595913,0.00186962
19403,47.0,-14.0,0.0,   949.808E-06,  -153.289E-06,  -126.373E-03,0.0445835,0.0143689,0.00202697
19406,46.0,-14.0,0.0,   2.04291E-03,  -244.662E-06,  -186.049E-03,0.054408,0.0178907,0.0021985
19407,45.0,-14.0,0.0,   3.12178E-03,  -352.496E-06,  -245.425E-03,0.0580117,0.0196384,0.00240267
19412,44.0,-14.0,0.0,   4.13113E-03,  -475.137E-06,  -303.549E-03,0.0592781,0.0207705,0.00262343
19413,43.0,-14.0,0.0,   5.05309E-03,  -611.324E-06,  -360.068E-03,0.0596578,0.0217172,0.00284699
19418,42.0,-14.0,0.0,   5.88386E-03,  -759.973E-06,  -414.856E-03,0.0596942,0.0226365,0.00306394
19421,41.0,-14.0,0.0,   6.62477E-03,  -920.052E-06,  -467.874E-03,0.0595914,0.0235842,0.00326909
19422,40.0,-14.0,0.0,   7.27906E-03,  -1.09053E-03,  -519.114E-03,0.0594268,0.0245777,0.00345928
19427,39.0,-14.0,0.0,   7.85061E-03,  -1.27037E-03,  -568.584E-03,0.05923,0.0256198,0.00363267
19428,38.0,-14.0,0.0,   8.34351E-03,  -1.45849E-03,  -616.296E-03,0.0590128,0.0267075,0.00378803
19433,37.0,-14.0,0.0,   8.76191E-03,  -1.65381E-03,  -662.267E-03,0.0587803,0.027836,0.00392457
19436,36.0,-14.0,0.0,   9.10993E-03,  -1.85523E-03,  -706.515E-03,0.0585351,0.028999,0.00404178
19437,35.0,-14.0,0.0,   9.39161E-03,  -2.06165E-03,  -749.060E-03,0.0582789,0.0301905,0.00413941
19442,34.0,-14.0,0.0,   9.61093E-03,  -2.27197E-03,  -789.924E-03,0.058013,0.031404,0.00421739
19443,33.0,-14.0,0.0,   9.77178E-03,  -2.48511E-03,  -829.131E-03,0.0577387,0.0326332,0.00427585
19448,32.0,-14.0,0.0,   9.87793E-03,  -2.70002E-03,  -866.706E-03,0.0574573,0.0338719,0.00431508
19451,31.0,-14.0,0.0,   9.93307E-03,  -2.91567E-03,  -902.676E-03,0.05717,0.0351142,0.00433554
19452,30.0,-14.0,0.0,   9.94075E-03,  -3.13108E-03,  -937.067E-03,0.0568781,0.0363544,0.0043378
19457,29.0,-14.0,0.0,   9.90439E-03,  -3.34532E-03,  -969.910E-03,0.0565829,0.037587,0.00432256
19458,28.0,-14.0,0.0,   9.82728E-03,  -3.55751E-03,      -1.00123,0.0562856,0.0388069,0.00429062
19463,27.0,-14.0,0.0,   9.71256E-03,  -3.76680E-03,      -1.03107,0.0559876,0.0400093,0.00424286
19466,26.0,-14.0,0.0,   9.56324E-03,  -3.97245E-03,      -1.05945,0.05569,0.04119,0.00418019
19467,25.0,-14.0,0.0,   9.38217E-03,  -4.17373E-03,      -1.08641,0.0553941,0.0423448,0.0041036
19472,24.0,-14.0,0.0,   9.17205E-03,  -4.37001E-03,      -1.11198,0.0551011,0.0434701,0.00401406
19473,23.0,-14.0,0.0,   8.93542E-03,  -4.56070E-03,      -1.13619,0.0548121,0.0445627,0.00391258
19478,22.0,-14.0,0.0,   8.67467E-03,  -4.74528E-03,      -1.15908,0.0545282,0.0456196,0.00380013
19481,21.0,-14.0,0.0,   8.39204E-03,  -4.92331E-03,      -1.18068,0.0542504,0.0466384,0.00367767
19482,20.0,-14.0,0.0,   8.08962E-03,  -5.09436E-03,      -1.20101,0.0539798,0.0476168,0.00354614
19487,19.0,-14.0,0.0,   7.76934E-03,  -5.25811E-03,      -1.22013,0.0537172,0.048553,0.00340641
19488,18.0,-14.0,0.0,   7.43302E-03,  -5.41425E-03,      -1.23805,0.0534635,0.0494453,0.00325932
19493,17.0,-14.0,0.0,   7.08231E-03,  -5.56255E-03,      -1.25481,0.0532195,0.0502924,0.00310566
19496,16.0,-14.0,0.0,   6.71873E-03,  -5.70279E-03,      -1.27043,0.052986,0.0510932,0.00294616
19497,15.0,-14.0,0.0,   6.34371E-03,  -5.83482E-03,      -1.28496,0.0527636,0.051847,0.00278149
19502,14.0,-14.0,0.0,   5.95851E-03,  -5.95851E-03,      -1.29840,0.0525529,0.0525529,0.00261227
19503,13.0,-14.0,0.0,   5.56432E-03,  -6.07376E-03,      -1.31080,0.0523546,0.0532106,0.00243907
19508,12.0,-14.0,0.0,   5.16220E-03,  -6.18051E-03,      -1.32217,0.0521691,0.0538197,0.00226239
19511,11.0,-14.0,0.0,   4.75313E-03,  -6.27871E-03,      -1.33255,0.0519969,0.0543799,0.0020827
19512,10.0,-14.0,0.0,   4.33800E-03,  -6.36833E-03,      -1.34194,0.0518384,0.0548911,0.00190041
19517,9.0,-14.0,0.0,   3.91761E-03,  -6.44936E-03,      -1.35038,0.051694,0.0553533,0.00171589
19518,8.0,-14.0,0.0,   3.49270E-03,  -6.52180E-03,      -1.35788,0.0515639,0.0557665,0.00152947
19523,7.0,-14.0,0.0,   3.06392E-03,  -6.58566E-03,      -1.36446,0.0514486,0.0561307,0.00134145
19526,6.0,-14.0,0.0,   2.63189E-03,  -6.64096E-03,      -1.37012,0.0513481,0.0564461,0.0011521
19527,5.0,-14.0,0.0,   2.19716E-03,  -6.68770E-03,      -1.37490,0.0512628,0.0567127,0.000961653
19532,4.0,-14.0,0.0,   1.76026E-03,  -6.72591E-03,      -1.37879,0.0511928,0.0569307,0.000770328
19533,3.0,-14.0,0.0,   1.32164E-03,  -6.75562E-03,      -1.38181,0.0511382,0.0571001,0.000578322
19538,2.0,-14.0,0.0,   881.781E-06,  -6.77682E-03,      -1.38396,0.0510991,0.057221,0.000385819
19541,1.0,-14.0,0.0,   441.095E-06,  -6.78953E-03,      -1.38524,0.0510756,0.0572935,0.00019299
19542,0.0,-14.0,0.0,  -1.80224E-15,  -6.79377E-03,      -1.38567,0.0510678,0.0573177,-1.81899e-12
19547,-1.0,-14.0,0.0,  -441.095E-06,  -6.78953E-03,      -1.38524,0.0510756,0.0572935,-0.00019299
19548,-2.0,-14.0,0.0,  -881.781E-06,  -6.77682E-03,      -1.38396,0.0510991,0.057221,-0.000385819
19553,-3.0,-14.0,0.0,  -1.32164E-03,  -6.75562E-03,      -1.38181,0.0511382,0.0571001,-0.000578322
19556,-4.0,-14.0,0.0,  -1.76026E-03,  -6.72591E-03,      -1.37879,0.0511928,0.0569307,-0.000770328
19557,-5.0,-14.0,0.0,  -2.19716E-03,  -6.68770E-03,      -1.37490,0.0512628,0.0567127,-0.000961653
19562,-6.0,-14.0,0.0,  -2.63189E-03,  -6.64096E-03,      -1.37012,0.0513481,0.0564461,-0.0011521
19563,-7.0,-14.0,0.0,  -3.06392E-03,  -6.58566E-03,      -1.36446,0.0514486,0.0561307,-0.00134145
19568,-8.0,-14.0,0.0,  -3.49270E-03,  -6.52180E-03,      -1.35788,0.0515639,0.0557665,-0.00152947
19571,-9.0,-14.0,0.0,  -3.91761E-03,  -6.44936E-03,      -1.35038,0.051694,0.0553533,-0.00171589
19572,-10.0,-14.0,0.0,  -4.33800E-03,  -6.36833E-03,      -1.34194,0.0518384,0.0548911,-0.00190041
19577,-11.0,-14.0,0.0,  -4.75313E-03,  -6.27871E-03,      -1.33255,0.0519969,0.0543799,-0.0020827
19578,-12.0,-14.0,0.0,  -5.16220E-03,  -6.18051E-03,      -1.32217,0.0521691,0.0538197,-0.00226239
19583,-13.0,-14.0,0.0,  -5.56432E-03,  -6.07376E-03,      -1.31080,0.0523546,0.0532106,-0.00243907
19586,-14.0,-14.0,0.0,  -5.95851E-03,  -5.95851E-03,      -1.29840,0.0525529,0.0525529,-0.00261227
19587,-15.0,-14.0,0.0,  -6.34371E-03,  -5.83482E-03,      -1.28496,0.0527636,0.051847,-0.00278149
19592,-16.0,-14.0,0.0,  -6.71873E-03,  -5.70279E-03,      -1.27043,0.052986,0.0510932,-0.00294616
19593,-17.0,-14.0,0.0,  -7.08231E-03,  -5.56255E-03,      -1.25481,0.0532195,0.0502924,-0.00310566
19598,-18.0,-14.0,0.0,  -7.43302E-03,  -5.41425E-03,      -1.23805,0.0534635,0.0494453,-0.00325932
19601,-19.0,-14.0,0.0,  -7.76934E-03,  -5.25811E-03,      -1.22013,0.0537172,0.048553,-0.00340641
19602,-20.0,-14.0,0.0,  -8.08962E-03,  -5.09436E-03,      -1.20101,0.0539798,0.0476168,-0.00354614
19607,-21.0,-14.0,0.0,  -8.39204E-03,  -4.92331E-03,      -1.18068,0.0542504,0.0466384,-0.00367767
19608,-22.0,-14.0,0.0,  -8.67467E-03,  -4.74528E-03,      -1.15908,0.0545282,0.0456196,-0.00380013
19613,-23.0,-14.0,0.0,  -8.93542E-03,  -4.56070E-03,      -1.13619,0.0548121,0.0445627,-0.00391258
19616,-24.0,-14.0,0.0,  -9.17205E-03,  -4.37001E-03,      -1.11198,0.0551011,0.0434701,-0.00401406
19617,-25.0,-14.0,0.0,  -9.38217E-03,  -4.17373E-03,      -1.08641,0.0553941,0.0423448,-0.0041036
19622,-26.0,-14.0,0.0,  -9.56324E-03,  -3.97245E-03,      -1.05945,0.05569,0.04119,-0.00418019
19623,-27.0,-14.0,0.0,  -9.71256E-03,  -3.76680E-03,      -1.03107,0.0559876,0.0400093,-0.00424286
19628,-28.0,-14.0,0.0,  -9.82728E-03,  -3.55751E-03,      -1.00123,0.0562856,0.0388069,-0.00429062
19631,-29.0,-14.0,0.0,  -9.90439E-03,  -3.34532E-03,  -969.910E-03,0.0565829,0.037587,-0.00432256
19632,-30.0,-14.0,0.0,  -9.94075E-03,  -3.13108E-03,  -937.067E-03,0.0568781,0.0363544,-0.0043378
19637,-31.0,-14.0,0.0,  -9.93307E-03,  -2.91567E-03,  -902.676E-03,0.05717,0.0351142,-0.00433554
19638,-32.0,-14.0,0.0,  -9.87793E-03,  -2.70002E-03,  -866.706E-03,0.0574573,0.0338719,-0.00431508
19643,-33.0,-14.0,0.0,  -9.77178E-03,  -2.48511E-03,  -829.131E-03,0.0577387,0.0326332,-0.00427585
19646,-34.0,-14.0,0.0,  -9.61093E-03,  -2.27197E-03,  -789.924E-03,0.058013,0.031404,-0.00421739
19647,-35.0,-14.0,0.0,  -9.39161E-03,  -2.06165E-03,  -749.060E-03,0.0582789,0.0301905,-0.00413941
19652,-36.0,-14.0,0.0,  -9.10993E-03,  -1.85523E-03,  -706.515E-03,0.0585351,0.028999,-0.00404178
19653,-37.0,-14.0,0.0,  -8.76191E-03,  -1.65381E-03,  -662.267E-03,0.0587803,0.027836,-0.00392457
19658,-38.0,-14.0,0.0,  -8.34351E-03,  -1.45849E-03,  -616.296E-03,0.0590128,0.0267075,-0.00378803
19661,-39.0,-14.0,0.0,  -7.85061E-03,  -1.27037E-03,  -568.584E-03,0.05923,0.0256198,-0.00363267
19662,-40.0,-14.0,0.0,  -7.27906E-03,  -1.09053E-03,  -519.114E-03,0.0594268,0.0245777,-0.00345928
19667,-41.0,-14.0,0.0,  -6.62477E-03,  -920.052E-06,  -467.874E-03,0.0595914,0.0235842,-0.00326909
19668,-42.0,-14.0,0.0,  -5.88386E-03,  -759.973E-06,  -414.856E-03,0.0596942,0.0226365,-0.00306394
19673,-43.0,-14.0,0.0,  -5.05309E-03,  -611.324E-06,  -360.068E-03,0.0596578,0.0217172,-0.00284699
19676,-44.0,-14.0,0.0,  -4.13113E-03,  -475.137E-06,  -303.549E-03,0.0592781,0.0207705,-0.00262343
19677,-45.0,-14.0,0.0,  -3.12178E-03,  -352.496E-06,  -245.425E-03,0.0580117,0.0196384,-0.00240267
19682,-46.0,-14.0,0.0,  -2.04291E-03,  -244.662E-06,  -186.049E-03,0.054408,0.0178907,-0.0021985
19683,-47.0,-14.0,0.0,  -949.808E-06,  -153.289E-06,  -126.373E-03,0.0445835,0.0143689,-0.00202697
19688,-48.0,-14.0,0.0,   7.71819E-06,  -80.6987E-06,  -68.9612E-03,0.0181242,0.00595913,-0.00186962
19691,-49.0,-14.0,0.0,   479.917E-06,  -29.5958E-06,  -20.6863E-03,-0.0529219,-0.0157014,-0.0015355
19692,-50.0,-14.0,0.0,   2.68122E-39,  -833.225E-42,           -0.,-0.104684,-0.0314089,-0.000891701
19697,50.0,-15.0,0.0,  -2.64601E-39,  -823.812E-42,           -0.,-0.104141,-0.031246,0.000950326
19698,49.0,-15.0,0.0,  -473.893E-06,  -31.4650E-06,  -20.5188E-03,-0.0529893,-0.0157244,0.00164652
19703,48.0,-15.0,0.0,  -8.51725E-06,  -86.0751E-06,  -68.4553E-03,0.0173685,0.00573121,0.00200994
19706,47.0,-15.0,0.0,   939.532E-06,  -163.854E-06,  -125.537E-03,0.0437773,0.0141315,0.00218077
19707,46.0,-15.0,0.0,   2.02369E-03,  -261.890E-06,  -184.903E-03,0.0536602,0.0176795,0.00236581
19712,45.0,-15.0,0.0,   3.09411E-03,  -377.658E-06,  -243.978E-03,0.0573142,0.0194533,0.00258596
19713,44.0,-15.0,0.0,   4.09508E-03,  -509.343E-06,  -301.793E-03,0.0586089,0.020607,0.00282419
19718,43.0,-15.0,0.0,   5.00848E-03,  -655.558E-06,  -357.991E-03,0.0590017,0.0215726,0.00306554
19721,42.0,-15.0,0.0,   5.83041E-03,  -815.111E-06,  -412.442E-03,0.0590422,0.0225096,0.00329969
19722,41.0,-15.0,0.0,   6.56226E-03,  -986.869E-06,  -465.105E-03,0.0589391,0.023475,0.00352094
19727,40.0,-15.0,0.0,   7.20734E-03,  -1.16971E-03,  -515.975E-03,0.0587718,0.0244866,0.00372577
19728,39.0,-15.0,0.0,   7.76965E-03,  -1.36248E-03,  -565.059E-03,0.0585711,0.0255474,0.00391215
19733,38.0,-15.0,0.0,   8.25340E-03,  -1.56402E-03,  -612.372E-03,0.0583493,0.0266542,0.00407874
19736,37.0,-15.0,0.0,   8.66284E-03,  -1.77315E-03,  -657.930E-03,0.058112,0.027802,0.0042247
19737,36.0,-15.0,0.0,   9.00220E-03,  -1.98866E-03,  -701.755E-03,0.0578619,0.0289845,0.00434951
19742,35.0,-15.0,0.0,   9.27563E-03,  -2.20937E-03,  -743.867E-03,0.0576007,0.0301952,0.00445292
19743,34.0,-15.0,0.0,   9.48719E-03,  -2.43408E-03,  -784.292E-03,0.0573299,0.0314275,0.0045349
19748,33.0,-15.0,0.0,   9.64085E-03,  -2.66164E-03,  -823.053E-03,0.0570509,0.032675,0.00459565
19751,32.0,-15.0,0.0,   9.74046E-03,  -2.89091E-03,  -860.179E-03,0.056765,0.0339314,0.00463554
19752,31.0,-15.0,0.0,   9.78976E-03,  -3.12079E-03,  -895.698E-03,0.0564735,0.0351904,0.0046551
19757,30.0,-15.0,0.0,   9.79234E-03,  -3.35022E-03,  -929.639E-03,0.0561778,0.0364464,0.00465501
19758,29.0,-15.0,0.0,   9.75167E-03,  -3.57823E-03,  -962.032E-03,0.0558791,0.0376937,0.0046361
19763,28.0,-15.0,0.0,   9.67106E-03,  -3.80385E-03,  -992.911E-03,0.0555788,0.0389273,0.00459926
19766,27.0,-15.0,0.0,   9.55368E-03,  -4.02623E-03,      -1.02231,0.0552781,0.0401423,0.00454549
19767,26.0,-15.0,0.0,   9.40253E-03,  -4.24454E-03,      -1.05026,0.0549784,0.0413344,0.00447583
19772,25.0,-15.0,0.0,   9.22047E-03,  -4.45805E-03,      -1.07679,0.0546808,0.0424995,0.00439137
19773,24.0,-15.0,0.0,   9.01018E-03,  -4.66609E-03,      -1.10194,0.0543866,0.0436341,0.00429319
19778,23.0,-15.0,0.0,   8.77420E-03,  -4.86805E-03,      -1.12575,0.0540969,0.0447349,0.00418241
19781,22.0,-15.0,0.0,   8.51489E-03,  -5.06340E-03,      -1.14824,0.0538127,0.0457991,0.00406008
19782,21.0,-15.0,0.0,   8.23446E-03,  -5.25166E-03,      -1.16946,0.0535351,0.0468242,0.00392727
19787,20.0,-15.0,0.0,   7.93498E-03,  -5.43243E-03,      -1.18943,0.0532649,0.0478081,0.00378498
19788,19.0,-15.0,0.0,   7.61834E-03,  -5.60535E-03,      -1.20819,0.0530032,0.048749,0.00363416
19793,18.0,-15.0,0.0,   7.28631E-03,  -5.77014E-03,      -1.22578,0.0527507,0.0496453,0.00347571
19796,17.0,-15.0,0.0,   6.94052E-03,  -5.92655E-03,      -1.24222,0.0525081,0.0504958,0.00331047
19797,16.0,-15.0,0.0,   6.58245E-03,  -6.07437E-03,      -1.25754,0.0522762,0.0512995,0.00313922
19802,15.0,-15.0,0.0,   6.21347E-03,  -6.21347E-03,      -1.27178,0.0520557,0.0520557,0.00296268
19803,14.0,-15.0,0.0,   5.83482E-03,  -6.34371E-03,      -1.28496,0.051847,0.0527636,0.00278149
19808,13.0,-15.0,0.0,   5.44764E-03,  -6.46500E-03,      -1.29710,0.0516507,0.0534229,0.00259625
19811,12.0,-15.0,0.0,   5.05296E-03,  -6.57730E-03,      -1.30824,0.0514673,0.0540332,0.00240749
19812,11.0,-15.0,0.0,   4.65171E-03,  -6.68056E-03,      -1.31840,0.0512972,0.0545945,0.00221569
19817,10.0,-15.0,0.0,   4.24475E-03,  -6.77476E-03,      -1.32760,0.0511407,0.0551065,0.00202127
19818,9.0,-15.0,0.0,   3.83284E-03,  -6.85991E-03,      -1.33587,0.0509982,0.0555694,0.00182462
19823,8.0,-15.0,0.0,   3.41668E-03,  -6.93601E-03,      -1.34321,0.0508701,0.055983,0.00162608
19826,7.0,-15.0,0.0,   2.99689E-03,  -7.00307E-03,      -1.34964,0.0507564,0.0563476,0.00142594
19827,6.0,-15.0,0.0,   2.57406E-03,  -7.06113E-03,      -1.35519,0.0506575,0.0566633,0.00122449
19832,5.0,-15.0,0.0,   2.14871E-03,  -7.11019E-03,      -1.35986,0.0505735,0.0569301,0.00102195
19833,4.0,-15.0,0.0,   1.72132E-03,  -7.15030E-03,      -1.36367,0.0505046,0.0571482,0.000818548
19838,3.0,-15.0,0.0,   1.29235E-03,  -7.18147E-03,      -1.36662,0.0504509,0.0573177,0.000614476
19841,2.0,-15.0,0.0,   862.201E-06,  -7.20371E-03,      -1.36872,0.0504125,0.0574387,0.000409916
19842,1.0,-15.0,0.0,   431.291E-06,  -7.21706E-03,      -1.36998,0.0503894,0.0575113,0.000205037
19847,0.0,-15.0,0.0,  -1.84675E-15,  -7.22150E-03,      -1.37040,0.0503817,0.0575355,1.81899e-12
19848,-1.0,-15.0,0.0,  -431.291E-06,  -7.21706E-03,      -1.36998,0.0503894,0.0575113,-0.000205037
19853,-2.0,-15.0,0.0,  -862.201E-06,  -7.20371E-03,      -1.36872,0.0504125,0.0574387,-0.000409916
19856,-3.0,-15.0,0.0,  -1.29235E-03,  -7.18147E-03,      -1.36662,0.0504509,0.0573177,-0.000614476
19857,-4.0,-15.0,0.0,  -1.72132E-03,  -7.15030E-03,      -1.36367,0.0505046,0.0571482,-0.000818548
19862,-5.0,-15.0,0.0,  -2.14871E-03,  -7.11019E-03,      -1.35986,0.0505735,0.0569301,-0.00102195
19863,-6.0,-15.0,0.0,  -2.57406E-03,  -7.06113E-03,      -1.35519,0.0506575,0.0566633,-0.00122449
19868,-7.0,-15.0,0.0,  -2.99689E-03,  -7.00307E-03,      -1.34964,0.0507564,0.0563476,-0.00142594
19871,-8.0,-15.0,0.0,  -3.41668E-03,  -6.93601E-03,      -1.34321,0.0508701,0.055983,-0.00162608
19872,-9.0,-15.0,0.0,  -3.83284E-03,  -6.85991E-03,      -1.33587,0.0509982,0.0555694,-0.00182462
19877,-10.0,-15.0,0.0,  -4.24475E-03,  -6.77476E-03,      -1.32760,0.0511407,0.0551065,-0.00202127
19878,-11.0,-15.0,0.0,  -4.65171E-03,  -6.68056E-03,      -1.31840,0.0512972,0.0545945,-0.00221569
19883,-12.0,-15.0,0.0,  -5.05296E-03,  -6.57730E-03,      -1.30824,0.0514673,0.0540332,-0.00240749
19886,-13.0,-15.0,0.0,  -5.44764E-03,  -6.46500E-03,      -1.29710,0.0516507,0.0534229,-0.00259625
19887,-14.0,-15.0,0.0,  -5.83482E-03,  -6.34371E-03,      -1.28496,0.051847,0.0527636,-0.00278149
19892,-15.0,-15.0,0.0,  -6.21347E-03,  -6.21347E-03,      -1.27178,0.0520557,0.0520557,-0.00296268
19893,-16.0,-15.0,0.0,  -6.58245E-03,  -6.07437E-03,      -1.25754,0.0522762,0.0512995,-0.00313922
19898,-17.0,-15.0,0.0,  -6.94052E-03,  -5.92655E-03,      -1.24222,0.0525081,0.0504958,-0.00331047
19901,-18.0,-15.0,0.0,  -7.28631E-03,  -5.77014E-03,      -1.22578,0.0527507,0.0496453,-0.00347571
19902,-19.0,-15.0,0.0,  -7.61834E-03,  -5.60535E-03,      -1.20819,0.0530032,0.048749,-0.00363416
19907,-20.0,-15.0,0.0,  -7.93498E-03,  -5.43243E-03,      -1.18943,0.0532649,0.0478081,-0.00378498
19908,-21.0,-15.0,0.0,  -8.23446E-03,  -5.25166E-03,      -1.16946,0.0535351,0.0468242,-0.00392727
19913,-22.0,-15.0,0.0,  -8.51489E-03,  -5.06340E-03,      -1.14824,0.0538127,0.0457991,-0.00406008
19916,-23.0,-15.0,0.0,  -8.77420E-03,  -4.86805E-03,      -1.12575,0.0540969,0.0447349,-0.00418241
19917,-24.0,-15.0,0.0,  -9.01018E-03,  -4.66609E-03,      -1.10194,0.0543866,0.0436341,-0.00429319
19922,-25.0,-15.0,0.0,  -9.22047E-03,  -4.45805E-03,      -1.07679,0.0546808,0.0424995,-0.00439137
19923,-26.0,-15.0,0.0,  -9.40253E-03,  -4.24454E-03,      -1.05026,0.0549784,0.0413344,-0.00447583
19928,-27.0,-15.0,0.0,  -9.55368E-03,  -4.02623E-03,      -1.02231,0.0552781,0.0401423,-0.00454549
19931,-28.0,-15.0,0.0,  -9.67106E-03,  -3.80385E-03,  -992.911E-03,0.0555788,0.0389273,-0.00459926
19932,-29.0,-15.0,0.0,  -9.75167E-03,  -3.57823E-03,  -962.032E-03,0.0558791,0.0376937,-0.0046361
19937,-30.0,-15.0,0.0,  -9.79234E-03,  -3.35022E-03,  -929.639E-03,0.0561778,0.0364464,-0.00465501
19938,-31.0,-15.0,0.0,  -9.78976E-03,  -3.12079E-03,  -895.698E-03,0.0564735,0.0351904,-0.0046551
19943,-32.0,-15.0,0.0,  -9.74046E-03,  -2.89091E-03,  -860.179E-03,0.056765,0.0339314,-0.00463554
19946,-33.0,-15.0,0.0,  -9.64085E-03,  -2.66164E-03,  -823.053E-03,0.057051,0.032675,-0.00459565
19947,-34.0,-15.0,0.0,  -9.48719E-03,  -2.43408E-03,  -784.292E-03,0.0573299,0.0314275,-0.0045349
19952,-35.0,-15.0,0.0,  -9.27563E-03,  -2.20937E-03,  -743.867E-03,0.0576007,0.0301952,-0.00445292
19953,-36.0,-15.0,0.0,  -9.00220E-03,  -1.98866E-03,  -701.755E-03,0.0578619,0.0289845,-0.00434951
19958,-37.0,-15.0,0.0,  -8.66284E-03,  -1.77315E-03,  -657.930E-03,0.058112,0.027802,-0.0042247
19961,-38.0,-15.0,0.0,  -8.25340E-03,  -1.56402E-03,  -612.372E-03,0.0583493,0.0266542,-0.00407874
19962,-39.0,-15.0,0.0,  -7.76965E-03,  -1.36248E-03,  -565.059E-03,0.0585711,0.0255474,-0.00391215
19967,-40.0,-15.0,0.0,  -7.20734E-03,  -1.16971E-03,  -515.975E-03,0.0587718,0.0244866,-0.00372577
19968,-41.0,-15.0,0.0,  -6.56226E-03,  -986.869E-06,  -465.105E-03,0.0589391,0.023475,-0.00352094
19973,-42.0,-15.0,0.0,  -5.83041E-03,  -815.111E-06,  -412.442E-03,0.0590422,0.0225096,-0.00329969
19976,-43.0,-15.0,0.0,  -5.00848E-03,  -655.558E-06,  -357.991E-03,0.0590017,0.0215726,-0.00306554
19977,-44.0,-15.0,0.0,  -4.09508E-03,  -509.343E-06,  -301.793E-03,0.0586089,0.020607,-0.00282419
19982,-45.0,-15.0,0.0,  -3.09411E-03,  -377.658E-06,  -243.978E-03,0.0573142,0.0194533,-0.00258596
19983,-46.0,-15.0,0.0,  -2.02369E-03,  -261.890E-06,  -184.903E-03,0.0536602,0.0176795,-0.00236581
19988,-47.0,-15.0,0.0,  -939.532E-06,  -163.854E-06,  -125.537E-03,0.0437773,0.0141315,-0.00218077
19991,-48.0,-15.0,0.0,   8.51725E-06,  -86.0751E-06,  -68.4553E-03,0.0173685,0.00573121,-0.00200994
19992,-49.0,-15.0,0.0,   473.893E-06,  -31.4650E-06,  -20.5188E-03,-0.0529893,-0.0157244,-0.00164652
19997,-50.0,-15.0,0.0,   2.64601E-39,  -823.812E-42,           -0.,-0.104141,-0.031246,-0.000950326
19998,50.0,-16.0,0.0,  -2.60802E-39,  -813.486E-42,           -0.,-0.103551,-0.031069,0.00100769
20003,49.0,-16.0,0.0,  -467.410E-06,  -33.2754E-06,  -20.3380E-03,-0.0530553,-0.0157473,0.00175763
20006,48.0,-16.0,0.0,  -9.35500E-06,  -91.3543E-06,  -67.9086E-03,0.0165606,0.00548723,0.00215161
20007,47.0,-16.0,0.0,   928.438E-06,  -174.314E-06,  -124.632E-03,0.0429123,0.0138764,0.00233649
20012,46.0,-16.0,0.0,   2.00287E-03,  -279.035E-06,  -183.663E-03,0.0528574,0.0174525,0.00253537
20013,45.0,-16.0,0.0,   3.06411E-03,  -402.779E-06,  -242.409E-03,0.0565657,0.0192547,0.00277185
20018,44.0,-16.0,0.0,   4.05597E-03,  -543.560E-06,  -299.890E-03,0.0578916,0.0204321,0.00302795
20021,43.0,-16.0,0.0,   4.96005E-03,  -699.857E-06,  -355.738E-03,0.0582986,0.0214182,0.00328751
20022,42.0,-16.0,0.0,   5.77239E-03,  -870.361E-06,  -409.823E-03,0.0583438,0.0223746,0.00353926
20027,41.0,-16.0,0.0,   6.49440E-03,  -1.05383E-03,  -462.102E-03,0.0582402,0.0233594,0.0037769
20028,40.0,-16.0,0.0,   7.12950E-03,  -1.24904E-03,  -512.569E-03,0.0580699,0.0243908,0.00399656
20033,39.0,-16.0,0.0,   7.68180E-03,  -1.45474E-03,  -561.233E-03,0.0578648,0.0254719,0.00419601
20036,38.0,-16.0,0.0,   8.15564E-03,  -1.66966E-03,  -608.111E-03,0.057638,0.0265995,0.00437379
20037,37.0,-16.0,0.0,   8.55541E-03,  -1.89252E-03,  -653.221E-03,0.0573953,0.0277683,0.004529
20042,36.0,-16.0,0.0,   8.88544E-03,  -2.12201E-03,  -696.585E-03,0.0571397,0.0289717,0.00466113
20043,35.0,-16.0,0.0,   9.14999E-03,  -2.35686E-03,  -738.228E-03,0.056873,0.0302031,0.00476994
20048,34.0,-16.0,0.0,   9.35322E-03,  -2.59577E-03,  -778.175E-03,0.0565968,0.0314558,0.00485546
20051,33.0,-16.0,0.0,   9.49919E-03,  -2.83751E-03,  -816.454E-03,0.0563127,0.0327229,0.00491796
20052,32.0,-16.0,0.0,   9.59183E-03,  -3.08085E-03,  -853.093E-03,0.0560219,0.033998,0.00495791
20057,31.0,-16.0,0.0,   9.63492E-03,  -3.32463E-03,  -888.124E-03,0.0557259,0.0352748,0.00497594
20058,30.0,-16.0,0.0,   9.63212E-03,  -3.56772E-03,  -921.577E-03,0.055426,0.0365475,0.00497287
20063,29.0,-16.0,0.0,   9.58693E-03,  -3.80907E-03,  -953.485E-03,0.0551236,0.0378104,0.00494962
20066,28.0,-16.0,0.0,   9.50268E-03,  -4.04770E-03,  -983.883E-03,0.0548202,0.0390583,0.00490723
20067,27.0,-16.0,0.0,   9.38256E-03,  -4.28267E-03,      -1.01280,0.0545169,0.0402864,0.00484683
20072,26.0,-16.0,0.0,   9.22959E-03,  -4.51315E-03,      -1.04029,0.0542151,0.0414903,0.00476959
20073,25.0,-16.0,0.0,   9.04659E-03,  -4.73836E-03,      -1.06636,0.0539159,0.0426661,0.00467671
20078,24.0,-16.0,0.0,   8.83627E-03,  -4.95760E-03,      -1.09106,0.0536207,0.0438101,0.00456941
20079,23.0,-16.0,0.0,   8.60111E-03,  -5.17026E-03,      -1.11444,0.0533305,0.0449193,0.00444888
20084,22.0,-16.0,0.0,   8.34347E-03,  -5.37579E-03,      -1.13651,0.0530463,0.0459908,0.0043163
20085,21.0,-16.0,0.0,   8.06553E-03,  -5.57371E-03,      -1.15732,0.0527691,0.0470223,0.00417282
20090,20.0,-16.0,0.0,   7.76931E-03,  -5.76360E-03,      -1.17690,0.0524998,0.0480117,0.00401952
20093,19.0,-16.0,0.0,   7.45668E-03,  -5.94513E-03,      -1.19529,0.0522393,0.0489573,0.00385741
20094,18.0,-16.0,0.0,   7.12935E-03,  -6.11799E-03,      -1.21251,0.0519883,0.0498575,0.00368748
20099,17.0,-16.0,0.0,   6.78891E-03,  -6.28195E-03,      -1.22861,0.0517476,0.0507114,0.0035106
20100,16.0,-16.0,0.0,   6.43682E-03,  -6.43682E-03,      -1.24361,0.0515178,0.0515178,0.00332759
20105,15.0,-16.0,0.0,   6.07437E-03,  -6.58245E-03,      -1.25754,0.0512995,0.0522762,0.00313922
20108,14.0,-16.0,0.0,   5.70279E-03,  -6.71873E-03,      -1.27043,0.0510932,0.052986,0.00294616
20109,13.0,-16.0,0.0,   5.32316E-03,  -6.84560E-03,      -1.28231,0.0508994,0.0536467,0.00274902
20114,12.0,-16.0,0.0,   4.93646E-03,  -6.96299E-03,      -1.29321,0.0507185,0.0542583,0.00254836
20115,11.0,-16.0,0.0,   4.54360E-03,  -7.07089E-03,      -1.30314,0.0505508,0.0548204,0.00234467
20120,10.0,-16.0,0.0,   4.14539E-03,  -7.16929E-03,      -1.31213,0.0503968,0.0553332,0.00213839
20123,9.0,-16.0,0.0,   3.74254E-03,  -7.25819E-03,      -1.32021,0.0502566,0.0557965,0.0019299
20124,8.0,-16.0,0.0,   3.33572E-03,  -7.33762E-03,      -1.32738,0.0501306,0.0562106,0.00171955
20129,7.0,-16.0,0.0,   2.92553E-03,  -7.40760E-03,      -1.33366,0.0500189,0.0565755,0.00150764
20130,6.0,-16.0,0.0,   2.51251E-03,  -7.46817E-03,      -1.33908,0.0499218,0.0568914,0.00129445
20135,5.0,-16.0,0.0,   2.09715E-03,  -7.51935E-03,      -1.34365,0.0498394,0.0571583,0.0010802
20138,4.0,-16.0,0.0,   1.67990E-03,  -7.56117E-03,      -1.34736,0.0497717,0.0573765,0.000865109
20139,3.0,-16.0,0.0,   1.26117E-03,  -7.59367E-03,      -1.35025,0.0497191,0.057546,0.000649376
20144,2.0,-16.0,0.0,   841.372E-06,  -7.61686E-03,      -1.35230,0.0496814,0.0576671,0.000433173
20145,1.0,-16.0,0.0,   420.862E-06,  -7.63077E-03,      -1.35353,0.0496587,0.0577397,0.000216662
20150,0.0,-16.0,0.0,  -1.38146E-15,  -7.63540E-03,      -1.35394,0.0496512,0.0577638,-3.63798e-12
20153,-1.0,-16.0,0.0,  -420.862E-06,  -7.63077E-03,      -1.35353,0.0496587,0.0577397,-0.000216662
20154,-2.0,-16.0,0.0,  -841.372E-06,  -7.61686E-03,      -1.35230,0.0496814,0.0576671,-0.000433173
20159,-3.0,-16.0,0.0,  -1.26117E-03,  -7.59367E-03,      -1.35025,0.0497191,0.057546,-0.000649376
20160,-4.0,-16.0,0.0,  -1.67990E-03,  -7.56117E-03,      -1.34736,0.0497717,0.0573765,-0.000865109
20165,-5.0,-16.0,0.0,  -2.09715E-03,  -7.51935E-03,      -1.34365,0.0498394,0.0571583,-0.0010802
20168,-6.0,-16.0,0.0,  -2.51251E-03,  -7.46817E-03,      -1.33908,0.0499218,0.0568914,-0.00129445
20169,-7.0,-16.0,0.0,  -2.92553E-03,  -7.40760E-03,      -1.33366,0.0500189,0.0565755,-0.00150764
20174,-8.0,-16.0,0.0,  -3.33572E-03,  -7.33762E-03,      -1.32738,0.0501306,0.0562106,-0.00171955
20175,-9.0,-16.0,0.0,  -3.74254E-03,  -7.25819E-03,      -1.32021,0.0502566,0.0557965,-0.0019299
20180,-10.0,-16.0,0.0,  -4.14539E-03,  -7.16929E-03,      -1.31213,0.0503968,0.0553332,-0.00213839
20183,-11.0,-16.0,0.0,  -4.54360E-03,  -7.07089E-03,      -1.30314,0.0505508,0.0548204,-0.00234467
20184,-12.0,-16.0,0.0,  -4.93646E-03,  -6.96299E-03,      -1.29321,0.0507185,0.0542583,-0.00254836
20189,-13.0,-16.0,0.0,  -5.32316E-03,  -6.84560E-03,      -1.28231,0.0508994,0.0536467,-0.00274902
20190,-14.0,-16.0,0.0,  -5.70279E-03,  -6.71873E-03,      -1.27043,0.0510932,0.052986,-0.00294616
20195,-15.0,-16.0,0.0,  -6.07437E-03,  -6.58245E-03,      -1.25754,0.0512995,0.0522762,-0.00313922
20198,-16.0,-16.0,0.0,  -6.43682E-03,  -6.43682E-03,      -1.24361,0.0515178,0.0515178,-0.00332759
20199,-17.0,-16.0,0.0,  -6.78891E-03,  -6.28195E-03,      -1.22861,0.0517476,0.0507114,-0.0035106
20204,-18.0,-16.0,0.0,  -7.12935E-03,  -6.11799E-03,      -1.21251,0.0519883,0.0498575,-0.00368748
20205,-19.0,-16.0,0.0,  -7.45668E-03,  -5.94513E-03,      -1.19529,0.0522393,0.0489573,-0.00385741
20210,-20.0,-16.0,0.0,  -7.76931E-03,  -5.76360E-03,      -1.17690,0.0524998,0.0480117,-0.00401952
20213,-21.0,-16.0,0.0,  -8.06553E-03,  -5.57371E-03,      -1.15732,0.0527691,0.0470223,-0.00417282
20214,-22.0,-16.0,0.0,  -8.34347E-03,  -5.37579E-03,      -1.13651,0.0530463,0.0459909,-0.0043163
20219,-23.0,-16.0,0.0,  -8.60111E-03,  -5.17026E-03,      -1.11444,0.0533305,0.0449193,-0.00444888
20220,-24.0,-16.0,0.0,  -8.83627E-03,  -4.95760E-03,      -1.09106,0.0536207,0.0438101,-0.00456941
20225,-25.0,-16.0,0.0,  -9.04659E-03,  -4.73836E-03,      -1.06636,0.0539159,0.0426661,-0.00467671
20228,-26.0,-16.0,0.0,  -9.22959E-03,  -4.51315E-03,      -1.04029,0.0542151,0.0414903,-0.00476959
20229,-27.0,-16.0,0.0,  -9.38256E-03,  -4.28267E-03,      -1.01280,0.0545169,0.0402864,-0.00484683
20234,-28.0,-16.0,0.0,  -9.50268E-03,  -4.04770E-03,  -983.883E-03,0.0548202,0.0390583,-0.00490723
20235,-29.0,-16.0,0.0,  -9.58693E-03,  -3.80907E-03,  -953.485E-03,0.0551236,0.0378104,-0.00494962
20240,-30.0,-16.0,0.0,  -9.63212E-03,  -3.56772E-03,  -921.577E-03,0.055426,0.0365475,-0.00497287
20243,-31.0,-16.0,0.0,  -9.63492E-03,  -3.32463E-03,  -888.124E-03,0.0557258,0.0352748,-0.00497594
20244,-32.0,-16.0,0.0,  -9.59183E-03,  -3.08085E-03,  -853.093E-03,0.0560219,0.033998,-0.00495791
20249,-33.0,-16.0,0.0,  -9.49919E-03,  -2.83751E-03,  -816.454E-03,0.0563127,0.0327229,-0.00491796
20250,-34.0,-16.0,0.0,  -9.35322E-03,  -2.59577E-03,  -778.175E-03,0.0565968,0.0314558,-0.00485546
20255,-35.0,-16.0,0.0,  -9.14999E-03,  -2.35686E-03,  -738.228E-03,0.056873,0.0302031,-0.00476994
20258,-36.0,-16.0,0.0,  -8.88544E-03,  -2.12201E-03,  -696.585E-03,0.0571396,0.0289717,-0.00466113
20259,-37.0,-16.0,0.0,  -8.55541E-03,  -1.89252E-03,  -653.221E-03,0.0573953,0.0277683,-0.004529
20264,-38.0,-16.0,0.0,  -8.15564E-03,  -1.66966E-03,  -608.111E-03,0.057638,0.0265995,-0.00437379
20265,-39.0,-16.0,0.0,  -7.68180E-03,  -1.45474E-03,  -561.233E-03,0.0578648,0.0254719,-0.00419601
20270,-40.0,-16.0,0.0,  -7.12950E-03,  -1.24904E-03,  -512.569E-03,0.0580699,0.0243908,-0.00399656
20273,-41.0,-16.0,0.0,  -6.49440E-03,  -1.05383E-03,  -462.102E-03,0.0582402,0.0233594,-0.0037769
20274,-42.0,-16.0,0.0,  -5.77239E-03,  -870.361E-06,  -409.823E-03,0.0583438,0.0223746,-0.00353926
20279,-43.0,-16.0,0.0,  -4.96005E-03,  -699.857E-06,  -355.738E-03,0.0582986,0.0214182,-0.00328751
20280,-44.0,-16.0,0.0,  -4.05597E-03,  -543.560E-06,  -299.890E-03,0.0578916,0.0204321,-0.00302795
20285,-45.0,-16.0,0.0,  -3.06411E-03,  -402.779E-06,  -242.409E-03,0.0565657,0.0192547,-0.00277185
20288,-46.0,-16.0,0.0,  -2.00287E-03,  -279.035E-06,  -183.663E-03,0.0528574,0.0174524,-0.00253537
20289,-47.0,-16.0,0.0,  -928.438E-06,  -174.314E-06,  -124.632E-03,0.0429123,0.0138764,-0.00233649
20294,-48.0,-16.0,0.0,   9.35500E-06,  -91.3543E-06,  -67.9086E-03,0.0165606,0.00548723,-0.00215161
20295,-49.0,-16.0,0.0,   467.410E-06,  -33.2754E-06,  -20.3380E-03,-0.0530553,-0.0157473,-0.00175763
20300,-50.0,-16.0,0.0,   2.60802E-39,  -813.486E-42,           -0.,-0.103551,-0.031069,-0.00100769
20303,50.0,-17.0,0.0,  -2.56719E-39,  -802.221E-42,           -0.,-0.102912,-0.0308774,0.00106362
20304,49.0,-17.0,0.0,  -460.457E-06,  -35.0197E-06,  -20.1437E-03,-0.0531187,-0.0157699,0.00186877
20309,48.0,-17.0,0.0,  -10.2241E-06,  -96.5230E-06,  -67.3199E-03,0.0157007,0.00522712,0.0022947
20310,47.0,-17.0,0.0,   916.510E-06,  -184.651E-06,  -123.656E-03,0.041988,0.0136033,0.00249429
20315,46.0,-17.0,0.0,   1.98041E-03,  -296.079E-06,  -182.324E-03,0.0519988,0.0172094,0.00270739
20318,45.0,-17.0,0.0,   3.03169E-03,  -427.841E-06,  -240.715E-03,0.0557659,0.0190424,0.00296058
20319,44.0,-17.0,0.0,   4.01367E-03,  -577.771E-06,  -297.833E-03,0.0571257,0.0202456,0.003235
20324,43.0,-17.0,0.0,   4.90767E-03,  -744.205E-06,  -353.304E-03,0.0575484,0.0212542,0.00351323
20325,42.0,-17.0,0.0,   5.70962E-03,  -925.706E-06,  -406.991E-03,0.0575988,0.0222318,0.00378299
20330,41.0,-17.0,0.0,   6.42098E-03,  -1.12092E-03,  -458.853E-03,0.0574947,0.0232377,0.00403735
20333,40.0,-17.0,0.0,   7.04529E-03,  -1.32851E-03,  -508.883E-03,0.0573208,0.0242907,0.00427205
20334,39.0,-17.0,0.0,   7.58679E-03,  -1.54712E-03,  -557.093E-03,0.0571108,0.0253939,0.00448463
20339,38.0,-17.0,0.0,   8.04996E-03,  -1.77536E-03,  -603.499E-03,0.0568784,0.026544,0.00467351
20340,37.0,-17.0,0.0,   8.43932E-03,  -2.01185E-03,  -648.123E-03,0.0566297,0.0277354,0.00483776
20345,36.0,-17.0,0.0,   8.75933E-03,  -2.25518E-03,  -690.990E-03,0.0563679,0.0289615,0.00497685
20348,35.0,-17.0,0.0,   9.01438E-03,  -2.50398E-03,  -732.124E-03,0.0560952,0.0302152,0.0050906
20349,34.0,-17.0,0.0,   9.20872E-03,  -2.75686E-03,  -771.555E-03,0.0558131,0.0314895,0.00517911
20354,33.0,-17.0,0.0,   9.34651E-03,  -3.01249E-03,  -809.311E-03,0.0555234,0.0327775,0.00524273
20355,32.0,-17.0,0.0,   9.43174E-03,  -3.26958E-03,  -845.425E-03,0.0552273,0.0340725,0.00528204
20360,31.0,-17.0,0.0,   9.46829E-03,  -3.52687E-03,  -879.929E-03,0.0549264,0.0353682,0.00529783
20363,30.0,-17.0,0.0,   9.45984E-03,  -3.78319E-03,  -912.856E-03,0.0546222,0.0366584,0.00529102
20364,29.0,-17.0,0.0,   9.40993E-03,  -4.03743E-03,  -944.242E-03,0.0543161,0.0379375,0.0052627
20369,28.0,-17.0,0.0,   9.32193E-03,  -4.28854E-03,  -974.122E-03,0.0540094,0.0392003,0.00521405
20370,27.0,-17.0,0.0,   9.19904E-03,  -4.53557E-03,      -1.00253,0.0537035,0.040442,0.00514633
20375,26.0,-17.0,0.0,   9.04426E-03,  -4.77764E-03,      -1.02951,0.0533997,0.0416581,0.00506086
20378,25.0,-17.0,0.0,   8.86043E-03,  -5.01395E-03,      -1.05510,0.0530993,0.0428447,0.00495897
20379,24.0,-17.0,0.0,   8.65022E-03,  -5.24378E-03,      -1.07932,0.0528033,0.0439984,0.004842
20384,23.0,-17.0,0.0,   8.41611E-03,  -5.46652E-03,      -1.10223,0.0525128,0.045116,0.00471127
20385,22.0,-17.0,0.0,   8.16040E-03,  -5.68159E-03,      -1.12385,0.052229,0.0461949,0.00456805
20390,21.0,-17.0,0.0,   7.88526E-03,  -5.88852E-03,      -1.14422,0.0519526,0.0472327,0.00441357
20393,20.0,-17.0,0.0,   7.59266E-03,  -6.08690E-03,      -1.16339,0.0516846,0.0482274,0.004249
20394,19.0,-17.0,0.0,   7.28442E-03,  -6.27638E-03,      -1.18137,0.0514258,0.0491775,0.00407544
20399,18.0,-17.0,0.0,   6.96222E-03,  -6.45669E-03,      -1.19822,0.051177,0.0500816,0.00389391
20400,17.0,-17.0,0.0,   6.62759E-03,  -6.62759E-03,      -1.21395,0.0509386,0.0509386,0.00370534
20405,16.0,-17.0,0.0,   6.28195E-03,  -6.78891E-03,      -1.22861,0.0507114,0.0517476,0.0035106
20408,15.0,-17.0,0.0,   5.92655E-03,  -6.94052E-03,      -1.24222,0.0504958,0.0525081,0.00331047
20409,14.0,-17.0,0.0,   5.56255E-03,  -7.08231E-03,      -1.25481,0.0502924,0.0532195,0.00310566
20414,13.0,-17.0,0.0,   5.19100E-03,  -7.21422E-03,      -1.26641,0.0501015,0.0538816,0.0028968
20415,12.0,-17.0,0.0,   4.81284E-03,  -7.33623E-03,      -1.27704,0.0499235,0.0544941,0.00268447
20420,11.0,-17.0,0.0,   4.42893E-03,  -7.44832E-03,      -1.28673,0.0497587,0.055057,0.00246915
20423,10.0,-17.0,0.0,   4.04003E-03,  -7.55049E-03,      -1.29550,0.0496075,0.0555703,0.00225131
20424,9.0,-17.0,0.0,   3.64683E-03,  -7.64277E-03,      -1.30338,0.04947,0.0560341,0.00203131
20429,8.0,-17.0,0.0,   3.24995E-03,  -7.72518E-03,      -1.31037,0.0493464,0.0564484,0.00180952
20430,7.0,-17.0,0.0,   2.84994E-03,  -7.79777E-03,      -1.31650,0.049237,0.0568135,0.00158622
20435,6.0,-17.0,0.0,   2.44733E-03,  -7.86058E-03,      -1.32178,0.049142,0.0571295,0.00136169
20438,5.0,-17.0,0.0,   2.04255E-03,  -7.91364E-03,      -1.32623,0.0490613,0.0573965,0.00113616
20439,4.0,-17.0,0.0,   1.63604E-03,  -7.95699E-03,      -1.32986,0.0489952,0.0576147,0.000909825
20444,3.0,-17.0,0.0,   1.22818E-03,  -7.99067E-03,      -1.33267,0.0489437,0.0577843,0.000682882
20445,2.0,-17.0,0.0,   819.328E-06,  -8.01471E-03,      -1.33467,0.0489068,0.0579053,0.000455495
20450,1.0,-17.0,0.0,   409.825E-06,  -8.02912E-03,      -1.33587,0.0488847,0.0579779,0.000227819
20453,0.0,-17.0,0.0,   528.871E-18,  -8.03393E-03,      -1.33627,0.0488773,0.0580021,1.81899e-12
20454,-1.0,-17.0,0.0,  -409.825E-06,  -8.02912E-03,      -1.33587,0.0488847,0.0579779,-0.000227819
20459,-2.0,-17.0,0.0,  -819.328E-06,  -8.01471E-03,      -1.33467,0.0489068,0.0579053,-0.000455495
20460,-3.0,-17.0,0.0,  -1.22818E-03,  -7.99067E-03,      -1.33267,0.0489437,0.0577843,-0.000682882
20465,-4.0,-17.0,0.0,  -1.63604E-03,  -7.95699E-03,      -1.32986,0.0489952,0.0576147,-0.000909825
20468,-5.0,-17.0,0.0,  -2.04255E-03,  -7.91364E-03,      -1.32623,0.0490613,0.0573965,-0.00113616
20469,-6.0,-17.0,0.0,  -2.44733E-03,  -7.86058E-03,      -1.32178,0.049142,0.0571295,-0.00136169
20474,-7.0,-17.0,0.0,  -2.84994E-03,  -7.79777E-03,      -1.31650,0.049237,0.0568135,-0.00158622
20475,-8.0,-17.0,0.0,  -3.24995E-03,  -7.72518E-03,      -1.31037,0.0493464,0.0564484,-0.00180952
20480,-9.0,-17.0,0.0,  -3.64683E-03,  -7.64277E-03,      -1.30338,0.04947,0.0560341,-0.00203131
20483,-10.0,-17.0,0.0,  -4.04003E-03,  -7.55049E-03,      -1.29550,0.0496075,0.0555703,-0.00225131
20484,-11.0,-17.0,0.0,  -4.42893E-03,  -7.44832E-03,      -1.28673,0.0497587,0.055057,-0.00246915
20489,-12.0,-17.0,0.0,  -4.81284E-03,  -7.33623E-03,      -1.27704,0.0499235,0.0544941,-0.00268447
20490,-13.0,-17.0,0.0,  -5.19100E-03,  -7.21422E-03,      -1.26641,0.0501015,0.0538816,-0.0028968
20495,-14.0,-17.0,0.0,  -5.56255E-03,  -7.08231E-03,      -1.25481,0.0502924,0.0532195,-0.00310566
20498,-15.0,-17.0,0.0,  -5.92655E-03,  -6.94052E-03,      -1.24222,0.0504958,0.0525081,-0.00331047
20499,-16.0,-17.0,0.0,  -6.28195E-03,  -6.78891E-03,      -1.22861,0.0507114,0.0517476,-0.0035106
20504,-17.0,-17.0,0.0,  -6.62759E-03,  -6.62759E-03,      -1.21395,0.0509386,0.0509386,-0.00370534
20505,-18.0,-17.0,0.0,  -6.96222E-03,  -6.45669E-03,      -1.19822,0.051177,0.0500816,-0.00389391
20510,-19.0,-17.0,0.0,  -7.28442E-03,  -6.27638E-03,      -1.18137,0.0514259,0.0491775,-0.00407544
20513,-20.0,-17.0,0.0,  -7.59266E-03,  -6.08690E-03,      -1.16339,0.0516846,0.0482274,-0.004249
20514,-21.0,-17.0,0.0,  -7.88526E-03,  -5.88852E-03,      -1.14422,0.0519526,0.0472327,-0.00441357
20519,-22.0,-17.0,0.0,  -8.16040E-03,  -5.68159E-03,      -1.12385,0.052229,0.0461949,-0.00456805
20520,-23.0,-17.0,0.0,  -8.41611E-03,  -5.46652E-03,      -1.10223,0.0525128,0.045116,-0.00471127
20525,-24.0,-17.0,0.0,  -8.65022E-03,  -5.24378E-03,      -1.07932,0.0528033,0.0439984,-0.004842
20528,-25.0,-17.0,0.0,  -8.86043E-03,  -5.01395E-03,      -1.05510,0.0530993,0.0428447,-0.00495897
20529,-26.0,-17.0,0.0,  -9.04426E-03,  -4.77764E-03,      -1.02951,0.0533997,0.0416581,-0.00506086
20534,-27.0,-17.0,0.0,  -9.19904E-03,  -4.53557E-03,      -1.00253,0.0537035,0.040442,-0.00514633
20535,-28.0,-17.0,0.0,  -9.32193E-03,  -4.28854E-03,  -974.122E-03,0.0540094,0.0392003,-0.00521405
20540,-29.0,-17.0,0.0,  -9.40993E-03,  -4.03743E-03,  -944.242E-03,0.0543161,0.0379375,-0.0052627
20543,-30.0,-17.0,0.0,  -9.45984E-03,  -3.78319E-03,  -912.856E-03,0.0546222,0.0366584,-0.00529102
20544,-31.0,-17.0,0.0,  -9.46829E-03,  -3.52687E-03,  -879.929E-03,0.0549264,0.0353682,-0.00529783
20549,-32.0,-17.0,0.0,  -9.43174E-03,  -3.26958E-03,  -845.425E-03,0.0552273,0.0340725,-0.00528204
20550,-33.0,-17.0,0.0,  -9.34651E-03,  -3.01249E-03,  -809.311E-03,0.0555234,0.0327775,-0.00524273
20555,-34.0,-17.0,0.0,  -9.20872E-03,  -2.75686E-03,  -771.555E-03,0.0558131,0.0314895,-0.00517911
20558,-35.0,-17.0,0.0,  -9.01438E-03,  -2.50398E-03,  -732.124E-03,0.0560952,0.0302152,-0.0050906
20559,-36.0,-17.0,0.0,  -8.75933E-03,  -2.25518E-03,  -690.990E-03,0.0563679,0.0289615,-0.00497685
20564,-37.0,-17.0,0.0,  -8.43932E-03,  -2.01185E-03,  -648.123E-03,0.0566297,0.0277354,-0.00483776
20565,-38.0,-17.0,0.0,  -8.04996E-03,  -1.77536E-03,  -603.499E-03,0.0568784,0.026544,-0.00467351
20570,-39.0,-17.0,0.0,  -7.58679E-03,  -1.54712E-03,  -557.093E-03,0.0571108,0.0253939,-0.00448463
20573,-40.0,-17.0,0.0,  -7.04529E-03,  -1.32851E-03,  -508.883E-03,0.0573208,0.0242907,-0.00427205
20574,-41.0,-17.0,0.0,  -6.42098E-03,  -1.12092E-03,  -458.853E-03,0.0574947,0.0232377,-0.00403735
20579,-42.0,-17.0,0.0,  -5.70962E-03,  -925.706E-06,  -406.991E-03,0.0575988,0.0222318,-0.00378299
20580,-43.0,-17.0,0.0,  -4.90767E-03,  -744.205E-06,  -353.304E-03,0.0575484,0.0212542,-0.00351323
20585,-44.0,-17.0,0.0,  -4.01367E-03,  -577.771E-06,  -297.833E-03,0.0571257,0.0202456,-0.003235
20588,-45.0,-17.0,0.0,  -3.03169E-03,  -427.841E-06,  -240.715E-03,0.0557659,0.0190424,-0.00296058
20589,-46.0,-17.0,0.0,  -1.98041E-03,  -296.079E-06,  -182.324E-03,0.0519988,0.0172094,-0.00270739
20594,-47.0,-17.0,0.0,  -916.510E-06,  -184.651E-06,  -123.656E-03,0.041988,0.0136033,-0.00249429
20595,-48.0,-17.0,0.0,   10.2241E-06,  -96.5230E-06,  -67.3199E-03,0.0157007,0.00522712,-0.0022947
20600,-49.0,-17.0,0.0,   460.457E-06,  -35.0197E-06,  -20.1437E-03,-0.0531187,-0.0157699,-0.00186877
20603,-50.0,-17.0,0.0,   2.56719E-39,  -802.221E-42,           -0.,-0.102912,-0.0308774,-0.00106362
20604,50.0,-18.0,0.0,  -2.52348E-39,  -789.992E-42,           -0.,-0.102222,-0.0306707,0.0011179
20609,49.0,-18.0,0.0,  -453.025E-06,  -36.6895E-06,  -19.9354E-03,-0.053178,-0.0157918,0.00197985
20610,48.0,-18.0,0.0,  -11.1153E-06,  -101.565E-06,  -66.6879E-03,0.0147892,0.00495084,0.00243925
20615,47.0,-18.0,0.0,   903.732E-06,  -194.846E-06,  -122.607E-03,0.0410037,0.013312,0.00265431
20618,46.0,-18.0,0.0,   1.95626E-03,  -312.998E-06,  -180.883E-03,0.051084,0.0169499,0.00288207
20619,45.0,-18.0,0.0,   2.99677E-03,  -452.821E-06,  -238.890E-03,0.0549142,0.0188162,0.00315242
20624,44.0,-18.0,0.0,   3.96808E-03,  -611.955E-06,  -295.616E-03,0.056311,0.0200475,0.00344565
20625,43.0,-18.0,0.0,   4.85117E-03,  -788.579E-06,  -350.679E-03,0.0567509,0.0210807,0.00374306
20630,42.0,-18.0,0.0,   5.64190E-03,  -981.122E-06,  -403.937E-03,0.0568069,0.0220815,0.00403128
20633,41.0,-18.0,0.0,   6.34179E-03,  -1.18811E-03,  -455.348E-03,0.0567022,0.0231105,0.0043027
20634,40.0,-18.0,0.0,   6.95448E-03,  -1.40807E-03,  -504.906E-03,0.0565245,0.024187,0.00455263
20639,39.0,-18.0,0.0,   7.48436E-03,  -1.63955E-03,  -552.624E-03,0.056309,0.0253141,0.00477836
20640,38.0,-18.0,0.0,   7.93606E-03,  -1.88104E-03,  -598.521E-03,0.0560702,0.0264885,0.00497822
20645,37.0,-18.0,0.0,   8.31426E-03,  -2.13104E-03,  -642.620E-03,0.0558148,0.0277044,0.00515122
20648,36.0,-18.0,0.0,   8.62356E-03,  -2.38804E-03,  -684.948E-03,0.0555463,0.0289547,0.00529684
20649,35.0,-18.0,0.0,   8.86847E-03,  -2.65056E-03,  -725.534E-03,0.0552669,0.0302322,0.00541498
20654,34.0,-18.0,0.0,   9.05336E-03,  -2.91713E-03,  -764.407E-03,0.0549784,0.0315296,0.00550581
20655,33.0,-18.0,0.0,   9.18248E-03,  -3.18633E-03,  -801.601E-03,0.0546825,0.0328397,0.00556981
20660,32.0,-18.0,0.0,   9.25991E-03,  -3.45677E-03,  -837.149E-03,0.0543808,0.0341558,0.0056077
20663,31.0,-18.0,0.0,   9.28958E-03,  -3.72714E-03,  -871.086E-03,0.0540748,0.0354712,0.00562041
20664,30.0,-18.0,0.0,   9.27524E-03,  -3.99620E-03,  -903.449E-03,0.0537661,0.0367797,0.00560903
20669,29.0,-18.0,0.0,   9.22046E-03,  -4.26278E-03,  -934.274E-03,0.0534561,0.0380757,0.0055748
20670,28.0,-18.0,0.0,   9.12863E-03,  -4.52581E-03,  -963.599E-03,0.0531462,0.0393539,0.00551908
20675,27.0,-18.0,0.0,   9.00295E-03,  -4.78428E-03,  -991.464E-03,0.0528379,0.0406094,0.00544329
20678,26.0,-18.0,0.0,   8.84643E-03,  -5.03730E-03,      -1.01791,0.0525323,0.0418379,0.00534889
20679,25.0,-18.0,0.0,   8.66190E-03,  -5.28404E-03,      -1.04297,0.0522307,0.0430356,0.00523735
20684,24.0,-18.0,0.0,   8.45199E-03,  -5.52378E-03,      -1.06668,0.0519343,0.0441989,0.00511015
20685,23.0,-18.0,0.0,   8.21917E-03,  -5.75589E-03,      -1.08909,0.051644,0.0453249,0.00496873
20690,22.0,-18.0,0.0,   7.96570E-03,  -5.97980E-03,      -1.11023,0.051361,0.046411,0.00481446
20693,21.0,-18.0,0.0,   7.69369E-03,  -6.19503E-03,      -1.13015,0.051086,0.047455,0.00464866
20694,20.0,-18.0,0.0,   7.40509E-03,  -6.40120E-03,      -1.14887,0.0508199,0.0484549,0.00447259
20699,19.0,-18.0,0.0,   7.10166E-03,  -6.59795E-03,      -1.16643,0.0505633,0.0494094,0.00428741
20700,18.0,-18.0,0.0,   6.78503E-03,  -6.78503E-03,      -1.18287,0.050317,0.050317,0.00409418
20705,17.0,-18.0,0.0,   6.45669E-03,  -6.96222E-03,      -1.19822,0.0500816,0.051177,0.00389391
20708,16.0,-18.0,0.0,   6.11799E-03,  -7.12935E-03,      -1.21251,0.0498575,0.0519883,0.00368748
20709,15.0,-18.0,0.0,   5.77014E-03,  -7.28631E-03,      -1.22578,0.0496453,0.0527507,0.00347571
20714,14.0,-18.0,0.0,   5.41425E-03,  -7.43302E-03,      -1.23805,0.0494453,0.0534635,0.00325932
20715,13.0,-18.0,0.0,   5.05133E-03,  -7.56944E-03,      -1.24935,0.0492578,0.0541267,0.00303897
20720,12.0,-18.0,0.0,   4.68226E-03,  -7.69554E-03,      -1.25971,0.0490833,0.05474,0.00281522
20723,11.0,-18.0,0.0,   4.30786E-03,  -7.81133E-03,      -1.26915,0.0489219,0.0553035,0.0025886
20724,10.0,-18.0,0.0,   3.92884E-03,  -7.91683E-03,      -1.27769,0.0487738,0.0558172,0.00235953
20729,9.0,-18.0,0.0,   3.54586E-03,  -8.01207E-03,      -1.28535,0.0486394,0.0562812,0.00212841
20730,8.0,-18.0,0.0,   3.15949E-03,  -8.09711E-03,      -1.29216,0.0485188,0.0566956,0.00189558
20735,7.0,-18.0,0.0,   2.77025E-03,  -8.17199E-03,      -1.29812,0.048412,0.0570608,0.00166133
20738,6.0,-18.0,0.0,   2.37862E-03,  -8.23675E-03,      -1.30326,0.0483192,0.0573767,0.00142593
20739,5.0,-18.0,0.0,   1.98502E-03,  -8.29145E-03,      -1.30759,0.0482406,0.0576437,0.00118958
20744,4.0,-18.0,0.0,   1.58984E-03,  -8.33614E-03,      -1.31112,0.0481761,0.0578619,0.000952496
20745,3.0,-18.0,0.0,   1.19342E-03,  -8.37085E-03,      -1.31385,0.048126,0.0580314,0.000714845
20750,2.0,-18.0,0.0,   796.107E-06,  -8.39561E-03,      -1.31580,0.0480901,0.0581524,0.000476784
20753,1.0,-18.0,0.0,   398.199E-06,  -8.41046E-03,      -1.31696,0.0480685,0.0582249,0.000238457
20754,0.0,-18.0,0.0,   4.09935E-15,  -8.41541E-03,      -1.31735,0.0480613,0.0582491,1.81899e-12
20759,-1.0,-18.0,0.0,  -398.199E-06,  -8.41046E-03,      -1.31696,0.0480685,0.058225,-0.000238457
20760,-2.0,-18.0,0.0,  -796.107E-06,  -8.39561E-03,      -1.31580,0.0480901,0.0581524,-0.000476784
20765,-3.0,-18.0,0.0,  -1.19342E-03,  -8.37085E-03,      -1.31385,0.048126,0.0580314,-0.000714845
20768,-4.0,-18.0,0.0,  -1.58984E-03,  -8.33614E-03,      -1.31112,0.0481761,0.0578619,-0.000952496
20769,-5.0,-18.0,0.0,  -1.98502E-03,  -8.29145E-03,      -1.30759,0.0482406,0.0576437,-0.00118958
20774,-6.0,-18.0,0.0,  -2.37862E-03,  -8.23675E-03,      -1.30326,0.0483192,0.0573767,-0.00142593
20775,-7.0,-18.0,0.0,  -2.77025E-03,  -8.17199E-03,      -1.29812,0.048412,0.0570608,-0.00166133
20780,-8.0,-18.0,0.0,  -3.15949E-03,  -8.09711E-03,      -1.29216,0.0485188,0.0566956,-0.00189558
20783,-9.0,-18.0,0.0,  -3.54586E-03,  -8.01207E-03,      -1.28535,0.0486394,0.0562812,-0.00212841
20784,-10.0,-18.0,0.0,  -3.92884E-03,  -7.91683E-03,      -1.27769,0.0487738,0.0558172,-0.00235953
20789,-11.0,-18.0,0.0,  -4.30786E-03,  -7.81133E-03,      -1.26915,0.0489219,0.0553035,-0.0025886
20790,-12.0,-18.0,0.0,  -4.68226E-03,  -7.69554E-03,      -1.25971,0.0490833,0.05474,-0.00281522
20795,-13.0,-18.0,0.0,  -5.05133E-03,  -7.56944E-03,      -1.24935,0.0492578,0.0541267,-0.00303897
20798,-14.0,-18.0,0.0,  -5.41425E-03,  -7.43302E-03,      -1.23805,0.0494453,0.0534635,-0.00325932
20799,-15.0,-18.0,0.0,  -5.77014E-03,  -7.28631E-03,      -1.22578,0.0496453,0.0527507,-0.00347571
20804,-16.0,-18.0,0.0,  -6.11799E-03,  -7.12935E-03,      -1.21251,0.0498575,0.0519883,-0.00368748
20805,-17.0,-18.0,0.0,  -6.45669E-03,  -6.96222E-03,      -1.19822,0.0500816,0.051177,-0.00389391
20810,-18.0,-18.0,0.0,  -6.78503E-03,  -6.78503E-03,      -1.18287,0.050317,0.050317,-0.00409418
20813,-19.0,-18.0,0.0,  -7.10166E-03,  -6.59795E-03,      -1.16643,0.0505633,0.0494094,-0.00428741
20814,-20.0,-18.0,0.0,  -7.40509E-03,  -6.40120E-03,      -1.14887,0.0508199,0.0484549,-0.00447259
20819,-21.0,-18.0,0.0,  -7.69369E-03,  -6.19503E-03,      -1.13015,0.051086,0.047455,-0.00464866
20820,-22.0,-18.0,0.0,  -7.96570E-03,  -5.97980E-03,      -1.11023,0.051361,0.046411,-0.00481446
20825,-23.0,-18.0,0.0,  -8.21917E-03,  -5.75589E-03,      -1.08909,0.051644,0.0453249,-0.00496873
20828,-24.0,-18.0,0.0,  -8.45199E-03,  -5.52378E-03,      -1.06668,0.0519343,0.0441989,-0.00511015
20829,-25.0,-18.0,0.0,  -8.66190E-03,  -5.28404E-03,      -1.04297,0.0522307,0.0430356,-0.00523735
20834,-26.0,-18.0,0.0,  -8.84643E-03,  -5.03730E-03,      -1.01791,0.0525323,0.0418379,-0.00534889
20835,-27.0,-18.0,0.0,  -9.00295E-03,  -4.78428E-03,  -991.464E-03,0.0528379,0.0406094,-0.00544329
20840,-28.0,-18.0,0.0,  -9.12863E-03,  -4.52581E-03,  -963.599E-03,0.0531462,0.0393539,-0.00551908
20843,-29.0,-18.0,0.0,  -9.22046E-03,  -4.26278E-03,  -934.274E-03,0.0534561,0.0380757,-0.0055748
20844,-30.0,-18.0,0.0,  -9.27524E-03,  -3.99620E-03,  -903.449E-03,0.0537661,0.0367797,-0.00560903
20849,-31.0,-18.0,0.0,  -9.28958E-03,  -3.72714E-03,  -871.086E-03,0.0540748,0.0354712,-0.00562041
20850,-32.0,-18.0,0.0,  -9.25991E-03,  -3.45677E-03,  -837.149E-03,0.0543808,0.0341558,-0.0056077
20855,-33.0,-18.0,0.0,  -9.18248E-03,  -3.18633E-03,  -801.601E-03,0.0546825,0.0328397,-0.00556981
20858,-34.0,-18.0,0.0,  -9.05336E-03,  -2.91713E-03,  -764.407E-03,0.0549784,0.0315296,-0.00550581
20859,-35.0,-18.0,0.0,  -8.86847E-03,  -2.65056E-03,  -725.534E-03,0.0552669,0.0302322,-0.00541498
20864,-36.0,-18.0,0.0,  -8.62356E-03,  -2.38804E-03,  -684.948E-03,0.0555463,0.0289547,-0.00529684
20865,-37.0,-18.0,0.0,  -8.31426E-03,  -2.13104E-03,  -642.620E-03,0.0558148,0.0277044,-0.00515122
20870,-38.0,-18.0,0.0,  -7.93606E-03,  -1.88104E-03,  -598.521E-03,0.0560702,0.0264885,-0.00497822
20873,-39.0,-18.0,0.0,  -7.48436E-03,  -1.63955E-03,  -552.624E-03,0.056309,0.0253141,-0.00477836
20874,-40.0,-18.0,0.0,  -6.95448E-03,  -1.40807E-03,  -504.906E-03,0.0565245,0.024187,-0.00455263
20879,-41.0,-18.0,0.0,  -6.34179E-03,  -1.18811E-03,  -455.348E-03,0.0567022,0.0231105,-0.0043027
20880,-42.0,-18.0,0.0,  -5.64190E-03,  -981.122E-06,  -403.937E-03,0.0568069,0.0220815,-0.00403128
20885,-43.0,-18.0,0.0,  -4.85117E-03,  -788.579E-06,  -350.679E-03,0.0567509,0.0210807,-0.00374306
20888,-44.0,-18.0,0.0,  -3.96808E-03,  -611.955E-06,  -295.616E-03,0.056311,0.0200475,-0.00344565
20889,-45.0,-18.0,0.0,  -2.99677E-03,  -452.821E-06,  -238.890E-03,0.0549142,0.0188162,-0.00315242
20894,-46.0,-18.0,0.0,  -1.95626E-03,  -312.998E-06,  -180.883E-03,0.051084,0.0169499,-0.00288207
20895,-47.0,-18.0,0.0,  -903.732E-06,  -194.846E-06,  -122.607E-03,0.0410037,0.013312,-0.00265431
20900,-48.0,-18.0,0.0,   11.1153E-06,  -101.565E-06,  -66.6879E-03,0.0147892,0.00495084,-0.00243925
20903,-49.0,-18.0,0.0,   453.025E-06,  -36.6895E-06,  -19.9354E-03,-0.053178,-0.0157918,-0.00197985
20904,-50.0,-18.0,0.0,   2.52348E-39,  -789.992E-42,           -0.,-0.102222,-0.0306707,-0.0011179
20909,50.0,-19.0,0.0,  -2.47681E-39,  -776.768E-42,           -0.,-0.10148,-0.030448,0.0011703
20910,49.0,-19.0,0.0,  -445.102E-06,  -38.2750E-06,  -19.7127E-03,-0.0532315,-0.0158127,0.00209073
20915,48.0,-19.0,0.0,  -12.0172E-06,  -106.463E-06,  -66.0113E-03,0.0138264,0.00465835,0.00258532
20918,47.0,-19.0,0.0,   890.091E-06,  -204.875E-06,  -121.481E-03,0.0399592,0.0130022,0.00281669
20919,46.0,-19.0,0.0,   1.93037E-03,  -329.767E-06,  -179.335E-03,0.0501123,0.0166738,0.00305964
20924,45.0,-19.0,0.0,   2.95927E-03,  -477.692E-06,  -236.928E-03,0.0540103,0.018576,0.00334764
20925,44.0,-19.0,0.0,   3.91906E-03,  -646.084E-06,  -293.233E-03,0.0554472,0.0198379,0.00366024
20930,43.0,-19.0,0.0,   4.79040E-03,  -832.951E-06,  -347.855E-03,0.055906,0.020898,0.00397738
20933,42.0,-19.0,0.0,   5.56905E-03,  -1.03658E-03,  -400.651E-03,0.0559681,0.0219241,0.00428455
20934,41.0,-19.0,0.0,   6.25659E-03,  -1.25535E-03,  -451.575E-03,0.0558627,0.0229782,0.00457338
20939,40.0,-19.0,0.0,   6.85679E-03,  -1.48768E-03,  -500.624E-03,0.0556806,0.0240802,0.00483871
20940,39.0,-19.0,0.0,   7.37420E-03,  -1.73196E-03,  -547.812E-03,0.055459,0.0252332,0.0050776
20945,38.0,-19.0,0.0,   7.81363E-03,  -1.98660E-03,  -593.159E-03,0.0552132,0.0264339,0.00528824
20948,37.0,-19.0,0.0,   8.17991E-03,  -2.24995E-03,  -636.692E-03,0.0549503,0.027676,0.00546961
20949,36.0,-19.0,0.0,   8.47779E-03,  -2.52042E-03,  -678.439E-03,0.0546743,0.0289523,0.00562124
20954,35.0,-19.0,0.0,   8.71193E-03,  -2.79640E-03,  -718.434E-03,0.0543875,0.0302552,0.00574309
20955,34.0,-19.0,0.0,   8.88682E-03,  -3.07633E-03,  -756.708E-03,0.054092,0.0315771,0.00583547
20960,33.0,-19.0,0.0,   9.00680E-03,  -3.35869E-03,  -793.297E-03,0.0537896,0.0329106,0.00589899
20963,32.0,-19.0,0.0,   9.07604E-03,  -3.64204E-03,  -828.237E-03,0.0534819,0.0342487,0.00593454
20964,31.0,-19.0,0.0,   9.09854E-03,  -3.92498E-03,  -861.566E-03,0.0531706,0.0355847,0.00594322
20969,30.0,-19.0,0.0,   9.07810E-03,  -4.20622E-03,  -893.323E-03,0.0528572,0.0369122,0.00592632
20970,29.0,-19.0,0.0,   9.01832E-03,  -4.48454E-03,  -923.548E-03,0.0525433,0.0382256,0.00588526
20975,28.0,-19.0,0.0,   8.92261E-03,  -4.75883E-03,  -952.281E-03,0.0522303,0.0395195,0.00582158
20978,27.0,-19.0,0.0,   8.79418E-03,  -5.02806E-03,  -979.563E-03,0.0519197,0.0407892,0.00573688
20979,26.0,-19.0,0.0,   8.63602E-03,  -5.29131E-03,      -1.00543,0.0516126,0.0420302,0.00563279
20984,25.0,-19.0,0.0,   8.45096E-03,  -5.54774E-03,      -1.02994,0.0513103,0.0432388,0.00551093
20985,24.0,-19.0,0.0,   8.24158E-03,  -5.79663E-03,      -1.05311,0.0510139,0.0444117,0.00537291
20990,23.0,-19.0,0.0,   8.01033E-03,  -6.03734E-03,      -1.07499,0.0507244,0.045546,0.00522029
20993,22.0,-19.0,0.0,   7.75943E-03,  -6.26931E-03,      -1.09563,0.0504427,0.0466391,0.00505455
20994,21.0,-19.0,0.0,   7.49093E-03,  -6.49209E-03,      -1.11505,0.0501696,0.047689,0.00487713
20999,20.0,-19.0,0.0,   7.20673E-03,  -6.70527E-03,      -1.13330,0.049906,0.0486939,0.00468933
21000,19.0,-19.0,0.0,   6.90854E-03,  -6.90854E-03,      -1.15042,0.0496524,0.0496524,0.00449238
21005,18.0,-19.0,0.0,   6.59795E-03,  -7.10166E-03,      -1.16643,0.0494094,0.0505633,0.00428741
21008,17.0,-19.0,0.0,   6.27638E-03,  -7.28442E-03,      -1.18137,0.0491775,0.0514258,0.00407544
21009,16.0,-19.0,0.0,   5.94513E-03,  -7.45668E-03,      -1.19529,0.0489573,0.0522393,0.00385741
21014,15.0,-19.0,0.0,   5.60535E-03,  -7.61834E-03,      -1.20819,0.048749,0.0530032,0.00363416
21015,14.0,-19.0,0.0,   5.25811E-03,  -7.76934E-03,      -1.22013,0.048553,0.0537172,0.00340641
21020,13.0,-19.0,0.0,   4.90435E-03,  -7.90967E-03,      -1.23112,0.0483696,0.0543812,0.00317483
21023,12.0,-19.0,0.0,   4.54492E-03,  -8.03931E-03,      -1.24119,0.048199,0.0549951,0.00294
21024,11.0,-19.0,0.0,   4.18058E-03,  -8.15829E-03,      -1.25036,0.0480415,0.0555589,0.00270242
21029,10.0,-19.0,0.0,   3.81200E-03,  -8.26665E-03,      -1.25866,0.0478972,0.0560728,0.00246253
21030,9.0,-19.0,0.0,   3.43980E-03,  -8.36444E-03,      -1.26610,0.0477663,0.0565369,0.00222072
21035,8.0,-19.0,0.0,   3.06450E-03,  -8.45171E-03,      -1.27271,0.0476489,0.0569513,0.00197732
21036,7.0,-19.0,0.0,   2.68660E-03,  -8.52852E-03,      -1.27851,0.0475451,0.0573164,0.00173261
21041,6.0,-19.0,0.0,   2.30652E-03,  -8.59495E-03,      -1.28350,0.047455,0.0576322,0.00148684
21042,5.0,-19.0,0.0,   1.92466E-03,  -8.65103E-03,      -1.28770,0.0473787,0.0578991,0.00124021
21047,4.0,-19.0,0.0,   1.54137E-03,  -8.69684E-03,      -1.29112,0.0473161,0.0581172,0.000992912
21050,3.0,-19.0,0.0,   1.15697E-03,  -8.73242E-03,      -1.29378,0.0472674,0.0582866,0.000745106
21051,2.0,-19.0,0.0,   771.755E-06,  -8.75781E-03,      -1.29567,0.0472326,0.0584075,0.000496934
21056,1.0,-19.0,0.0,   386.009E-06,  -8.77303E-03,      -1.29680,0.0472118,0.05848,0.000248525
21057,0.0,-19.0,0.0,   4.32702E-15,  -8.77810E-03,      -1.29717,0.0472048,0.0585041,-1.81899e-12
21062,-1.0,-19.0,0.0,  -386.009E-06,  -8.77303E-03,      -1.29680,0.0472118,0.05848,-0.000248525
21065,-2.0,-19.0,0.0,  -771.755E-06,  -8.75781E-03,      -1.29567,0.0472326,0.0584075,-0.000496934
21066,-3.0,-19.0,0.0,  -1.15697E-03,  -8.73242E-03,      -1.29378,0.0472674,0.0582866,-0.000745106
21071,-4.0,-19.0,0.0,  -1.54137E-03,  -8.69684E-03,      -1.29112,0.0473161,0.0581172,-0.000992912
21072,-5.0,-19.0,0.0,  -1.92466E-03,  -8.65103E-03,      -1.28770,0.0473787,0.0578991,-0.00124021
21077,-6.0,-19.0,0.0,  -2.30652E-03,  -8.59495E-03,      -1.28350,0.047455,0.0576322,-0.00148684
21080,-7.0,-19.0,0.0,  -2.68660E-03,  -8.52852E-03,      -1.27851,0.0475451,0.0573164,-0.00173261
21081,-8.0,-19.0,0.0,  -3.06450E-03,  -8.45171E-03,      -1.27271,0.0476489,0.0569514,-0.00197732
21086,-9.0,-19.0,0.0,  -3.43980E-03,  -8.36444E-03,      -1.26610,0.0477663,0.0565369,-0.00222072
21087,-10.0,-19.0,0.0,  -3.81200E-03,  -8.26665E-03,      -1.25866,0.0478972,0.0560728,-0.00246253
21092,-11.0,-19.0,0.0,  -4.18058E-03,  -8.15829E-03,      -1.25036,0.0480415,0.0555589,-0.00270242
21095,-12.0,-19.0,0.0,  -4.54492E-03,  -8.03931E-03,      -1.24119,0.048199,0.0549951,-0.00294
21096,-13.0,-19.0,0.0,  -4.90435E-03,  -7.90967E-03,      -1.23112,0.0483696,0.0543812,-0.00317483
21101,-14.0,-19.0,0.0,  -5.25811E-03,  -7.76934E-03,      -1.22013,0.048553,0.0537172,-0.00340641
21102,-15.0,-19.0,0.0,  -5.60535E-03,  -7.61834E-03,      -1.20819,0.048749,0.0530032,-0.00363416
21107,-16.0,-19.0,0.0,  -5.94513E-03,  -7.45668E-03,      -1.19529,0.0489573,0.0522393,-0.00385741
21110,-17.0,-19.0,0.0,  -6.27638E-03,  -7.28442E-03,      -1.18137,0.0491775,0.0514258,-0.00407544
21111,-18.0,-19.0,0.0,  -6.59795E-03,  -7.10166E-03,      -1.16643,0.0494094,0.0505633,-0.00428741
21116,-19.0,-19.0,0.0,  -6.90854E-03,  -6.90854E-03,      -1.15042,0.0496524,0.0496524,-0.00449238
21117,-20.0,-19.0,0.0,  -7.20673E-03,  -6.70527E-03,      -1.13330,0.049906,0.0486939,-0.00468933
21122,-21.0,-19.0,0.0,  -7.49093E-03,  -6.49209E-03,      -1.11505,0.0501696,0.047689,-0.00487713
21125,-22.0,-19.0,0.0,  -7.75943E-03,  -6.26931E-03,      -1.09563,0.0504427,0.0466391,-0.00505455
21126,-23.0,-19.0,0.0,  -8.01033E-03,  -6.03734E-03,      -1.07499,0.0507244,0.045546,-0.00522029
21131,-24.0,-19.0,0.0,  -8.24158E-03,  -5.79663E-03,      -1.05311,0.0510139,0.0444117,-0.00537291
21132,-25.0,-19.0,0.0,  -8.45096E-03,  -5.54774E-03,      -1.02994,0.0513103,0.0432388,-0.00551093
21137,-26.0,-19.0,0.0,  -8.63602E-03,  -5.29131E-03,      -1.00543,0.0516126,0.0420302,-0.00563279
21140,-27.0,-19.0,0.0,  -8.79418E-03,  -5.02806E-03,  -979.563E-03,0.0519197,0.0407892,-0.00573688
21141,-28.0,-19.0,0.0,  -8.92261E-03,  -4.75883E-03,  -952.281E-03,0.0522303,0.0395195,-0.00582158
21146,-29.0,-19.0,0.0,  -9.01832E-03,  -4.48454E-03,  -923.548E-03,0.0525433,0.0382256,-0.00588526
21147,-30.0,-19.0,0.0,  -9.07810E-03,  -4.20622E-03,  -893.323E-03,0.0528572,0.0369122,-0.00592632
21152,-31.0,-19.0,0.0,  -9.09854E-03,  -3.92498E-03,  -861.566E-03,0.0531706,0.0355847,-0.00594322
21155,-32.0,-19.0,0.0,  -9.07604E-03,  -3.64204E-03,  -828.237E-03,0.0534819,0.0342487,-0.00593454
21156,-33.0,-19.0,0.0,  -9.00680E-03,  -3.35869E-03,  -793.297E-03,0.0537896,0.0329106,-0.00589899
21161,-34.0,-19.0,0.0,  -8.88682E-03,  -3.07633E-03,  -756.708E-03,0.054092,0.0315771,-0.00583547
21162,-35.0,-19.0,0.0,  -8.71193E-03,  -2.79640E-03,  -718.434E-03,0.0543875,0.0302551,-0.00574309
21167,-36.0,-19.0,0.0,  -8.47779E-03,  -2.52042E-03,  -678.439E-03,0.0546743,0.0289523,-0.00562124
21170,-37.0,-19.0,0.0,  -8.17991E-03,  -2.24995E-03,  -636.692E-03,0.0549503,0.027676,-0.00546961
21171,-38.0,-19.0,0.0,  -7.81363E-03,  -1.98660E-03,  -593.159E-03,0.0552132,0.0264339,-0.00528824
21176,-39.0,-19.0,0.0,  -7.37420E-03,  -1.73196E-03,  -547.812E-03,0.055459,0.0252332,-0.0050776
21177,-40.0,-19.0,0.0,  -6.85679E-03,  -1.48768E-03,  -500.624E-03,0.0556806,0.0240802,-0.00483871
21182,-41.0,-19.0,0.0,  -6.25659E-03,  -1.25535E-03,  -451.575E-03,0.0558627,0.0229782,-0.00457338
21185,-42.0,-19.0,0.0,  -5.56905E-03,  -1.03658E-03,  -400.651E-03,0.0559681,0.0219241,-0.00428455
21186,-43.0,-19.0,0.0,  -4.79040E-03,  -832.951E-06,  -347.855E-03,0.055906,0.020898,-0.00397738
21191,-44.0,-19.0,0.0,  -3.91906E-03,  -646.084E-06,  -293.233E-03,0.0554472,0.0198379,-0.00366024
21192,-45.0,-19.0,0.0,  -2.95927E-03,  -477.692E-06,  -236.928E-03,0.0540103,0.018576,-0.00334764
21197,-46.0,-19.0,0.0,  -1.93037E-03,  -329.767E-06,  -179.335E-03,0.0501123,0.0166738,-0.00305964
21200,-47.0,-19.0,0.0,  -890.091E-06,  -204.875E-06,  -121.481E-03,0.0399592,0.0130022,-0.00281669
21201,-48.0,-19.0,0.0,   12.0172E-06,  -106.463E-06,  -66.0113E-03,0.0138264,0.00465835,-0.00258532
21206,-49.0,-19.0,0.0,   445.102E-06,  -38.2750E-06,  -19.7127E-03,-0.0532315,-0.0158127,-0.00209073
21207,-50.0,-19.0,0.0,   2.47681E-39,  -776.768E-42,           -0.,-0.10148,-0.030448,-0.0011703
21212,50.0,-20.0,0.0,  -2.42714E-39,  -762.519E-42,           -0.,-0.100682,-0.0302089,0.00122054
21215,49.0,-20.0,0.0,  -436.675E-06,  -39.7649E-06,  -19.4753E-03,-0.0532776,-0.015832,0.00220127
21216,48.0,-20.0,0.0,  -12.9154E-06,  -111.196E-06,  -65.2884E-03,0.0128126,0.0043496,0.00273292
21221,47.0,-20.0,0.0,   875.573E-06,  -214.710E-06,  -120.276E-03,0.0388537,0.0126735,0.0029816
21222,46.0,-20.0,0.0,   1.90269E-03,  -346.354E-06,  -177.676E-03,0.049083,0.0163807,0.00324032
21227,45.0,-20.0,0.0,   2.91908E-03,  -502.422E-06,  -234.825E-03,0.0530537,0.0183216,0.00354655
21230,44.0,-20.0,0.0,   3.86648E-03,  -680.125E-06,  -290.676E-03,0.0545341,0.0196169,0.00387913
21231,43.0,-20.0,0.0,   4.72518E-03,  -877.284E-06,  -344.824E-03,0.0550135,0.0207063,0.00421661
21236,42.0,-20.0,0.0,   5.49085E-03,  -1.09203E-03,  -397.122E-03,0.0550824,0.0217601,0.00454323
21237,41.0,-20.0,0.0,   6.16513E-03,  -1.32259E-03,  -447.522E-03,0.054976,0.0228415,0.00484983
21242,40.0,-20.0,0.0,   6.75194E-03,  -1.56725E-03,  -496.022E-03,0.0547891,0.0239711,0.00513073
21245,39.0,-20.0,0.0,   7.25601E-03,  -1.82427E-03,  -542.638E-03,0.0545606,0.0251522,0.00538272
21246,38.0,-20.0,0.0,   7.68233E-03,  -2.09192E-03,  -587.393E-03,0.0543069,0.0263812,0.00560386
21251,37.0,-20.0,0.0,   8.03591E-03,  -2.36844E-03,  -630.317E-03,0.0540358,0.0276514,0.00579314
21252,36.0,-20.0,0.0,   8.32168E-03,  -2.65211E-03,  -671.440E-03,0.0537515,0.0289555,0.00595011
21257,35.0,-20.0,0.0,   8.54442E-03,  -2.94123E-03,  -710.799E-03,0.0534567,0.0302853,0.00607487
21260,34.0,-20.0,0.0,   8.70876E-03,  -3.23413E-03,  -748.430E-03,0.0531536,0.0316331,0.00616787
21261,33.0,-20.0,0.0,   8.81915E-03,  -3.52920E-03,  -784.369E-03,0.0528441,0.0329912,0.0062299
21266,32.0,-20.0,0.0,   8.87985E-03,  -3.82493E-03,  -818.658E-03,0.0525301,0.0343523,0.00626205
21267,31.0,-20.0,0.0,   8.89491E-03,  -4.11986E-03,  -851.337E-03,0.0522132,0.0357096,0.00626563
21272,30.0,-20.0,0.0,   8.86820E-03,  -4.41265E-03,  -882.448E-03,0.0518951,0.0370568,0.00624215
21275,29.0,-20.0,0.0,   8.80334E-03,  -4.70202E-03,  -912.033E-03,0.0515774,0.0383879,0.00619323
21276,28.0,-20.0,0.0,   8.70375E-03,  -4.98684E-03,  -940.134E-03,0.0512615,0.0396978,0.00612063
21281,27.0,-20.0,0.0,   8.57264E-03,  -5.26606E-03,  -966.796E-03,0.0509489,0.0409816,0.00602612
21282,26.0,-20.0,0.0,   8.41299E-03,  -5.53874E-03,  -992.060E-03,0.0506407,0.0422351,0.00591152
21287,25.0,-20.0,0.0,   8.22760E-03,  -5.80404E-03,      -1.01597,0.0503382,0.0434546,0.00577862
21290,24.0,-20.0,0.0,   8.01903E-03,  -6.06124E-03,      -1.03857,0.0500424,0.0446369,0.00562916
21291,23.0,-20.0,0.0,   7.78967E-03,  -6.30971E-03,      -1.05990,0.0497542,0.0457791,0.00546484
21296,22.0,-20.0,0.0,   7.54169E-03,  -6.54890E-03,      -1.07999,0.0494746,0.0468789,0.00528724
21297,21.0,-20.0,0.0,   7.27711E-03,  -6.77837E-03,      -1.09890,0.0492042,0.0479343,0.00509788
21302,20.0,-20.0,0.0,   6.99774E-03,  -6.99774E-03,      -1.11666,0.0489438,0.0489438,0.00489815
21305,19.0,-20.0,0.0,   6.70527E-03,  -7.20673E-03,      -1.13330,0.0486939,0.049906,0.00468933
21306,18.0,-20.0,0.0,   6.40120E-03,  -7.40509E-03,      -1.14887,0.0484549,0.0508199,0.00447259
21311,17.0,-20.0,0.0,   6.08690E-03,  -7.59266E-03,      -1.16339,0.0482274,0.0516846,0.004249
21312,16.0,-20.0,0.0,   5.76360E-03,  -7.76931E-03,      -1.17690,0.0480117,0.0524998,0.00401952
21317,15.0,-20.0,0.0,   5.43243E-03,  -7.93498E-03,      -1.18943,0.0478081,0.0532649,0.00378498
21320,14.0,-20.0,0.0,   5.09436E-03,  -8.08962E-03,      -1.20101,0.0476168,0.0539798,0.00354614
21321,13.0,-20.0,0.0,   4.75031E-03,  -8.23323E-03,      -1.21168,0.0474381,0.0546443,0.00330366
21326,12.0,-20.0,0.0,   4.40106E-03,  -8.36583E-03,      -1.22144,0.0472722,0.0552585,0.00305811
21327,11.0,-20.0,0.0,   4.04732E-03,  -8.48746E-03,      -1.23034,0.0471192,0.0558225,0.00281
21332,10.0,-20.0,0.0,   3.68973E-03,  -8.59818E-03,      -1.23838,0.0469791,0.0563364,0.00255976
21335,9.0,-20.0,0.0,   3.32885E-03,  -8.69805E-03,      -1.24560,0.0468522,0.0568003,0.00230775
21336,8.0,-20.0,0.0,   2.96518E-03,  -8.78715E-03,      -1.25201,0.0467386,0.0572146,0.0020543
21341,7.0,-20.0,0.0,   2.59916E-03,  -8.86555E-03,      -1.25762,0.0466381,0.0575794,0.00179967
21342,6.0,-20.0,0.0,   2.23118E-03,  -8.93332E-03,      -1.26246,0.046551,0.057895,0.00154409
21347,5.0,-20.0,0.0,   1.86160E-03,  -8.99053E-03,      -1.26653,0.0464772,0.0581616,0.00128777
21350,4.0,-20.0,0.0,   1.49074E-03,  -9.03725E-03,      -1.26985,0.0464168,0.0583795,0.00103085
21351,3.0,-20.0,0.0,   1.11890E-03,  -9.07352E-03,      -1.27242,0.0463698,0.0585487,0.000773503
21356,2.0,-20.0,0.0,   746.323E-06,  -9.09940E-03,      -1.27425,0.0463362,0.0586695,0.000515837
21357,1.0,-20.0,0.0,   373.278E-06,  -9.11492E-03,      -1.27534,0.0463161,0.0587419,0.000257968
21362,0.0,-20.0,0.0,   2.51238E-15,  -9.12009E-03,      -1.27571,0.0463094,0.058766,1.81899e-12
21365,-1.0,-20.0,0.0,  -373.278E-06,  -9.11492E-03,      -1.27534,0.0463161,0.0587419,-0.000257968
21366,-2.0,-20.0,0.0,  -746.323E-06,  -9.09940E-03,      -1.27425,0.0463362,0.0586695,-0.000515837
21371,-3.0,-20.0,0.0,  -1.11890E-03,  -9.07352E-03,      -1.27242,0.0463698,0.0585487,-0.000773503
21372,-4.0,-20.0,0.0,  -1.49074E-03,  -9.03725E-03,      -1.26985,0.0464168,0.0583795,-0.00103085
21377,-5.0,-20.0,0.0,  -1.86160E-03,  -8.99053E-03,      -1.26653,0.0464772,0.0581616,-0.00128777
21380,-6.0,-20.0,0.0,  -2.23118E-03,  -8.93332E-03,      -1.26246,0.046551,0.057895,-0.00154409
21381,-7.0,-20.0,0.0,  -2.59916E-03,  -8.86555E-03,      -1.25762,0.0466381,0.0575794,-0.00179967
21386,-8.0,-20.0,0.0,  -2.96518E-03,  -8.78715E-03,      -1.25201,0.0467386,0.0572146,-0.0020543
21387,-9.0,-20.0,0.0,  -3.32885E-03,  -8.69805E-03,      -1.24560,0.0468522,0.0568003,-0.00230775
21392,-10.0,-20.0,0.0,  -3.68973E-03,  -8.59818E-03,      -1.23838,0.0469791,0.0563364,-0.00255976
21395,-11.0,-20.0,0.0,  -4.04732E-03,  -8.48746E-03,      -1.23034,0.0471192,0.0558225,-0.00281
21396,-12.0,-20.0,0.0,  -4.40106E-03,  -8.36583E-03,      -1.22144,0.0472722,0.0552585,-0.00305811
21401,-13.0,-20.0,0.0,  -4.75031E-03,  -8.23323E-03,      -1.21168,0.0474381,0.0546443,-0.00330366
21402,-14.0,-20.0,0.0,  -5.09436E-03,  -8.08962E-03,      -1.20101,0.0476168,0.0539798,-0.00354614
21407,-15.0,-20.0,0.0,  -5.43243E-03,  -7.93498E-03,      -1.18943,0.0478081,0.0532649,-0.00378498
21410,-16.0,-20.0,0.0,  -5.76360E-03,  -7.76931E-03,      -1.17690,0.0480117,0.0524998,-0.00401952
21411,-17.0,-20.0,0.0,  -6.08690E-03,  -7.59266E-03,      -1.16339,0.0482274,0.0516846,-0.004249
21416,-18.0,-20.0,0.0,  -6.40120E-03,  -7.40509E-03,      -1.14887,0.0484549,0.0508199,-0.00447259
21417,-19.0,-20.0,0.0,  -6.70527E-03,  -7.20673E-03,      -1.13330,0.0486939,0.049906,-0.00468933
21422,-20.0,-20.0,0.0,  -6.99774E-03,  -6.99774E-03,      -1.11666,0.0489438,0.0489438,-0.00489815
21425,-21.0,-20.0,0.0,  -7.27711E-03,  -6.77837E-03,      -1.09890,0.0492042,0.0479343,-0.00509788
21426,-22.0,-20.0,0.0,  -7.54169E-03,  -6.54890E-03,      -1.07999,0.0494746,0.0468789,-0.00528724
21431,-23.0,-20.0,0.0,  -7.78967E-03,  -6.30971E-03,      -1.05990,0.0497542,0.0457791,-0.00546484
21432,-24.0,-20.0,0.0,  -8.01903E-03,  -6.06124E-03,      -1.03857,0.0500424,0.0446369,-0.00562916
21437,-25.0,-20.0,0.0,  -8.22760E-03,  -5.80404E-03,      -1.01597,0.0503382,0.0434546,-0.00577862
21440,-26.0,-20.0,0.0,  -8.41299E-03,  -5.53874E-03,  -992.060E-03,0.0506407,0.0422351,-0.00591152
21441,-27.0,-20.0,0.0,  -8.57264E-03,  -5.26606E-03,  -966.796E-03,0.0509489,0.0409816,-0.00602612
21446,-28.0,-20.0,0.0,  -8.70375E-03,  -4.98684E-03,  -940.134E-03,0.0512615,0.0396978,-0.00612063
21447,-29.0,-20.0,0.0,  -8.80334E-03,  -4.70202E-03,  -912.033E-03,0.0515774,0.0383879,-0.00619323
21452,-30.0,-20.0,0.0,  -8.86820E-03,  -4.41265E-03,  -882.448E-03,0.0518951,0.0370568,-0.00624215
21455,-31.0,-20.0,0.0,  -8.89491E-03,  -4.11986E-03,  -851.337E-03,0.0522132,0.0357096,-0.00626563
21456,-32.0,-20.0,0.0,  -8.87985E-03,  -3.82493E-03,  -818.658E-03,0.0525301,0.0343523,-0.00626205
21461,-33.0,-20.0,0.0,  -8.81915E-03,  -3.52920E-03,  -784.369E-03,0.0528441,0.0329912,-0.0062299
21462,-34.0,-20.0,0.0,  -8.70876E-03,  -3.23413E-03,  -748.430E-03,0.0531536,0.0316331,-0.00616787
21467,-35.0,-20.0,0.0,  -8.54442E-03,  -2.94123E-03,  -710.799E-03,0.0534567,0.0302853,-0.00607487
21470,-36.0,-20.0,0.0,  -8.32168E-03,  -2.65211E-03,  -671.440E-03,0.0537515,0.0289555,-0.00595011
21471,-37.0,-20.0,0.0,  -8.03591E-03,  -2.36844E-03,  -630.317E-03,0.0540358,0.0276514,-0.00579314
21476,-38.0,-20.0,0.0,  -7.68233E-03,  -2.09192E-03,  -587.393E-03,0.0543069,0.0263812,-0.00560386
21477,-39.0,-20.0,0.0,  -7.25601E-03,  -1.82427E-03,  -542.638E-03,0.0545606,0.0251522,-0.00538272
21482,-40.0,-20.0,0.0,  -6.75194E-03,  -1.56725E-03,  -496.022E-03,0.0547891,0.0239711,-0.00513073
21485,-41.0,-20.0,0.0,  -6.16513E-03,  -1.32259E-03,  -447.522E-03,0.054976,0.0228415,-0.00484983
21486,-42.0,-20.0,0.0,  -5.49085E-03,  -1.09203E-03,  -397.122E-03,0.0550824,0.0217601,-0.00454323
21491,-43.0,-20.0,0.0,  -4.72518E-03,  -877.284E-06,  -344.824E-03,0.0550135,0.0207063,-0.00421661
21492,-44.0,-20.0,0.0,  -3.86648E-03,  -680.125E-06,  -290.676E-03,0.0545341,0.0196169,-0.00387913
21497,-45.0,-20.0,0.0,  -2.91908E-03,  -502.422E-06,  -234.825E-03,0.0530537,0.0183216,-0.00354655
21500,-46.0,-20.0,0.0,  -1.90269E-03,  -346.354E-06,  -177.676E-03,0.049083,0.0163807,-0.00324032
21501,-47.0,-20.0,0.0,  -875.573E-06,  -214.710E-06,  -120.276E-03,0.0388537,0.0126735,-0.0029816
21506,-48.0,-20.0,0.0,   12.9154E-06,  -111.196E-06,  -65.2884E-03,0.0128126,0.0043496,-0.00273292
21507,-49.0,-20.0,0.0,   436.675E-06,  -39.7649E-06,  -19.4753E-03,-0.0532776,-0.015832,-0.00220127
21512,-50.0,-20.0,0.0,   2.42714E-39,  -762.519E-42,           -0.,-0.100682,-0.0302089,-0.00122054
21515,50.0,-21.0,0.0,  -2.37439E-39,  -747.207E-42,           -0.,-0.0998269,-0.0299524,0.0012683
21516,49.0,-21.0,0.0,  -427.730E-06,  -41.1463E-06,  -19.2227E-03,-0.0533144,-0.0158494,0.00231128
21521,48.0,-21.0,0.0,  -13.7926E-06,  -115.739E-06,  -64.5177E-03,0.0117486,0.00402455,0.00288207
21522,47.0,-21.0,0.0,   860.171E-06,  -224.318E-06,  -118.989E-03,0.037687,0.0123256,0.00314918
21527,46.0,-21.0,0.0,   1.87317E-03,  -362.721E-06,  -175.902E-03,0.0479955,0.0160703,0.00342438
21530,45.0,-21.0,0.0,   2.87612E-03,  -526.970E-06,  -232.573E-03,0.0520439,0.0180529,0.00374948
21531,44.0,-21.0,0.0,   3.81020E-03,  -714.034E-06,  -287.936E-03,0.0535714,0.0193845,0.00410272
21536,43.0,-21.0,0.0,   4.65533E-03,  -921.535E-06,  -341.575E-03,0.0540734,0.020506,0.0044612
21537,42.0,-21.0,0.0,   5.40707E-03,  -1.14742E-03,  -393.337E-03,0.0541497,0.02159,0.00480783
21542,41.0,-21.0,0.0,   6.06715E-03,  -1.38977E-03,  -443.174E-03,0.0540423,0.0227012,0.00513255
21545,40.0,-21.0,0.0,   6.63964E-03,  -1.64671E-03,  -491.084E-03,0.0538499,0.0238609,0.00542914
21546,39.0,-21.0,0.0,   7.12946E-03,  -1.91637E-03,  -537.085E-03,0.0536136,0.0250723,0.0056941
21551,38.0,-21.0,0.0,   7.54183E-03,  -2.19686E-03,  -581.204E-03,0.0533511,0.0263316,0.00592537
21552,37.0,-21.0,0.0,   7.88193E-03,  -2.48631E-03,  -623.472E-03,0.0530708,0.027632,0.00612193
21557,36.0,-21.0,0.0,   8.15486E-03,  -2.78288E-03,  -663.925E-03,0.0527774,0.0289656,0.00628345
21560,35.0,-21.0,0.0,   8.36558E-03,  -3.08475E-03,  -702.602E-03,0.0524739,0.0303239,0.00641015
21561,34.0,-21.0,0.0,   8.51885E-03,  -3.39015E-03,  -739.542E-03,0.0521626,0.0316989,0.00650268
21566,33.0,-21.0,0.0,   8.61922E-03,  -3.69741E-03,  -774.788E-03,0.0518456,0.0330827,0.00656206
21567,32.0,-21.0,0.0,   8.67105E-03,  -4.00492E-03,  -808.381E-03,0.051525,0.0344677,0.0065896
21572,31.0,-21.0,0.0,   8.67846E-03,  -4.31118E-03,  -840.366E-03,0.0512024,0.035847,0.00658687
21575,30.0,-21.0,0.0,   8.64535E-03,  -4.61477E-03,  -870.787E-03,0.0508796,0.0372142,0.00655561
21576,29.0,-21.0,0.0,   8.57536E-03,  -4.91442E-03,  -899.691E-03,0.0505582,0.0385633,0.0064977
21581,28.0,-21.0,0.0,   8.47194E-03,  -5.20895E-03,  -927.121E-03,0.0502397,0.0398892,0.0064151
21582,27.0,-21.0,0.0,   8.33828E-03,  -5.49729E-03,  -953.125E-03,0.0499255,0.0411871,0.00630982
21587,26.0,-21.0,0.0,   8.17734E-03,  -5.77851E-03,  -977.747E-03,0.0496168,0.042453,0.00618386
21590,25.0,-21.0,0.0,   7.99188E-03,  -6.05178E-03,      -1.00103,0.0493147,0.043683,0.00603917
21591,24.0,-21.0,0.0,   7.78443E-03,  -6.31637E-03,      -1.02302,0.0490202,0.0448743,0.00587765
21596,23.0,-21.0,0.0,   7.55732E-03,  -6.57168E-03,      -1.04376,0.0487342,0.046024,0.00570112
21597,22.0,-21.0,0.0,   7.31267E-03,  -6.81717E-03,      -1.06330,0.0484575,0.0471301,0.00551128
21602,21.0,-21.0,0.0,   7.05243E-03,  -7.05243E-03,      -1.08166,0.0481907,0.0481907,0.00530971
21605,20.0,-21.0,0.0,   6.77837E-03,  -7.27711E-03,      -1.09890,0.0479343,0.0492042,0.00509788
21606,19.0,-21.0,0.0,   6.49209E-03,  -7.49093E-03,      -1.11505,0.047689,0.0501696,0.00487713
21611,18.0,-21.0,0.0,   6.19503E-03,  -7.69369E-03,      -1.13015,0.047455,0.051086,0.00464866
21612,17.0,-21.0,0.0,   5.88852E-03,  -7.88526E-03,      -1.14422,0.0472327,0.0519526,0.00441357
21617,16.0,-21.0,0.0,   5.57371E-03,  -8.06553E-03,      -1.15732,0.0470223,0.0527691,0.00417282
21620,15.0,-21.0,0.0,   5.25166E-03,  -8.23446E-03,      -1.16946,0.0468242,0.0535351,0.00392727
21621,14.0,-21.0,0.0,   4.92331E-03,  -8.39204E-03,      -1.18068,0.0466384,0.0542504,0.00367767
21626,13.0,-21.0,0.0,   4.58949E-03,  -8.53828E-03,      -1.19100,0.0464652,0.0549152,0.00342468
21627,12.0,-21.0,0.0,   4.25096E-03,  -8.67323E-03,      -1.20045,0.0463045,0.0555294,0.00316886
21632,11.0,-21.0,0.0,   3.90836E-03,  -8.79694E-03,      -1.20906,0.0461566,0.0560932,0.0029107
21635,10.0,-21.0,0.0,   3.56229E-03,  -8.90950E-03,      -1.21684,0.0460214,0.0566068,0.00265062
21636,9.0,-21.0,0.0,   3.21326E-03,  -9.01099E-03,      -1.22382,0.0458991,0.0570705,0.00238896
21641,8.0,-21.0,0.0,   2.86174E-03,  -9.10149E-03,      -1.23002,0.0457895,0.0574844,0.00212604
21642,7.0,-21.0,0.0,   2.50812E-03,  -9.18110E-03,      -1.23544,0.0456929,0.0578488,0.0018621
21647,6.0,-21.0,0.0,   2.15276E-03,  -9.24989E-03,      -1.24012,0.0456091,0.058164,0.00159735
21650,5.0,-21.0,0.0,   1.79598E-03,  -9.30795E-03,      -1.24405,0.0455382,0.0584303,0.00133197
21651,4.0,-21.0,0.0,   1.43807E-03,  -9.35535E-03,      -1.24726,0.0454802,0.0586479,0.0010661
21656,3.0,-21.0,0.0,   1.07929E-03,  -9.39215E-03,      -1.24974,0.0454351,0.0588168,0.000799866
21657,2.0,-21.0,0.0,   719.872E-06,  -9.41840E-03,      -1.25151,0.0454029,0.0589374,0.000533379
21662,1.0,-21.0,0.0,   360.038E-06,  -9.43414E-03,      -1.25257,0.0453836,0.0590097,0.000266729
21665,0.0,-21.0,0.0,   6.85765E-15,  -9.43938E-03,      -1.25292,0.0453771,0.0590338,-1.81899e-12
21666,-1.0,-21.0,0.0,  -360.038E-06,  -9.43414E-03,      -1.25257,0.0453836,0.0590098,-0.000266729
21671,-2.0,-21.0,0.0,  -719.872E-06,  -9.41840E-03,      -1.25151,0.0454029,0.0589374,-0.000533379
21672,-3.0,-21.0,0.0,  -1.07929E-03,  -9.39215E-03,      -1.24974,0.0454351,0.0588168,-0.000799866
21677,-4.0,-21.0,0.0,  -1.43807E-03,  -9.35535E-03,      -1.24726,0.0454802,0.0586479,-0.0010661
21680,-5.0,-21.0,0.0,  -1.79598E-03,  -9.30795E-03,      -1.24405,0.0455382,0.0584303,-0.00133197
21681,-6.0,-21.0,0.0,  -2.15276E-03,  -9.24989E-03,      -1.24012,0.0456091,0.058164,-0.00159735
21686,-7.0,-21.0,0.0,  -2.50812E-03,  -9.18110E-03,      -1.23544,0.0456929,0.0578488,-0.0018621
21687,-8.0,-21.0,0.0,  -2.86174E-03,  -9.10149E-03,      -1.23002,0.0457895,0.0574844,-0.00212604
21692,-9.0,-21.0,0.0,  -3.21326E-03,  -9.01099E-03,      -1.22382,0.0458991,0.0570705,-0.00238896
21695,-10.0,-21.0,0.0,  -3.56229E-03,  -8.90950E-03,      -1.21684,0.0460214,0.0566068,-0.00265062
21696,-11.0,-21.0,0.0,  -3.90836E-03,  -8.79694E-03,      -1.20906,0.0461566,0.0560932,-0.0029107
21701,-12.0,-21.0,0.0,  -4.25096E-03,  -8.67323E-03,      -1.20045,0.0463045,0.0555294,-0.00316886
21702,-13.0,-21.0,0.0,  -4.58949E-03,  -8.53828E-03,      -1.19100,0.0464652,0.0549152,-0.00342468
21707,-14.0,-21.0,0.0,  -4.92331E-03,  -8.39204E-03,      -1.18068,0.0466384,0.0542504,-0.00367767
21710,-15.0,-21.0,0.0,  -5.25166E-03,  -8.23446E-03,      -1.16946,0.0468242,0.0535351,-0.00392727
21711,-16.0,-21.0,0.0,  -5.57371E-03,  -8.06553E-03,      -1.15732,0.0470223,0.0527691,-0.00417282
21716,-17.0,-21.0,0.0,  -5.88852E-03,  -7.88526E-03,      -1.14422,0.0472327,0.0519526,-0.00441357
21717,-18.0,-21.0,0.0,  -6.19503E-03,  -7.69369E-03,      -1.13015,0.047455,0.051086,-0.00464866
21722,-19.0,-21.0,0.0,  -6.49209E-03,  -7.49093E-03,      -1.11505,0.047689,0.0501696,-0.00487713
21725,-20.0,-21.0,0.0,  -6.77837E-03,  -7.27711E-03,      -1.09890,0.0479343,0.0492042,-0.00509788
21726,-21.0,-21.0,0.0,  -7.05243E-03,  -7.05243E-03,      -1.08166,0.0481907,0.0481907,-0.00530971
21731,-22.0,-21.0,0.0,  -7.31267E-03,  -6.81717E-03,      -1.06330,0.0484575,0.0471301,-0.00551128
21732,-23.0,-21.0,0.0,  -7.55732E-03,  -6.57168E-03,      -1.04376,0.0487342,0.046024,-0.00570112
21737,-24.0,-21.0,0.0,  -7.78443E-03,  -6.31637E-03,      -1.02302,0.0490202,0.0448743,-0.00587765
21740,-25.0,-21.0,0.0,  -7.99188E-03,  -6.05178E-03,      -1.00103,0.0493147,0.043683,-0.00603917
21741,-26.0,-21.0,0.0,  -8.17734E-03,  -5.77851E-03,  -977.747E-03,0.0496168,0.042453,-0.00618386
21746,-27.0,-21.0,0.0,  -8.33828E-03,  -5.49729E-03,  -953.125E-03,0.0499255,0.0411871,-0.00630982
21747,-28.0,-21.0,0.0,  -8.47194E-03,  -5.20895E-03,  -927.121E-03,0.0502397,0.0398892,-0.0064151
21752,-29.0,-21.0,0.0,  -8.57536E-03,  -4.91442E-03,  -899.691E-03,0.0505582,0.0385633,-0.0064977
21755,-30.0,-21.0,0.0,  -8.64535E-03,  -4.61477E-03,  -870.787E-03,0.0508796,0.0372142,-0.0065556
21756,-31.0,-21.0,0.0,  -8.67846E-03,  -4.31118E-03,  -840.366E-03,0.0512024,0.035847,-0.00658687
21761,-32.0,-21.0,0.0,  -8.67105E-03,  -4.00492E-03,  -808.381E-03,0.051525,0.0344677,-0.0065896
21762,-33.0,-21.0,0.0,  -8.61922E-03,  -3.69741E-03,  -774.788E-03,0.0518456,0.0330827,-0.00656206
21767,-34.0,-21.0,0.0,  -8.51885E-03,  -3.39015E-03,  -739.542E-03,0.0521626,0.0316989,-0.00650268
21770,-35.0,-21.0,0.0,  -8.36558E-03,  -3.08475E-03,  -702.602E-03,0.0524739,0.0303239,-0.00641015
21771,-36.0,-21.0,0.0,  -8.15486E-03,  -2.78288E-03,  -663.925E-03,0.0527774,0.0289656,-0.00628345
21776,-37.0,-21.0,0.0,  -7.88193E-03,  -2.48631E-03,  -623.472E-03,0.0530708,0.027632,-0.00612193
21777,-38.0,-21.0,0.0,  -7.54183E-03,  -2.19686E-03,  -581.204E-03,0.0533511,0.0263316,-0.00592537
21782,-39.0,-21.0,0.0,  -7.12946E-03,  -1.91637E-03,  -537.085E-03,0.0536136,0.0250723,-0.0056941
21785,-40.0,-21.0,0.0,  -6.63964E-03,  -1.64671E-03,  -491.084E-03,0.0538499,0.0238609,-0.00542914
21786,-41.0,-21.0,0.0,  -6.06715E-03,  -1.38977E-03,  -443.174E-03,0.0540423,0.0227012,-0.00513255
21791,-42.0,-21.0,0.0,  -5.40707E-03,  -1.14742E-03,  -393.337E-03,0.0541497,0.02159,-0.00480783
21792,-43.0,-21.0,0.0,  -4.65533E-03,  -921.535E-06,  -341.575E-03,0.0540734,0.020506,-0.0044612
21797,-44.0,-21.0,0.0,  -3.81020E-03,  -714.034E-06,  -287.936E-03,0.0535714,0.0193845,-0.00410272
21800,-45.0,-21.0,0.0,  -2.87612E-03,  -526.970E-06,  -232.573E-03,0.0520439,0.0180529,-0.00374948
21801,-46.0,-21.0,0.0,  -1.87317E-03,  -362.721E-06,  -175.902E-03,0.0479955,0.0160703,-0.00342438
21806,-47.0,-21.0,0.0,  -860.171E-06,  -224.318E-06,  -118.989E-03,0.037687,0.0123256,-0.00314918
21807,-48.0,-21.0,0.0,   13.7926E-06,  -115.739E-06,  -64.5177E-03,0.0117486,0.00402455,-0.00288207
21812,-49.0,-21.0,0.0,   427.730E-06,  -41.1463E-06,  -19.2227E-03,-0.0533144,-0.0158494,-0.00231128
21815,-50.0,-21.0,0.0,   2.37439E-39,  -747.207E-42,           -0.,-0.0998269,-0.0299524,-0.0012683
21816,50.0,-22.0,0.0,  -2.31849E-39,  -730.790E-42,           -0.,-0.0989114,-0.0296779,0.00131318
21821,49.0,-22.0,0.0,  -418.252E-06,  -42.4040E-06,  -18.9545E-03,-0.0533397,-0.0158644,0.0024205
21822,48.0,-22.0,0.0,  -14.6277E-06,  -120.064E-06,  -63.6974E-03,0.0106351,0.00368318,0.00303275
21827,47.0,-22.0,0.0,   843.876E-06,  -233.660E-06,  -117.616E-03,0.0364587,0.011958,0.00331959
21830,46.0,-22.0,0.0,   1.84175E-03,  -378.825E-06,  -174.007E-03,0.0468493,0.0157423,0.00361208
21831,45.0,-22.0,0.0,   2.83029E-03,  -551.290E-06,  -230.165E-03,0.0509805,0.0177699,0.0039568
21836,44.0,-22.0,0.0,   3.75007E-03,  -747.764E-06,  -285.005E-03,0.0525591,0.019141,0.00433146
21837,43.0,-22.0,0.0,   4.58065E-03,  -965.646E-06,  -338.098E-03,0.0530857,0.0202976,0.00471165
21842,42.0,-22.0,0.0,   5.31748E-03,  -1.20269E-03,  -389.284E-03,0.05317,0.0214147,0.00507885
21845,41.0,-22.0,0.0,   5.96237E-03,  -1.45681E-03,  -438.516E-03,0.0530615,0.0225584,0.00542204
21846,40.0,-22.0,0.0,   6.51957E-03,  -1.72596E-03,  -485.791E-03,0.0528629,0.0237506,0.00573439
21851,39.0,-22.0,0.0,   6.99423E-03,  -2.00811E-03,  -531.132E-03,0.0526179,0.0249947,0.00601209
21852,38.0,-22.0,0.0,   7.39176E-03,  -2.30123E-03,  -574.566E-03,0.0523455,0.0262867,0.00625298
21857,37.0,-22.0,0.0,   7.71758E-03,  -2.60333E-03,  -616.131E-03,0.0520551,0.0276193,0.00645607
21860,36.0,-22.0,0.0,   7.97698E-03,  -2.91242E-03,  -655.866E-03,0.0517517,0.0289842,0.00662115
21861,35.0,-22.0,0.0,   8.17508E-03,  -3.22658E-03,  -693.812E-03,0.0514386,0.0303726,0.00674864
21866,34.0,-22.0,0.0,   8.31677E-03,  -3.54396E-03,  -730.014E-03,0.0511185,0.0317761,0.00683942
21867,33.0,-22.0,0.0,   8.40674E-03,  -3.86279E-03,  -764.517E-03,0.0507937,0.0331865,0.00689479
21872,32.0,-22.0,0.0,   8.44941E-03,  -4.18138E-03,  -797.368E-03,0.0504661,0.0345962,0.00691634
21875,31.0,-22.0,0.0,   8.44899E-03,  -4.49820E-03,  -828.613E-03,0.0501378,0.0359979,0.00690592
21876,30.0,-22.0,0.0,   8.40939E-03,  -4.81178E-03,  -858.302E-03,0.0498105,0.0373854,0.00686556
21881,29.0,-22.0,0.0,   8.33430E-03,  -5.12083E-03,  -886.482E-03,0.0494857,0.0387526,0.00679741
21882,28.0,-22.0,0.0,   8.22715E-03,  -5.42414E-03,  -913.203E-03,0.0491651,0.0400944,0.00670368
21887,27.0,-22.0,0.0,   8.09111E-03,  -5.72066E-03,  -938.510E-03,0.0488499,0.0414062,0.00658661
21890,26.0,-22.0,0.0,   7.92914E-03,  -6.00944E-03,  -962.454E-03,0.0485413,0.0426839,0.00644838
21891,25.0,-22.0,0.0,   7.74392E-03,  -6.28967E-03,  -985.079E-03,0.0482404,0.0439241,0.00629115
21896,24.0,-22.0,0.0,   7.53795E-03,  -6.56066E-03,      -1.00643,0.0479481,0.0451238,0.00611695
21897,23.0,-22.0,0.0,   7.31348E-03,  -6.82180E-03,      -1.02656,0.0476652,0.0462806,0.00592773
21902,22.0,-22.0,0.0,   7.07260E-03,  -7.07260E-03,      -1.04550,0.0473924,0.0473924,0.00572528
21905,21.0,-22.0,0.0,   6.81717E-03,  -7.31267E-03,      -1.06330,0.0471301,0.0484575,0.00551128
21906,20.0,-22.0,0.0,   6.54890E-03,  -7.54169E-03,      -1.07999,0.0468789,0.0494746,0.00528724
21911,19.0,-22.0,0.0,   6.26931E-03,  -7.75943E-03,      -1.09563,0.0466391,0.0504427,0.00505455
21912,18.0,-22.0,0.0,   5.97980E-03,  -7.96570E-03,      -1.11023,0.046411,0.051361,0.00481445
21917,17.0,-22.0,0.0,   5.68159E-03,  -8.16040E-03,      -1.12385,0.0461949,0.052229,0.00456805
21920,16.0,-22.0,0.0,   5.37579E-03,  -8.34347E-03,      -1.13651,0.0459908,0.0530463,0.0043163
21921,15.0,-22.0,0.0,   5.06340E-03,  -8.51489E-03,      -1.14824,0.0457991,0.0538127,0.00406008
21926,14.0,-22.0,0.0,   4.74528E-03,  -8.67467E-03,      -1.15908,0.0456196,0.0545282,0.00380013
21927,13.0,-22.0,0.0,   4.42223E-03,  -8.82285E-03,      -1.16905,0.0454526,0.0551929,0.00353708
21932,12.0,-22.0,0.0,   4.09494E-03,  -8.95951E-03,      -1.17817,0.045298,0.0558068,0.0032715
21935,11.0,-22.0,0.0,   3.76400E-03,  -9.08472E-03,      -1.18648,0.0451558,0.0563702,0.00300384
21936,10.0,-22.0,0.0,   3.42996E-03,  -9.19858E-03,      -1.19399,0.0450261,0.0568832,0.0027345
21941,9.0,-22.0,0.0,   3.09330E-03,  -9.30120E-03,      -1.20073,0.0449089,0.0573463,0.00246382
21942,8.0,-22.0,0.0,   2.75442E-03,  -9.39267E-03,      -1.20671,0.044804,0.0577596,0.00219208
21947,7.0,-22.0,0.0,   2.41370E-03,  -9.47309E-03,      -1.21194,0.0447116,0.0581235,0.00191949
21950,6.0,-22.0,0.0,   2.07145E-03,  -9.54257E-03,      -1.21645,0.0446316,0.0584382,0.00164625
21951,5.0,-22.0,0.0,   1.72796E-03,  -9.60120E-03,      -1.22025,0.0445639,0.0587041,0.00137252
21956,4.0,-22.0,0.0,   1.38349E-03,  -9.64905E-03,      -1.22334,0.0445086,0.0589212,0.0010984
21957,3.0,-22.0,0.0,   1.03825E-03,  -9.68619E-03,      -1.22573,0.0444655,0.0590899,0.00082402
21962,2.0,-22.0,0.0,   692.467E-06,  -9.71268E-03,      -1.22744,0.0444348,0.0592102,0.000549445
21965,1.0,-22.0,0.0,   346.322E-06,  -9.72856E-03,      -1.22846,0.0444164,0.0592824,0.000274752
21966,0.0,-22.0,0.0,   5.81556E-15,  -9.73385E-03,      -1.22880,0.0444103,0.0593065,-1.81899e-12
21971,-1.0,-22.0,0.0,  -346.322E-06,  -9.72856E-03,      -1.22846,0.0444164,0.0592824,-0.000274752
21972,-2.0,-22.0,0.0,  -692.467E-06,  -9.71268E-03,      -1.22744,0.0444348,0.0592102,-0.000549446
21977,-3.0,-22.0,0.0,  -1.03825E-03,  -9.68619E-03,      -1.22573,0.0444655,0.0590899,-0.00082402
21980,-4.0,-22.0,0.0,  -1.38349E-03,  -9.64905E-03,      -1.22334,0.0445086,0.0589212,-0.0010984
21981,-5.0,-22.0,0.0,  -1.72796E-03,  -9.60120E-03,      -1.22025,0.0445639,0.0587041,-0.00137252
21986,-6.0,-22.0,0.0,  -2.07145E-03,  -9.54257E-03,      -1.21645,0.0446316,0.0584382,-0.00164625
21987,-7.0,-22.0,0.0,  -2.41370E-03,  -9.47309E-03,      -1.21194,0.0447116,0.0581235,-0.00191949
21992,-8.0,-22.0,0.0,  -2.75442E-03,  -9.39267E-03,      -1.20671,0.044804,0.0577596,-0.00219208
21993,-9.0,-22.0,0.0,  -3.09330E-03,  -9.30120E-03,      -1.20073,0.0449089,0.0573463,-0.00246382
21998,-10.0,-22.0,0.0,  -3.42996E-03,  -9.19858E-03,      -1.19399,0.0450261,0.0568832,-0.0027345
21999,-11.0,-22.0,0.0,  -3.76400E-03,  -9.08472E-03,      -1.18648,0.0451558,0.0563702,-0.00300384
22004,-12.0,-22.0,0.0,  -4.09494E-03,  -8.95951E-03,      -1.17817,0.045298,0.0558068,-0.0032715
22007,-13.0,-22.0,0.0,  -4.42223E-03,  -8.82285E-03,      -1.16905,0.0454526,0.0551929,-0.00353708
22008,-14.0,-22.0,0.0,  -4.74528E-03,  -8.67467E-03,      -1.15908,0.0456196,0.0545282,-0.00380013
22013,-15.0,-22.0,0.0,  -5.06340E-03,  -8.51489E-03,      -1.14824,0.0457991,0.0538127,-0.00406008
22014,-16.0,-22.0,0.0,  -5.37579E-03,  -8.34347E-03,      -1.13651,0.0459909,0.0530463,-0.0043163
22019,-17.0,-22.0,0.0,  -5.68159E-03,  -8.16040E-03,      -1.12385,0.0461949,0.052229,-0.00456805
22022,-18.0,-22.0,0.0,  -5.97980E-03,  -7.96570E-03,      -1.11023,0.046411,0.051361,-0.00481446
22023,-19.0,-22.0,0.0,  -6.26931E-03,  -7.75943E-03,      -1.09563,0.0466391,0.0504427,-0.00505455
22028,-20.0,-22.0,0.0,  -6.54890E-03,  -7.54169E-03,      -1.07999,0.0468789,0.0494746,-0.00528724
22029,-21.0,-22.0,0.0,  -6.81717E-03,  -7.31267E-03,      -1.06330,0.0471301,0.0484575,-0.00551128
22034,-22.0,-22.0,0.0,  -7.07260E-03,  -7.07260E-03,      -1.04550,0.0473924,0.0473924,-0.00572528
22037,-23.0,-22.0,0.0,  -7.31348E-03,  -6.82180E-03,      -1.02656,0.0476652,0.0462806,-0.00592773
22038,-24.0,-22.0,0.0,  -7.53795E-03,  -6.56066E-03,      -1.00643,0.0479481,0.0451238,-0.00611695
22043,-25.0,-22.0,0.0,  -7.74392E-03,  -6.28967E-03,  -985.079E-03,0.0482404,0.0439241,-0.00629115
22044,-26.0,-22.0,0.0,  -7.92914E-03,  -6.00944E-03,  -962.454E-03,0.0485413,0.0426839,-0.00644838
22049,-27.0,-22.0,0.0,  -8.09111E-03,  -5.72066E-03,  -938.510E-03,0.0488499,0.0414062,-0.00658661
22052,-28.0,-22.0,0.0,  -8.22715E-03,  -5.42414E-03,  -913.203E-03,0.0491651,0.0400944,-0.00670368
22053,-29.0,-22.0,0.0,  -8.33430E-03,  -5.12083E-03,  -886.482E-03,0.0494857,0.0387526,-0.00679741
22058,-30.0,-22.0,0.0,  -8.40939E-03,  -4.81178E-03,  -858.302E-03,0.0498105,0.0373854,-0.00686556
22059,-31.0,-22.0,0.0,  -8.44899E-03,  -4.49820E-03,  -828.613E-03,0.0501378,0.0359979,-0.00690592
22064,-32.0,-22.0,0.0,  -8.44941E-03,  -4.18138E-03,  -797.368E-03,0.0504661,0.0345962,-0.00691634
22067,-33.0,-22.0,0.0,  -8.40674E-03,  -3.86279E-03,  -764.517E-03,0.0507937,0.0331865,-0.00689479
22068,-34.0,-22.0,0.0,  -8.31677E-03,  -3.54396E-03,  -730.014E-03,0.0511185,0.0317761,-0.00683942
22073,-35.0,-22.0,0.0,  -8.17508E-03,  -3.22658E-03,  -693.812E-03,0.0514386,0.0303726,-0.00674864
22074,-36.0,-22.0,0.0,  -7.97698E-03,  -2.91242E-03,  -655.866E-03,0.0517517,0.0289842,-0.00662115
22079,-37.0,-22.0,0.0,  -7.71758E-03,  -2.60333E-03,  -616.131E-03,0.0520551,0.0276193,-0.00645607
22082,-38.0,-22.0,0.0,  -7.39176E-03,  -2.30123E-03,  -574.566E-03,0.0523455,0.0262867,-0.00625298
22083,-39.0,-22.0,0.0,  -6.99423E-03,  -2.00811E-03,  -531.132E-03,0.0526179,0.0249947,-0.00601209
22088,-40.0,-22.0,0.0,  -6.51957E-03,  -1.72596E-03,  -485.791E-03,0.0528629,0.0237506,-0.00573439
22089,-41.0,-22.0,0.0,  -5.96237E-03,  -1.45681E-03,  -438.516E-03,0.0530615,0.0225584,-0.00542204
22094,-42.0,-22.0,0.0,  -5.31748E-03,  -1.20269E-03,  -389.284E-03,0.05317,0.0214147,-0.00507885
22097,-43.0,-22.0,0.0,  -4.58065E-03,  -965.646E-06,  -338.098E-03,0.0530857,0.0202976,-0.00471165
22098,-44.0,-22.0,0.0,  -3.75007E-03,  -747.764E-06,  -285.005E-03,0.0525591,0.019141,-0.00433146
22103,-45.0,-22.0,0.0,  -2.83029E-03,  -551.290E-06,  -230.165E-03,0.0509805,0.0177699,-0.0039568
22104,-46.0,-22.0,0.0,  -1.84175E-03,  -378.825E-06,  -174.007E-03,0.0468493,0.0157423,-0.00361208
22109,-47.0,-22.0,0.0,  -843.876E-06,  -233.660E-06,  -117.616E-03,0.0364587,0.011958,-0.00331959
22112,-48.0,-22.0,0.0,   14.6277E-06,  -120.064E-06,  -63.6974E-03,0.0106351,0.00368318,-0.00303275
22113,-49.0,-22.0,0.0,   418.252E-06,  -42.4040E-06,  -18.9545E-03,-0.0533397,-0.0158644,-0.0024205
22118,-50.0,-22.0,0.0,   2.31849E-39,  -730.790E-42,           -0.,-0.0989114,-0.0296779,-0.00131318
22119,50.0,-23.0,0.0,  -2.25935E-39,  -713.222E-42,           -0.,-0.0979329,-0.0293844,0.00135474
22124,49.0,-23.0,0.0,  -408.223E-06,  -43.5204E-06,  -18.6701E-03,-0.0533514,-0.0158766,0.00252867
22127,48.0,-23.0,0.0,  -15.3952E-06,  -124.137E-06,  -62.8258E-03,0.00947277,0.00332547,0.00318494
22128,47.0,-23.0,0.0,   826.688E-06,  -242.693E-06,  -116.154E-03,0.0351684,0.0115706,0.00349301
22133,46.0,-23.0,0.0,   1.80840E-03,  -394.613E-06,  -171.985E-03,0.0456437,0.0153964,0.00380374
22134,45.0,-23.0,0.0,   2.78148E-03,  -575.324E-06,  -227.594E-03,0.0498633,0.0174723,0.00416892
22139,44.0,-23.0,0.0,   3.68594E-03,  -781.252E-06,  -281.872E-03,0.051497,0.0188866,0.00456585
22142,43.0,-23.0,0.0,   4.50094E-03,  -1.00955E-03,  -334.379E-03,0.0520505,0.0200818,0.00496852
22143,42.0,-23.0,0.0,   5.22182E-03,  -1.25777E-03,  -384.947E-03,0.0521437,0.021235,0.00535688
22148,41.0,-23.0,0.0,   5.85049E-03,  -1.52361E-03,  -433.529E-03,0.0520337,0.0224141,0.00571884
22149,40.0,-23.0,0.0,   6.39140E-03,  -1.80486E-03,  -480.124E-03,0.0518281,0.0236417,0.00604694
22154,39.0,-23.0,0.0,   6.84994E-03,  -2.09932E-03,  -524.755E-03,0.0515733,0.0249212,0.00633703
22157,38.0,-23.0,0.0,   7.23176E-03,  -2.40482E-03,  -567.456E-03,0.05129,0.0262482,0.00658686
22158,37.0,-23.0,0.0,   7.54250E-03,  -2.71921E-03,  -608.266E-03,0.0509883,0.0276151,0.00679552
22163,36.0,-23.0,0.0,   7.78767E-03,  -3.04038E-03,  -647.231E-03,0.0506739,0.0290131,0.00696296
22164,35.0,-23.0,0.0,   7.97256E-03,  -3.36630E-03,  -684.396E-03,0.0503505,0.0304331,0.00708986
22169,34.0,-23.0,0.0,   8.10221E-03,  -3.69502E-03,  -719.809E-03,0.050021,0.0318663,0.0071774
22172,33.0,-23.0,0.0,   8.18142E-03,  -4.02469E-03,  -753.520E-03,0.0496879,0.0333042,0.0072272
22173,32.0,-23.0,0.0,   8.21471E-03,  -4.35358E-03,  -785.580E-03,0.0493533,0.034739,0.00724119
22178,31.0,-23.0,0.0,   8.20632E-03,  -4.68008E-03,  -816.040E-03,0.0490193,0.0361636,0.00722155
22179,30.0,-23.0,0.0,   8.16022E-03,  -5.00273E-03,  -844.952E-03,0.0486876,0.0375713,0.00717064
22184,29.0,-23.0,0.0,   8.08010E-03,  -5.32018E-03,  -872.366E-03,0.0483599,0.0389564,0.0070909
22187,28.0,-23.0,0.0,   7.96939E-03,  -5.63125E-03,  -898.336E-03,0.0480378,0.0403138,0.00698482
22188,27.0,-23.0,0.0,   7.83122E-03,  -5.93488E-03,  -922.910E-03,0.0477224,0.041639,0.00685487
22193,26.0,-23.0,0.0,   7.66850E-03,  -6.23015E-03,  -946.139E-03,0.0474148,0.0429281,0.00670347
22194,25.0,-23.0,0.0,   7.48389E-03,  -6.51627E-03,  -968.071E-03,0.0471162,0.0441778,0.00653293
22199,24.0,-23.0,0.0,   7.27980E-03,  -6.79255E-03,  -988.755E-03,0.0468272,0.0453853,0.00634545
22202,23.0,-23.0,0.0,   7.05844E-03,  -7.05844E-03,      -1.00824,0.0465484,0.0465484,0.00614309
22203,22.0,-23.0,0.0,   6.82180E-03,  -7.31348E-03,      -1.02656,0.0462806,0.0476652,0.00592773
22208,21.0,-23.0,0.0,   6.57168E-03,  -7.55732E-03,      -1.04376,0.046024,0.0487342,0.00570112
22209,20.0,-23.0,0.0,   6.30971E-03,  -7.78967E-03,      -1.05990,0.0457791,0.0497542,0.00546484
22214,19.0,-23.0,0.0,   6.03734E-03,  -8.01033E-03,      -1.07499,0.045546,0.0507244,0.00522029
22217,18.0,-23.0,0.0,   5.75589E-03,  -8.21917E-03,      -1.08909,0.0453249,0.051644,0.00496873
22218,17.0,-23.0,0.0,   5.46652E-03,  -8.41611E-03,      -1.10223,0.045116,0.0525128,0.00471127
22223,16.0,-23.0,0.0,   5.17026E-03,  -8.60111E-03,      -1.11444,0.0449193,0.0533305,0.00444888
22224,15.0,-23.0,0.0,   4.86805E-03,  -8.77420E-03,      -1.12575,0.0447349,0.0540969,0.00418241
22229,14.0,-23.0,0.0,   4.56070E-03,  -8.93542E-03,      -1.13619,0.0445627,0.0548121,0.00391258
22232,13.0,-23.0,0.0,   4.24893E-03,  -9.08483E-03,      -1.14579,0.0444027,0.0554763,0.00364002
22233,12.0,-23.0,0.0,   3.93337E-03,  -9.22253E-03,      -1.15458,0.0442549,0.0560895,0.00336525
22238,11.0,-23.0,0.0,   3.61459E-03,  -9.34863E-03,      -1.16258,0.0441193,0.0566522,0.00308871
22239,10.0,-23.0,0.0,   3.29308E-03,  -9.46324E-03,      -1.16982,0.0439957,0.0571645,0.00281079
22244,9.0,-23.0,0.0,   2.96926E-03,  -9.56648E-03,      -1.17630,0.0438841,0.0576268,0.00253177
22247,8.0,-23.0,0.0,   2.64351E-03,  -9.65846E-03,      -1.18205,0.0437845,0.0580393,0.00225191
22248,7.0,-23.0,0.0,   2.31615E-03,  -9.73931E-03,      -1.18709,0.0436968,0.0584025,0.00197142
22253,6.0,-23.0,0.0,   1.98747E-03,  -9.80914E-03,      -1.19143,0.0436209,0.0587166,0.00169044
22254,5.0,-23.0,0.0,   1.65773E-03,  -9.86804E-03,      -1.19508,0.0435568,0.0589818,0.00140912
22259,4.0,-23.0,0.0,   1.32713E-03,  -9.91610E-03,      -1.19805,0.0435044,0.0591985,0.00112754
22262,3.0,-23.0,0.0,   995.894E-06,  -9.95341E-03,      -1.20036,0.0434636,0.0593667,0.000845789
22263,2.0,-23.0,0.0,   664.183E-06,  -9.98001E-03,      -1.20200,0.0434346,0.0594868,0.000563918
22268,1.0,-23.0,0.0,   332.167E-06,  -9.99595E-03,      -1.20298,0.0434172,0.0595588,0.000281976
22269,0.0,-23.0,0.0,   5.63220E-15,  -10.0013E-03,      -1.20331,0.0434114,0.0595828,-1.81899e-12
22274,-1.0,-23.0,0.0,  -332.167E-06,  -9.99595E-03,      -1.20298,0.0434172,0.0595588,-0.000281976
22277,-2.0,-23.0,0.0,  -664.183E-06,  -9.98001E-03,      -1.20200,0.0434346,0.0594868,-0.000563918
22278,-3.0,-23.0,0.0,  -995.894E-06,  -9.95341E-03,      -1.20036,0.0434636,0.0593667,-0.000845789
22283,-4.0,-23.0,0.0,  -1.32713E-03,  -9.91610E-03,      -1.19805,0.0435044,0.0591985,-0.00112754
22284,-5.0,-23.0,0.0,  -1.65773E-03,  -9.86804E-03,      -1.19508,0.0435568,0.0589818,-0.00140912
22289,-6.0,-23.0,0.0,  -1.98747E-03,  -9.80914E-03,      -1.19143,0.0436209,0.0587166,-0.00169044
22292,-7.0,-23.0,0.0,  -2.31615E-03,  -9.73931E-03,      -1.18709,0.0436968,0.0584025,-0.00197142
22293,-8.0,-23.0,0.0,  -2.64351E-03,  -9.65846E-03,      -1.18205,0.0437845,0.0580393,-0.00225191
22298,-9.0,-23.0,0.0,  -2.96926E-03,  -9.56648E-03,      -1.17630,0.0438841,0.0576268,-0.00253177
22299,-10.0,-23.0,0.0,  -3.29308E-03,  -9.46324E-03,      -1.16982,0.0439957,0.0571645,-0.00281079
22304,-11.0,-23.0,0.0,  -3.61459E-03,  -9.34863E-03,      -1.16258,0.0441193,0.0566522,-0.00308871
22307,-12.0,-23.0,0.0,  -3.93337E-03,  -9.22253E-03,      -1.15458,0.0442549,0.0560895,-0.00336525
22308,-13.0,-23.0,0.0,  -4.24893E-03,  -9.08483E-03,      -1.14579,0.0444027,0.0554763,-0.00364002
22313,-14.0,-23.0,0.0,  -4.56070E-03,  -8.93542E-03,      -1.13619,0.0445627,0.0548121,-0.00391258
22314,-15.0,-23.0,0.0,  -4.86805E-03,  -8.77420E-03,      -1.12575,0.0447349,0.0540969,-0.00418241
22319,-16.0,-23.0,0.0,  -5.17026E-03,  -8.60111E-03,      -1.11444,0.0449193,0.0533305,-0.00444888
22322,-17.0,-23.0,0.0,  -5.46652E-03,  -8.41611E-03,      -1.10223,0.045116,0.0525128,-0.00471127
22323,-18.0,-23.0,0.0,  -5.75589E-03,  -8.21917E-03,      -1.08909,0.0453249,0.051644,-0.00496873
22328,-19.0,-23.0,0.0,  -6.03734E-03,  -8.01033E-03,      -1.07499,0.045546,0.0507244,-0.00522029
22329,-20.0,-23.0,0.0,  -6.30971E-03,  -7.78967E-03,      -1.05990,0.0457791,0.0497542,-0.00546484
22334,-21.0,-23.0,0.0,  -6.57168E-03,  -7.55732E-03,      -1.04376,0.046024,0.0487342,-0.00570112
22337,-22.0,-23.0,0.0,  -6.82180E-03,  -7.31348E-03,      -1.02656,0.0462806,0.0476652,-0.00592773
22338,-23.0,-23.0,0.0,  -7.05844E-03,  -7.05844E-03,      -1.00824,0.0465484,0.0465484,-0.00614309
22343,-24.0,-23.0,0.0,  -7.27980E-03,  -6.79255E-03,  -988.755E-03,0.0468272,0.0453853,-0.00634545
22344,-25.0,-23.0,0.0,  -7.48389E-03,  -6.51627E-03,  -968.071E-03,0.0471162,0.0441778,-0.00653293
22349,-26.0,-23.0,0.0,  -7.66850E-03,  -6.23015E-03,  -946.139E-03,0.0474148,0.0429281,-0.00670347
22352,-27.0,-23.0,0.0,  -7.83122E-03,  -5.93488E-03,  -922.910E-03,0.0477224,0.041639,-0.00685487
22353,-28.0,-23.0,0.0,  -7.96939E-03,  -5.63125E-03,  -898.336E-03,0.0480378,0.0403138,-0.00698482
22358,-29.0,-23.0,0.0,  -8.08010E-03,  -5.32018E-03,  -872.366E-03,0.0483599,0.0389564,-0.0070909
22359,-30.0,-23.0,0.0,  -8.16022E-03,  -5.00273E-03,  -844.952E-03,0.0486876,0.0375713,-0.00717064
22364,-31.0,-23.0,0.0,  -8.20632E-03,  -4.68008E-03,  -816.040E-03,0.0490193,0.0361636,-0.00722155
22367,-32.0,-23.0,0.0,  -8.21471E-03,  -4.35358E-03,  -785.580E-03,0.0493533,0.034739,-0.00724119
22368,-33.0,-23.0,0.0,  -8.18142E-03,  -4.02469E-03,  -753.520E-03,0.0496879,0.0333042,-0.0072272
22373,-34.0,-23.0,0.0,  -8.10221E-03,  -3.69502E-03,  -719.809E-03,0.050021,0.0318663,-0.0071774
22374,-35.0,-23.0,0.0,  -7.97256E-03,  -3.36630E-03,  -684.396E-03,0.0503505,0.0304331,-0.00708986
22379,-36.0,-23.0,0.0,  -7.78767E-03,  -3.04038E-03,  -647.231E-03,0.0506739,0.0290131,-0.00696296
22382,-37.0,-23.0,0.0,  -7.54250E-03,  -2.71921E-03,  -608.266E-03,0.0509883,0.0276151,-0.00679552
22383,-38.0,-23.0,0.0,  -7.23176E-03,  -2.40482E-03,  -567.456E-03,0.05129,0.0262482,-0.00658686
22388,-39.0,-23.0,0.0,  -6.84994E-03,  -2.09932E-03,  -524.755E-03,0.0515733,0.0249212,-0.00633703
22389,-40.0,-23.0,0.0,  -6.39140E-03,  -1.80486E-03,  -480.124E-03,0.0518281,0.0236417,-0.00604694
22394,-41.0,-23.0,0.0,  -5.85049E-03,  -1.52361E-03,  -433.529E-03,0.0520337,0.0224142,-0.00571884
22397,-42.0,-23.0,0.0,  -5.22182E-03,  -1.25777E-03,  -384.947E-03,0.0521437,0.021235,-0.00535688
22398,-43.0,-23.0,0.0,  -4.50094E-03,  -1.00955E-03,  -334.379E-03,0.0520505,0.0200818,-0.00496852
22403,-44.0,-23.0,0.0,  -3.68594E-03,  -781.252E-06,  -281.872E-03,0.051497,0.0188866,-0.00456585
22404,-45.0,-23.0,0.0,  -2.78148E-03,  -575.324E-06,  -227.594E-03,0.0498633,0.0174723,-0.00416892
22409,-46.0,-23.0,0.0,  -1.80840E-03,  -394.613E-06,  -171.985E-03,0.0456437,0.0153964,-0.00380374
22412,-47.0,-23.0,0.0,  -826.688E-06,  -242.693E-06,  -116.154E-03,0.0351684,0.0115706,-0.00349301
22413,-48.0,-23.0,0.0,   15.3952E-06,  -124.137E-06,  -62.8258E-03,0.00947277,0.00332547,-0.00318494
22418,-49.0,-23.0,0.0,   408.223E-06,  -43.5204E-06,  -18.6701E-03,-0.0533514,-0.0158766,-0.00252867
22419,-50.0,-23.0,0.0,   2.25935E-39,  -713.222E-42,           -0.,-0.0979329,-0.0293844,-0.00135474
22424,50.0,-24.0,0.0,  -2.19688E-39,  -694.448E-42,           -0.,-0.0968885,-0.0290713,0.00139246
22427,49.0,-24.0,0.0,  -397.624E-06,  -44.4753E-06,  -18.3690E-03,-0.0533469,-0.0158852,0.00263543
22428,48.0,-24.0,0.0,  -16.0646E-06,  -127.922E-06,  -61.9006E-03,0.00826281,0.00295143,0.00333858
22433,47.0,-24.0,0.0,   808.609E-06,  -251.365E-06,  -114.598E-03,0.0338158,0.0111629,0.00366961
22434,46.0,-24.0,0.0,   1.77305E-03,  -410.025E-06,  -169.830E-03,0.0443784,0.0150323,0.0039997
22439,45.0,-24.0,0.0,   2.72959E-03,  -599.007E-06,  -224.850E-03,0.0486919,0.0171603,0.00438631
22442,44.0,-24.0,0.0,   3.61765E-03,  -814.427E-06,  -278.527E-03,0.0503851,0.0186217,0.00480643
22443,43.0,-24.0,0.0,   4.41598E-03,  -1.05317E-03,  -330.405E-03,0.050968,0.0198593,0.0052324
22448,42.0,-24.0,0.0,   5.11983E-03,  -1.31254E-03,  -380.311E-03,0.0510708,0.0210522,0.00564252
22449,41.0,-24.0,0.0,   5.73121E-03,  -1.59004E-03,  -428.195E-03,0.0509591,0.0222701,0.00602352
22454,40.0,-24.0,0.0,   6.25479E-03,  -1.88325E-03,  -474.059E-03,0.0507456,0.0235361,0.00636724
22457,39.0,-24.0,0.0,   6.69622E-03,  -2.18980E-03,  -517.929E-03,0.0504799,0.0248537,0.00666921
22458,38.0,-24.0,0.0,   7.06143E-03,  -2.50735E-03,  -559.843E-03,0.0501843,0.0262182,0.0069271
22463,37.0,-24.0,0.0,   7.35631E-03,  -2.83360E-03,  -599.846E-03,0.0498701,0.0276216,0.00714012
22464,36.0,-24.0,0.0,   7.58657E-03,  -3.16632E-03,  -637.987E-03,0.0495437,0.0290545,0.00730847
22469,35.0,-24.0,0.0,   7.75769E-03,  -3.50336E-03,  -674.316E-03,0.0492091,0.0305075,0.00743315
22470,34.0,-24.0,0.0,   7.87487E-03,  -3.84269E-03,  -708.888E-03,0.0488696,0.0319713,0.0075157
22475,33.0,-24.0,0.0,   7.94302E-03,  -4.18238E-03,  -741.756E-03,0.0485279,0.0334374,0.00755814
22476,32.0,-24.0,0.0,   7.96674E-03,  -4.52064E-03,  -772.976E-03,0.0481862,0.0348978,0.0075628
22481,31.0,-24.0,0.0,   7.95034E-03,  -4.85585E-03,  -802.603E-03,0.0478467,0.0363451,0.00753225
22484,30.0,-24.0,0.0,   7.89779E-03,  -5.18650E-03,  -830.691E-03,0.0475111,0.0377729,0.00746919
22485,29.0,-24.0,0.0,   7.81279E-03,  -5.51127E-03,  -857.298E-03,0.0471812,0.0391756,0.00737641
22490,28.0,-24.0,0.0,   7.69874E-03,  -5.82896E-03,  -882.475E-03,0.0468583,0.040548,0.00725669
22491,27.0,-24.0,0.0,   7.55874E-03,  -6.13854E-03,  -906.277E-03,0.0465437,0.0418859,0.00711277
22496,26.0,-24.0,0.0,   7.39566E-03,  -6.43912E-03,  -928.757E-03,0.0462383,0.0431856,0.00694726
22499,25.0,-24.0,0.0,   7.21207E-03,  -6.72992E-03,  -949.963E-03,0.0459431,0.044444,0.00676268
22500,24.0,-24.0,0.0,   7.01032E-03,  -7.01032E-03,  -969.947E-03,0.0456585,0.0456585,0.00656135
22505,23.0,-24.0,0.0,   6.79255E-03,  -7.27980E-03,  -988.755E-03,0.0453853,0.0468272,0.00634545
22506,22.0,-24.0,0.0,   6.56066E-03,  -7.53795E-03,      -1.00643,0.0451238,0.0479481,0.00611695
22511,21.0,-24.0,0.0,   6.31637E-03,  -7.78443E-03,      -1.02302,0.0448743,0.0490202,0.00587765
22514,20.0,-24.0,0.0,   6.06124E-03,  -8.01903E-03,      -1.03857,0.0446369,0.0500424,0.00562916
22515,19.0,-24.0,0.0,   5.79663E-03,  -8.24158E-03,      -1.05311,0.0444117,0.0510139,0.00537291
22520,18.0,-24.0,0.0,   5.52378E-03,  -8.45199E-03,      -1.06668,0.0441989,0.0519343,0.00511015
22521,17.0,-24.0,0.0,   5.24378E-03,  -8.65022E-03,      -1.07932,0.0439984,0.0528033,0.004842
22526,16.0,-24.0,0.0,   4.95760E-03,  -8.83627E-03,      -1.09106,0.0438101,0.0536207,0.00456941
22529,15.0,-24.0,0.0,   4.66609E-03,  -9.01018E-03,      -1.10194,0.0436341,0.0543866,0.00429319
22530,14.0,-24.0,0.0,   4.37001E-03,  -9.17205E-03,      -1.11198,0.0434701,0.0551011,0.00401406
22535,13.0,-24.0,0.0,   4.07001E-03,  -9.32196E-03,      -1.12121,0.0433181,0.0557644,0.00373261
22536,12.0,-24.0,0.0,   3.76669E-03,  -9.46002E-03,      -1.12965,0.043178,0.0563767,0.00344932
22541,11.0,-24.0,0.0,   3.46054E-03,  -9.58638E-03,      -1.13734,0.0430496,0.0569383,0.00316462
22544,10.0,-24.0,0.0,   3.15201E-03,  -9.70117E-03,      -1.14428,0.0429328,0.0574495,0.00287883
22545,9.0,-24.0,0.0,   2.84149E-03,  -9.80451E-03,      -1.15050,0.0428276,0.0579108,0.00259224
22550,8.0,-24.0,0.0,   2.52930E-03,  -9.89655E-03,      -1.15603,0.0427337,0.0583224,0.00230506
22551,7.0,-24.0,0.0,   2.21574E-03,  -9.97743E-03,      -1.16086,0.0426512,0.0586846,0.00201745
22556,6.0,-24.0,0.0,   1.90106E-03,  -10.0472E-03,      -1.16502,0.0425798,0.0589979,0.00172956
22559,5.0,-24.0,0.0,   1.58548E-03,  -10.1061E-03,      -1.16853,0.0425196,0.0592624,0.00144148
22560,4.0,-24.0,0.0,   1.26918E-03,  -10.1542E-03,      -1.17138,0.0424704,0.0594785,0.00115327
22565,3.0,-24.0,0.0,   952.336E-06,  -10.1914E-03,      -1.17359,0.0424322,0.0596463,0.000864996
22566,2.0,-24.0,0.0,   635.102E-06,  -10.2180E-03,      -1.17516,0.042405,0.059766,0.00057668
22571,1.0,-24.0,0.0,   317.614E-06,  -10.2339E-03,      -1.17611,0.0423887,0.0598378,0.000288344
22574,0.0,-24.0,0.0,   6.36021E-15,  -10.2392E-03,      -1.17642,0.0423832,0.0598618,-7.27596e-12
22575,-1.0,-24.0,0.0,  -317.614E-06,  -10.2339E-03,      -1.17611,0.0423887,0.0598378,-0.000288344
22580,-2.0,-24.0,0.0,  -635.102E-06,  -10.2180E-03,      -1.17516,0.042405,0.059766,-0.00057668
22581,-3.0,-24.0,0.0,  -952.336E-06,  -10.1914E-03,      -1.17359,0.0424322,0.0596463,-0.000864996
22586,-4.0,-24.0,0.0,  -1.26918E-03,  -10.1542E-03,      -1.17138,0.0424704,0.0594785,-0.00115327
22589,-5.0,-24.0,0.0,  -1.58548E-03,  -10.1061E-03,      -1.16853,0.0425196,0.0592624,-0.00144148
22590,-6.0,-24.0,0.0,  -1.90106E-03,  -10.0472E-03,      -1.16502,0.0425798,0.0589979,-0.00172956
22595,-7.0,-24.0,0.0,  -2.21574E-03,  -9.97743E-03,      -1.16086,0.0426512,0.0586846,-0.00201745
22596,-8.0,-24.0,0.0,  -2.52930E-03,  -9.89655E-03,      -1.15603,0.0427337,0.0583224,-0.00230506
22601,-9.0,-24.0,0.0,  -2.84149E-03,  -9.80451E-03,      -1.15050,0.0428276,0.0579108,-0.00259224
22604,-10.0,-24.0,0.0,  -3.15201E-03,  -9.70117E-03,      -1.14428,0.0429328,0.0574495,-0.00287883
22605,-11.0,-24.0,0.0,  -3.46054E-03,  -9.58638E-03,      -1.13734,0.0430496,0.0569383,-0.00316462
22610,-12.0,-24.0,0.0,  -3.76669E-03,  -9.46002E-03,      -1.12965,0.043178,0.0563767,-0.00344932
22611,-13.0,-24.0,0.0,  -4.07001E-03,  -9.32196E-03,      -1.12121,0.0433181,0.0557644,-0.00373261
22616,-14.0,-24.0,0.0,  -4.37001E-03,  -9.17205E-03,      -1.11198,0.0434701,0.0551011,-0.00401406
22619,-15.0,-24.0,0.0,  -4.66609E-03,  -9.01018E-03,      -1.10194,0.0436341,0.0543866,-0.00429319
22620,-16.0,-24.0,0.0,  -4.95760E-03,  -8.83627E-03,      -1.09106,0.0438101,0.0536207,-0.00456941
22625,-17.0,-24.0,0.0,  -5.24378E-03,  -8.65022E-03,      -1.07932,0.0439984,0.0528033,-0.004842
22626,-18.0,-24.0,0.0,  -5.52378E-03,  -8.45199E-03,      -1.06668,0.0441989,0.0519343,-0.00511015
22631,-19.0,-24.0,0.0,  -5.79663E-03,  -8.24158E-03,      -1.05311,0.0444117,0.0510139,-0.00537291
22634,-20.0,-24.0,0.0,  -6.06124E-03,  -8.01903E-03,      -1.03857,0.0446369,0.0500424,-0.00562916
22635,-21.0,-24.0,0.0,  -6.31637E-03,  -7.78443E-03,      -1.02302,0.0448743,0.0490202,-0.00587765
22640,-22.0,-24.0,0.0,  -6.56066E-03,  -7.53795E-03,      -1.00643,0.0451238,0.0479481,-0.00611695
22641,-23.0,-24.0,0.0,  -6.79255E-03,  -7.27980E-03,  -988.755E-03,0.0453853,0.0468272,-0.00634545
22646,-24.0,-24.0,0.0,  -7.01032E-03,  -7.01032E-03,  -969.947E-03,0.0456586,0.0456586,-0.00656135
22649,-25.0,-24.0,0.0,  -7.21207E-03,  -6.72992E-03,  -949.963E-03,0.0459431,0.044444,-0.00676268
22650,-26.0,-24.0,0.0,  -7.39566E-03,  -6.43912E-03,  -928.757E-03,0.0462383,0.0431856,-0.00694726
22655,-27.0,-24.0,0.0,  -7.55874E-03,  -6.13854E-03,  -906.277E-03,0.0465437,0.0418859,-0.00711277
22656,-28.0,-24.0,0.0,  -7.69874E-03,  -5.82896E-03,  -882.475E-03,0.0468583,0.040548,-0.00725669
22661,-29.0,-24.0,0.0,  -7.81279E-03,  -5.51127E-03,  -857.298E-03,0.0471812,0.0391756,-0.00737641
22664,-30.0,-24.0,0.0,  -7.89779E-03,  -5.18650E-03,  -830.691E-03,0.0475111,0.0377729,-0.00746919
22665,-31.0,-24.0,0.0,  -7.95034E-03,  -4.85585E-03,  -802.603E-03,0.0478467,0.0363451,-0.00753224
22670,-32.0,-24.0,0.0,  -7.96674E-03,  -4.52064E-03,  -772.976E-03,0.0481862,0.0348978,-0.0075628
22671,-33.0,-24.0,0.0,  -7.94302E-03,  -4.18238E-03,  -741.756E-03,0.0485279,0.0334374,-0.00755814
22676,-34.0,-24.0,0.0,  -7.87487E-03,  -3.84269E-03,  -708.888E-03,0.0488696,0.0319713,-0.0075157
22679,-35.0,-24.0,0.0,  -7.75769E-03,  -3.50336E-03,  -674.316E-03,0.0492091,0.0305075,-0.00743315
22680,-36.0,-24.0,0.0,  -7.58657E-03,  -3.16632E-03,  -637.987E-03,0.0495437,0.0290545,-0.00730847
22685,-37.0,-24.0,0.0,  -7.35631E-03,  -2.83360E-03,  -599.846E-03,0.0498701,0.0276216,-0.00714012
22686,-38.0,-24.0,0.0,  -7.06143E-03,  -2.50735E-03,  -559.843E-03,0.0501843,0.0262182,-0.0069271
22691,-39.0,-24.0,0.0,  -6.69622E-03,  -2.18980E-03,  -517.929E-03,0.0504799,0.0248537,-0.00666921
22694,-40.0,-24.0,0.0,  -6.25479E-03,  -1.88325E-03,  -474.059E-03,0.0507456,0.0235361,-0.00636724
22695,-41.0,-24.0,0.0,  -5.73121E-03,  -1.59004E-03,  -428.195E-03,0.0509591,0.0222701,-0.00602352
22700,-42.0,-24.0,0.0,  -5.11983E-03,  -1.31254E-03,  -380.311E-03,0.0510708,0.0210522,-0.00564252
22701,-43.0,-24.0,0.0,  -4.41598E-03,  -1.05317E-03,  -330.405E-03,0.050968,0.0198593,-0.0052324
22706,-44.0,-24.0,0.0,  -3.61765E-03,  -814.427E-06,  -278.527E-03,0.0503851,0.0186217,-0.00480643
22709,-45.0,-24.0,0.0,  -2.72959E-03,  -599.007E-06,  -224.850E-03,0.0486919,0.0171603,-0.00438631
22710,-46.0,-24.0,0.0,  -1.77305E-03,  -410.025E-06,  -169.830E-03,0.0443784,0.0150323,-0.0039997
22715,-47.0,-24.0,0.0,  -808.609E-06,  -251.365E-06,  -114.598E-03,0.0338158,0.0111629,-0.00366961
22716,-48.0,-24.0,0.0,   16.0646E-06,  -127.922E-06,  -61.9006E-03,0.00826281,0.00295143,-0.00333858
22721,-49.0,-24.0,0.0,   397.624E-06,  -44.4753E-06,  -18.3690E-03,-0.0533469,-0.0158852,-0.00263543
22724,-50.0,-24.0,0.0,   2.19688E-39,  -694.448E-42,           -0.,-0.0968885,-0.0290713,-0.00139246
22725,50.0,-25.0,0.0,  -2.13098E-39,  -674.409E-42,           -0.,-0.0957751,-0.0287374,0.00142573
22730,49.0,-25.0,0.0,  -386.434E-06,  -45.2450E-06,  -18.0506E-03,-0.0533237,-0.0158899,0.00274036
22731,48.0,-25.0,0.0,  -16.5991E-06,  -131.373E-06,  -60.9199E-03,0.00700646,0.0025611,0.0034936
22736,47.0,-25.0,0.0,   789.648E-06,  -259.615E-06,  -112.945E-03,0.032401,0.0107345,0.00384958
22739,46.0,-25.0,0.0,   1.73568E-03,  -424.990E-06,  -167.536E-03,0.0430527,0.0146496,0.00420035
22740,45.0,-25.0,0.0,   2.67452E-03,  -622.261E-06,  -221.925E-03,0.047466,0.0168341,0.0046095
22745,44.0,-25.0,0.0,   3.54504E-03,  -847.204E-06,  -274.958E-03,0.0492237,0.0183471,0.00505385
22746,43.0,-25.0,0.0,   4.32556E-03,  -1.09640E-03,  -326.161E-03,0.0498384,0.0196312,0.005504
22751,42.0,-25.0,0.0,   5.01123E-03,  -1.36690E-03,  -375.357E-03,0.0499518,0.0208679,0.00593644
22754,41.0,-25.0,0.0,   5.60419E-03,  -1.65596E-03,  -422.492E-03,0.049838,0.0221282,0.00633667
22755,40.0,-25.0,0.0,   6.10937E-03,  -1.96095E-03,  -467.572E-03,0.0496156,0.023436,0.00669573
22760,39.0,-25.0,0.0,   6.53270E-03,  -2.27930E-03,  -510.625E-03,0.0493375,0.0247946,0.00700885
22761,38.0,-25.0,0.0,   6.88040E-03,  -2.60849E-03,  -551.696E-03,0.0490282,0.0261992,0.00727365
22766,37.0,-25.0,0.0,   7.15862E-03,  -2.94609E-03,  -590.835E-03,0.0487002,0.0276411,0.00748955
22769,36.0,-25.0,0.0,   7.37332E-03,  -3.28972E-03,  -628.095E-03,0.0483606,0.0291107,0.00765705
22770,35.0,-25.0,0.0,   7.53016E-03,  -3.63714E-03,  -663.533E-03,0.048014,0.0305979,0.00777756
22775,34.0,-25.0,0.0,   7.63449E-03,  -3.98622E-03,  -697.209E-03,0.047664,0.0320933,0.0078531
22776,33.0,-25.0,0.0,   7.69135E-03,  -4.33497E-03,  -729.181E-03,0.0473134,0.033588,0.00788615
22781,32.0,-25.0,0.0,   7.70540E-03,  -4.68157E-03,  -759.509E-03,0.0469647,0.0350739,0.00787949
22784,31.0,-25.0,0.0,   7.68099E-03,  -5.02436E-03,  -788.254E-03,0.0466201,0.0365438,0.00783614
22785,30.0,-25.0,0.0,   7.62211E-03,  -5.36185E-03,  -815.474E-03,0.0462813,0.0379913,0.00775922
22790,29.0,-25.0,0.0,   7.53246E-03,  -5.69270E-03,  -841.228E-03,0.04595,0.0394107,0.00765187
22791,28.0,-25.0,0.0,   7.41537E-03,  -6.01575E-03,  -865.573E-03,0.0456275,0.0407974,0.00751719
22796,27.0,-25.0,0.0,   7.27393E-03,  -6.33000E-03,  -888.566E-03,0.0453148,0.0421471,0.00735817
22799,26.0,-25.0,0.0,   7.11091E-03,  -6.63460E-03,  -910.260E-03,0.045013,0.0434564,0.00717767
22800,25.0,-25.0,0.0,   6.92881E-03,  -6.92881E-03,  -930.709E-03,0.0447225,0.0447225,0.00697835
22805,24.0,-25.0,0.0,   6.72992E-03,  -7.21207E-03,  -949.963E-03,0.044444,0.0459431,0.00676268
22806,23.0,-25.0,0.0,   6.51627E-03,  -7.48389E-03,  -968.071E-03,0.0441778,0.0471162,0.00653293
22811,22.0,-25.0,0.0,   6.28967E-03,  -7.74392E-03,  -985.079E-03,0.0439241,0.0482404,0.00629115
22814,21.0,-25.0,0.0,   6.05178E-03,  -7.99188E-03,      -1.00103,0.043683,0.0493147,0.00603917
22815,20.0,-25.0,0.0,   5.80404E-03,  -8.22760E-03,      -1.01597,0.0434546,0.0503382,0.00577862
22820,19.0,-25.0,0.0,   5.54774E-03,  -8.45096E-03,      -1.02994,0.0432388,0.0513103,0.00551093
22821,18.0,-25.0,0.0,   5.28404E-03,  -8.66190E-03,      -1.04297,0.0430356,0.0522307,0.00523735
22826,17.0,-25.0,0.0,   5.01395E-03,  -8.86043E-03,      -1.05510,0.0428447,0.0530993,0.00495897
22829,16.0,-25.0,0.0,   4.73836E-03,  -9.04659E-03,      -1.06636,0.0426661,0.0539159,0.00467671
22830,15.0,-25.0,0.0,   4.45805E-03,  -9.22047E-03,      -1.07679,0.0424995,0.0546808,0.00439137
22835,14.0,-25.0,0.0,   4.17373E-03,  -9.38217E-03,      -1.08641,0.0423448,0.0553941,0.0041036
22836,13.0,-25.0,0.0,   3.88599E-03,  -9.53182E-03,      -1.09525,0.0422017,0.0560561,0.00381396
22841,12.0,-25.0,0.0,   3.59536E-03,  -9.66956E-03,      -1.10334,0.0420701,0.056667,0.00352291
22844,11.0,-25.0,0.0,   3.30229E-03,  -9.79554E-03,      -1.11070,0.0419498,0.0572273,0.00323082
22845,10.0,-25.0,0.0,   3.00718E-03,  -9.90992E-03,      -1.11735,0.0418406,0.0577372,0.00293799
22850,9.0,-25.0,0.0,   2.71037E-03,  -10.0128E-03,      -1.12331,0.0417423,0.0581972,0.00264466
22851,8.0,-25.0,0.0,   2.41215E-03,  -10.1045E-03,      -1.12860,0.0416548,0.0586076,0.00235101
22856,7.0,-25.0,0.0,   2.11278E-03,  -10.1850E-03,      -1.13323,0.0415779,0.0589688,0.00205717
22859,6.0,-25.0,0.0,   1.81248E-03,  -10.2544E-03,      -1.13721,0.0415115,0.0592811,0.00176324
22860,5.0,-25.0,0.0,   1.51143E-03,  -10.3130E-03,      -1.14056,0.0414555,0.0595448,0.00146929
22865,4.0,-25.0,0.0,   1.20979E-03,  -10.3608E-03,      -1.14329,0.0414099,0.0597602,0.00117536
22866,3.0,-25.0,0.0,   907.713E-06,  -10.3978E-03,      -1.14541,0.0413744,0.0599275,0.000881466
22871,2.0,-25.0,0.0,   605.313E-06,  -10.4242E-03,      -1.14691,0.0413492,0.0600468,0.000587615
22874,1.0,-25.0,0.0,   302.707E-06,  -10.4401E-03,      -1.14781,0.041334,0.0601184,0.000293798
22875,0.0,-25.0,0.0,   6.00121E-15,  -10.4453E-03,      -1.14811,0.041329,0.0601422,3.63798e-12
22880,-1.0,-25.0,0.0,  -302.707E-06,  -10.4401E-03,      -1.14781,0.041334,0.0601184,-0.000293798
22881,-2.0,-25.0,0.0,  -605.313E-06,  -10.4242E-03,      -1.14691,0.0413492,0.0600468,-0.000587615
22886,-3.0,-25.0,0.0,  -907.713E-06,  -10.3978E-03,      -1.14541,0.0413744,0.0599275,-0.000881466
22889,-4.0,-25.0,0.0,  -1.20979E-03,  -10.3608E-03,      -1.14329,0.0414099,0.0597602,-0.00117536
22890,-5.0,-25.0,0.0,  -1.51143E-03,  -10.3130E-03,      -1.14056,0.0414555,0.0595448,-0.00146929
22895,-6.0,-25.0,0.0,  -1.81248E-03,  -10.2544E-03,      -1.13721,0.0415115,0.0592811,-0.00176324
22896,-7.0,-25.0,0.0,  -2.11278E-03,  -10.1850E-03,      -1.13323,0.0415779,0.0589688,-0.00205717
22901,-8.0,-25.0,0.0,  -2.41215E-03,  -10.1045E-03,      -1.12860,0.0416548,0.0586076,-0.00235101
22904,-9.0,-25.0,0.0,  -2.71037E-03,  -10.0128E-03,      -1.12331,0.0417423,0.0581972,-0.00264466
22905,-10.0,-25.0,0.0,  -3.00718E-03,  -9.90992E-03,      -1.11735,0.0418406,0.0577372,-0.00293799
22910,-11.0,-25.0,0.0,  -3.30229E-03,  -9.79554E-03,      -1.11070,0.0419498,0.0572273,-0.00323082
22911,-12.0,-25.0,0.0,  -3.59536E-03,  -9.66956E-03,      -1.10334,0.0420701,0.056667,-0.00352291
22916,-13.0,-25.0,0.0,  -3.88599E-03,  -9.53182E-03,      -1.09525,0.0422017,0.0560561,-0.00381396
22919,-14.0,-25.0,0.0,  -4.17373E-03,  -9.38217E-03,      -1.08641,0.0423448,0.0553941,-0.0041036
22920,-15.0,-25.0,0.0,  -4.45805E-03,  -9.22047E-03,      -1.07679,0.0424995,0.0546808,-0.00439137
22925,-16.0,-25.0,0.0,  -4.73836E-03,  -9.04659E-03,      -1.06636,0.0426661,0.0539159,-0.00467671
22926,-17.0,-25.0,0.0,  -5.01395E-03,  -8.86043E-03,      -1.05510,0.0428447,0.0530993,-0.00495897
22931,-18.0,-25.0,0.0,  -5.28404E-03,  -8.66190E-03,      -1.04297,0.0430356,0.0522307,-0.00523735
22934,-19.0,-25.0,0.0,  -5.54774E-03,  -8.45096E-03,      -1.02994,0.0432388,0.0513103,-0.00551093
22935,-20.0,-25.0,0.0,  -5.80404E-03,  -8.22760E-03,      -1.01597,0.0434546,0.0503382,-0.00577862
22940,-21.0,-25.0,0.0,  -6.05178E-03,  -7.99188E-03,      -1.00103,0.043683,0.0493147,-0.00603917
22941,-22.0,-25.0,0.0,  -6.28967E-03,  -7.74392E-03,  -985.079E-03,0.0439241,0.0482404,-0.00629115
22946,-23.0,-25.0,0.0,  -6.51627E-03,  -7.48389E-03,  -968.071E-03,0.0441778,0.0471162,-0.00653293
22947,-24.0,-25.0,0.0,  -6.72992E-03,  -7.21207E-03,  -949.963E-03,0.044444,0.0459431,-0.00676268
22952,-25.0,-25.0,0.0,  -6.92881E-03,  -6.92881E-03,  -930.709E-03,0.0447225,0.0447225,-0.00697835
22953,-26.0,-25.0,0.0,  -7.11091E-03,  -6.63460E-03,  -910.260E-03,0.045013,0.0434564,-0.00717767
22958,-27.0,-25.0,0.0,  -7.27393E-03,  -6.33000E-03,  -888.566E-03,0.0453148,0.0421471,-0.00735817
22961,-28.0,-25.0,0.0,  -7.41537E-03,  -6.01575E-03,  -865.573E-03,0.0456275,0.0407974,-0.00751719
22962,-29.0,-25.0,0.0,  -7.53246E-03,  -5.69270E-03,  -841.228E-03,0.04595,0.0394107,-0.00765187
22967,-30.0,-25.0,0.0,  -7.62211E-03,  -5.36185E-03,  -815.474E-03,0.0462813,0.0379913,-0.00775922
22968,-31.0,-25.0,0.0,  -7.68099E-03,  -5.02436E-03,  -788.254E-03,0.0466201,0.0365438,-0.00783614
22973,-32.0,-25.0,0.0,  -7.70540E-03,  -4.68157E-03,  -759.509E-03,0.0469647,0.0350739,-0.00787949
22976,-33.0,-25.0,0.0,  -7.69135E-03,  -4.33497E-03,  -729.181E-03,0.0473134,0.033588,-0.00788615
22977,-34.0,-25.0,0.0,  -7.63449E-03,  -3.98622E-03,  -697.209E-03,0.047664,0.0320933,-0.0078531
22982,-35.0,-25.0,0.0,  -7.53016E-03,  -3.63714E-03,  -663.533E-03,0.048014,0.0305979,-0.00777756
22983,-36.0,-25.0,0.0,  -7.37332E-03,  -3.28972E-03,  -628.095E-03,0.0483606,0.0291107,-0.00765705
22988,-37.0,-25.0,0.0,  -7.15862E-03,  -2.94609E-03,  -590.835E-03,0.0487002,0.0276411,-0.00748955
22991,-38.0,-25.0,0.0,  -6.88040E-03,  -2.60849E-03,  -551.696E-03,0.0490282,0.0261992,-0.00727365
22992,-39.0,-25.0,0.0,  -6.53270E-03,  -2.27930E-03,  -510.625E-03,0.0493375,0.0247946,-0.00700885
22997,-40.0,-25.0,0.0,  -6.10937E-03,  -1.96095E-03,  -467.572E-03,0.0496156,0.023436,-0.00669573
22998,-41.0,-25.0,0.0,  -5.60419E-03,  -1.65596E-03,  -422.492E-03,0.049838,0.0221282,-0.00633667
23003,-42.0,-25.0,0.0,  -5.01123E-03,  -1.36690E-03,  -375.357E-03,0.0499518,0.0208679,-0.00593644
23006,-43.0,-25.0,0.0,  -4.32556E-03,  -1.09640E-03,  -326.161E-03,0.0498384,0.0196312,-0.005504
23007,-44.0,-25.0,0.0,  -3.54504E-03,  -847.204E-06,  -274.958E-03,0.0492237,0.0183471,-0.00505385
23012,-45.0,-25.0,0.0,  -2.67452E-03,  -622.261E-06,  -221.925E-03,0.047466,0.0168341,-0.0046095
23013,-46.0,-25.0,0.0,  -1.73568E-03,  -424.990E-06,  -167.536E-03,0.0430527,0.0146496,-0.00420035
23018,-47.0,-25.0,0.0,  -789.648E-06,  -259.615E-06,  -112.945E-03,0.032401,0.0107345,-0.00384958
23021,-48.0,-25.0,0.0,   16.5991E-06,  -131.373E-06,  -60.9199E-03,0.00700646,0.0025611,-0.0034936
23022,-49.0,-25.0,0.0,   386.434E-06,  -45.2450E-06,  -18.0506E-03,-0.0533237,-0.0158899,-0.00274036
23027,-50.0,-25.0,0.0,   2.13098E-39,  -674.409E-42,           -0.,-0.0957751,-0.0287374,-0.00142573
23028,50.0,-26.0,0.0,  -2.06152E-39,  -653.035E-42,           -0.,-0.0945896,-0.0283819,0.00145384
23033,49.0,-26.0,0.0,  -374.628E-06,  -45.8024E-06,  -17.7143E-03,-0.0532788,-0.01589,0.00284299
23036,48.0,-26.0,0.0,  -16.9553E-06,  -134.440E-06,  -59.8813E-03,0.00570521,0.00215458,0.00364989
23037,47.0,-26.0,0.0,   769.824E-06,  -267.374E-06,  -111.189E-03,0.030924,0.0102853,0.00403317
23042,46.0,-26.0,0.0,   1.69624E-03,  -439.426E-06,  -165.094E-03,0.0416665,0.0142484,0.00440617
23043,45.0,-26.0,0.0,   2.61617E-03,  -644.994E-06,  -218.808E-03,0.0461857,0.0164938,0.00483913
23048,44.0,-26.0,0.0,   3.46793E-03,  -879.481E-06,  -271.150E-03,0.0480127,0.0180636,0.00530884
23051,43.0,-26.0,0.0,   4.22942E-03,  -1.13914E-03,  -321.630E-03,0.0486624,0.0193992,0.00578407
23052,42.0,-26.0,0.0,   4.89572E-03,  -1.42070E-03,  -370.064E-03,0.0487872,0.0206841,0.00623938
23057,41.0,-26.0,0.0,   5.46910E-03,  -1.72118E-03,  -416.396E-03,0.0486708,0.021991,0.00665887
23058,40.0,-26.0,0.0,   5.95476E-03,  -2.03770E-03,  -460.634E-03,0.0484382,0.023344,0.0070328
23063,39.0,-26.0,0.0,   6.35897E-03,  -2.36749E-03,  -502.813E-03,0.0481462,0.0247469,0.00735605
23066,38.0,-26.0,0.0,   6.68825E-03,  -2.70785E-03,  -542.981E-03,0.0478216,0.0261942,0.00762631
23067,37.0,-26.0,0.0,   6.94905E-03,  -3.05617E-03,  -581.194E-03,0.0474783,0.0276768,0.00784322
23072,36.0,-26.0,0.0,   7.14756E-03,  -3.40997E-03,  -617.513E-03,0.0471244,0.0291845,0.00800776
23073,35.0,-26.0,0.0,   7.28966E-03,  -3.76688E-03,  -652.001E-03,0.0467649,0.030707,0.00812184
23078,34.0,-26.0,0.0,   7.38084E-03,  -4.12471E-03,  -684.724E-03,0.0464039,0.0322344,0.00818802
23081,33.0,-26.0,0.0,   7.42623E-03,  -4.48143E-03,  -715.744E-03,0.0460444,0.0337578,0.00820936
23082,32.0,-26.0,0.0,   7.43059E-03,  -4.83518E-03,  -745.129E-03,0.045689,0.0352691,0.00818919
23087,31.0,-26.0,0.0,   7.39828E-03,  -5.18430E-03,  -772.942E-03,0.0453398,0.036761,0.00813102
23088,30.0,-26.0,0.0,   7.33330E-03,  -5.52730E-03,  -799.247E-03,0.0449987,0.0382273,0.00803841
23093,29.0,-26.0,0.0,   7.23929E-03,  -5.86288E-03,  -824.105E-03,0.0446672,0.0396626,0.0079149
23096,28.0,-26.0,0.0,   7.11956E-03,  -6.18991E-03,  -847.578E-03,0.0443463,0.0410623,0.00776391
23097,27.0,-26.0,0.0,   6.97712E-03,  -6.50744E-03,  -869.725E-03,0.0440372,0.0424226,0.0075887
23102,26.0,-26.0,0.0,   6.81466E-03,  -6.81466E-03,  -890.601E-03,0.0437404,0.0437404,0.00739234
23103,25.0,-26.0,0.0,   6.63460E-03,  -7.11091E-03,  -910.260E-03,0.0434564,0.045013,0.00717767
23108,24.0,-26.0,0.0,   6.43912E-03,  -7.39566E-03,  -928.757E-03,0.0431856,0.0462383,0.00694726
23111,23.0,-26.0,0.0,   6.23015E-03,  -7.66850E-03,  -946.139E-03,0.0429281,0.0474149,0.00670347
23112,22.0,-26.0,0.0,   6.00944E-03,  -7.92914E-03,  -962.454E-03,0.0426839,0.0485413,0.00644838
23117,21.0,-26.0,0.0,   5.77851E-03,  -8.17734E-03,  -977.747E-03,0.042453,0.0496168,0.00618386
23118,20.0,-26.0,0.0,   5.53874E-03,  -8.41299E-03,  -992.060E-03,0.0422351,0.0506407,0.00591152
23123,19.0,-26.0,0.0,   5.29131E-03,  -8.63602E-03,      -1.00543,0.0420302,0.0516126,0.00563279
23126,18.0,-26.0,0.0,   5.03730E-03,  -8.84643E-03,      -1.01791,0.0418379,0.0525323,0.00534889
23127,17.0,-26.0,0.0,   4.77764E-03,  -9.04426E-03,      -1.02951,0.0416581,0.0533997,0.00506086
23132,16.0,-26.0,0.0,   4.51315E-03,  -9.22959E-03,      -1.04029,0.0414903,0.0542151,0.00476959
23133,15.0,-26.0,0.0,   4.24454E-03,  -9.40253E-03,      -1.05026,0.0413344,0.0549784,0.00447583
23138,14.0,-26.0,0.0,   3.97245E-03,  -9.56324E-03,      -1.05945,0.04119,0.05569,0.00418019
23141,13.0,-26.0,0.0,   3.69741E-03,  -9.71186E-03,      -1.06790,0.0410568,0.0563503,0.00388318
23142,12.0,-26.0,0.0,   3.41990E-03,  -9.84856E-03,      -1.07563,0.0409347,0.0569595,0.00358521
23147,11.0,-26.0,0.0,   3.14032E-03,  -9.97352E-03,      -1.08266,0.0408232,0.0575181,0.00328661
23148,10.0,-26.0,0.0,   2.85902E-03,  -10.0869E-03,      -1.08901,0.0407223,0.0580264,0.00298764
23153,9.0,-26.0,0.0,   2.57630E-03,  -10.1889E-03,      -1.09470,0.0406316,0.0584849,0.00268848
23156,8.0,-26.0,0.0,   2.29242E-03,  -10.2797E-03,      -1.09974,0.040551,0.0588939,0.00238928
23157,7.0,-26.0,0.0,   2.00760E-03,  -10.3593E-03,      -1.10416,0.0404803,0.0592538,0.00209014
23162,6.0,-26.0,0.0,   1.72201E-03,  -10.4281E-03,      -1.10796,0.0404193,0.059565,0.00179113
23163,5.0,-26.0,0.0,   1.43583E-03,  -10.4860E-03,      -1.11116,0.0403679,0.0598278,0.00149227
23168,4.0,-26.0,0.0,   1.14918E-03,  -10.5333E-03,      -1.11377,0.0403261,0.0600424,0.00119357
23171,3.0,-26.0,0.0,   862.170E-06,  -10.5699E-03,      -1.11578,0.0402936,0.0602091,0.000895027
23172,2.0,-26.0,0.0,   574.914E-06,  -10.5961E-03,      -1.11722,0.0402705,0.060328,0.000596609
23177,1.0,-26.0,0.0,   287.497E-06,  -10.6117E-03,      -1.11808,0.0402566,0.0603993,0.000298281
23178,0.0,-26.0,0.0,   5.39604E-15,  -10.6169E-03,      -1.11837,0.040252,0.0604231,0.0
23183,-1.0,-26.0,0.0,  -287.497E-06,  -10.6117E-03,      -1.11808,0.0402566,0.0603993,-0.000298281
23186,-2.0,-26.0,0.0,  -574.914E-06,  -10.5961E-03,      -1.11722,0.0402705,0.060328,-0.000596609
23187,-3.0,-26.0,0.0,  -862.170E-06,  -10.5699E-03,      -1.11578,0.0402936,0.0602091,-0.000895027
23192,-4.0,-26.0,0.0,  -1.14918E-03,  -10.5333E-03,      -1.11377,0.0403261,0.0600424,-0.00119357
23193,-5.0,-26.0,0.0,  -1.43583E-03,  -10.4860E-03,      -1.11116,0.0403679,0.0598278,-0.00149227
23198,-6.0,-26.0,0.0,  -1.72201E-03,  -10.4281E-03,      -1.10796,0.0404193,0.059565,-0.00179113
23201,-7.0,-26.0,0.0,  -2.00760E-03,  -10.3593E-03,      -1.10416,0.0404803,0.0592538,-0.00209014
23202,-8.0,-26.0,0.0,  -2.29242E-03,  -10.2797E-03,      -1.09974,0.040551,0.0588939,-0.00238928
23207,-9.0,-26.0,0.0,  -2.57630E-03,  -10.1889E-03,      -1.09470,0.0406316,0.0584849,-0.00268848
23208,-10.0,-26.0,0.0,  -2.85902E-03,  -10.0869E-03,      -1.08901,0.0407223,0.0580264,-0.00298764
23213,-11.0,-26.0,0.0,  -3.14032E-03,  -9.97352E-03,      -1.08266,0.0408232,0.0575181,-0.00328661
23216,-12.0,-26.0,0.0,  -3.41990E-03,  -9.84856E-03,      -1.07563,0.0409347,0.0569595,-0.00358521
23217,-13.0,-26.0,0.0,  -3.69741E-03,  -9.71186E-03,      -1.06790,0.0410568,0.0563503,-0.00388318
23222,-14.0,-26.0,0.0,  -3.97245E-03,  -9.56324E-03,      -1.05945,0.04119,0.05569,-0.00418019
23223,-15.0,-26.0,0.0,  -4.24454E-03,  -9.40253E-03,      -1.05026,0.0413344,0.0549784,-0.00447583
23228,-16.0,-26.0,0.0,  -4.51315E-03,  -9.22959E-03,      -1.04029,0.0414903,0.0542151,-0.00476959
23231,-17.0,-26.0,0.0,  -4.77764E-03,  -9.04426E-03,      -1.02951,0.0416581,0.0533997,-0.00506086
23232,-18.0,-26.0,0.0,  -5.03730E-03,  -8.84643E-03,      -1.01791,0.0418379,0.0525323,-0.00534889
23237,-19.0,-26.0,0.0,  -5.29131E-03,  -8.63602E-03,      -1.00543,0.0420302,0.0516126,-0.00563279
23238,-20.0,-26.0,0.0,  -5.53874E-03,  -8.41299E-03,  -992.060E-03,0.0422351,0.0506407,-0.00591152
23243,-21.0,-26.0,0.0,  -5.77851E-03,  -8.17734E-03,  -977.747E-03,0.042453,0.0496168,-0.00618386
23246,-22.0,-26.0,0.0,  -6.00944E-03,  -7.92914E-03,  -962.454E-03,0.0426839,0.0485413,-0.00644838
23247,-23.0,-26.0,0.0,  -6.23015E-03,  -7.66850E-03,  -946.139E-03,0.0429281,0.0474148,-0.00670347
23252,-24.0,-26.0,0.0,  -6.43912E-03,  -7.39566E-03,  -928.757E-03,0.0431856,0.0462383,-0.00694726
23253,-25.0,-26.0,0.0,  -6.63460E-03,  -7.11091E-03,  -910.260E-03,0.0434564,0.045013,-0.00717767
23258,-26.0,-26.0,0.0,  -6.81466E-03,  -6.81466E-03,  -890.601E-03,0.0437404,0.0437404,-0.00739234
23261,-27.0,-26.0,0.0,  -6.97712E-03,  -6.50744E-03,  -869.725E-03,0.0440372,0.0424226,-0.0075887
23262,-28.0,-26.0,0.0,  -7.11956E-03,  -6.18991E-03,  -847.578E-03,0.0443463,0.0410623,-0.00776391
23267,-29.0,-26.0,0.0,  -7.23929E-03,  -5.86288E-03,  -824.105E-03,0.0446672,0.0396626,-0.0079149
23268,-30.0,-26.0,0.0,  -7.33330E-03,  -5.52730E-03,  -799.247E-03,0.0449987,0.0382273,-0.00803841
23273,-31.0,-26.0,0.0,  -7.39828E-03,  -5.18430E-03,  -772.942E-03,0.0453398,0.036761,-0.00813102
23276,-32.0,-26.0,0.0,  -7.43059E-03,  -4.83518E-03,  -745.129E-03,0.045689,0.0352691,-0.00818919
23277,-33.0,-26.0,0.0,  -7.42623E-03,  -4.48143E-03,  -715.744E-03,0.0460444,0.0337578,-0.00820936
23282,-34.0,-26.0,0.0,  -7.38084E-03,  -4.12471E-03,  -684.724E-03,0.0464039,0.0322344,-0.00818802
23283,-35.0,-26.0,0.0,  -7.28966E-03,  -3.76688E-03,  -652.001E-03,0.0467649,0.030707,-0.00812184
23288,-36.0,-26.0,0.0,  -7.14756E-03,  -3.40997E-03,  -617.513E-03,0.0471244,0.0291845,-0.00800776
23291,-37.0,-26.0,0.0,  -6.94905E-03,  -3.05617E-03,  -581.194E-03,0.0474783,0.0276768,-0.00784322
23292,-38.0,-26.0,0.0,  -6.68825E-03,  -2.70785E-03,  -542.981E-03,0.0478216,0.0261942,-0.00762631
23297,-39.0,-26.0,0.0,  -6.35897E-03,  -2.36749E-03,  -502.813E-03,0.0481462,0.024747,-0.00735605
23298,-40.0,-26.0,0.0,  -5.95476E-03,  -2.03770E-03,  -460.634E-03,0.0484382,0.023344,-0.0070328
23303,-41.0,-26.0,0.0,  -5.46910E-03,  -1.72118E-03,  -416.396E-03,0.0486708,0.021991,-0.00665887
23306,-42.0,-26.0,0.0,  -4.89572E-03,  -1.42070E-03,  -370.064E-03,0.0487872,0.0206841,-0.00623938
23307,-43.0,-26.0,0.0,  -4.22942E-03,  -1.13914E-03,  -321.630E-03,0.0486624,0.0193992,-0.00578407
23312,-44.0,-26.0,0.0,  -3.46793E-03,  -879.481E-06,  -271.150E-03,0.0480127,0.0180636,-0.00530884
23313,-45.0,-26.0,0.0,  -2.61617E-03,  -644.994E-06,  -218.808E-03,0.0461857,0.0164938,-0.00483913
23318,-46.0,-26.0,0.0,  -1.69624E-03,  -439.426E-06,  -165.094E-03,0.0416665,0.0142484,-0.00440617
23321,-47.0,-26.0,0.0,  -769.824E-06,  -267.374E-06,  -111.189E-03,0.030924,0.0102853,-0.00403317
23322,-48.0,-26.0,0.0,   16.9553E-06,  -134.440E-06,  -59.8813E-03,0.00570521,0.00215458,-0.00364989
23327,-49.0,-26.0,0.0,   374.628E-06,  -45.8024E-06,  -17.7143E-03,-0.0532788,-0.01589,-0.00284299
23328,-50.0,-26.0,0.0,   2.06152E-39,  -653.035E-42,           -0.,-0.0945896,-0.0283819,-0.00145384
23333,50.0,-27.0,0.0,  -1.98837E-39,  -630.247E-42,           -0.,-0.0933284,-0.0280038,0.00147599
23336,49.0,-27.0,0.0,  -362.178E-06,  -46.1162E-06,  -17.3595E-03,-0.0532091,-0.0158847,0.00294278
23337,48.0,-27.0,0.0,  -17.0814E-06,  -137.065E-06,  -58.7821E-03,0.00436087,0.00173203,0.00380737
23342,47.0,-27.0,0.0,   749.160E-06,  -274.563E-06,  -109.324E-03,0.0293849,0.0098149,0.00422065
23343,46.0,-27.0,0.0,   1.65470E-03,  -453.238E-06,  -162.497E-03,0.0402196,0.0138285,0.0046177
23348,45.0,-27.0,0.0,   2.55442E-03,  -667.100E-06,  -215.487E-03,0.0448509,0.0161402,0.00507595
23351,44.0,-27.0,0.0,   3.38614E-03,  -911.138E-06,  -267.088E-03,0.0467528,0.0177725,0.00557226
23352,43.0,-27.0,0.0,   4.12732E-03,  -1.18122E-03,  -316.793E-03,0.0474403,0.0191652,0.00607351
23357,42.0,-27.0,0.0,   4.77297E-03,  -1.47377E-03,  -364.409E-03,0.0475775,0.0205035,0.00655212
23358,41.0,-27.0,0.0,   5.32555E-03,  -1.78547E-03,  -409.879E-03,0.047458,0.0218613,0.00699075
23363,40.0,-27.0,0.0,   5.79056E-03,  -2.11322E-03,  -453.215E-03,0.0472138,0.0232638,0.00737876
23366,39.0,-27.0,0.0,   6.17461E-03,  -2.45400E-03,  -494.455E-03,0.046906,0.0247142,0.00771079
23367,38.0,-27.0,0.0,   6.48458E-03,  -2.80492E-03,  -533.656E-03,0.0465643,0.0262068,0.0079846
23372,37.0,-27.0,0.0,   6.72722E-03,  -3.16323E-03,  -570.880E-03,0.0462042,0.0277321,0.00820027
23373,36.0,-27.0,0.0,   6.90898E-03,  -3.52629E-03,  -606.195E-03,0.0458346,0.0292792,0.00835931
23378,35.0,-27.0,0.0,   7.03593E-03,  -3.89168E-03,  -639.672E-03,0.0454615,0.0308376,0.00846428
23381,34.0,-27.0,0.0,   7.11373E-03,  -4.25712E-03,  -671.381E-03,0.0450891,0.0323972,0.00851844
23382,33.0,-27.0,0.0,   7.14760E-03,  -4.62055E-03,  -701.394E-03,0.0447208,0.0339491,0.00852549
23387,32.0,-27.0,0.0,   7.14234E-03,  -4.98010E-03,  -729.782E-03,0.0443592,0.0354849,0.00848939
23388,31.0,-27.0,0.0,   7.10233E-03,  -5.33413E-03,  -756.613E-03,0.0440064,0.0369979,0.00841421
23393,30.0,-27.0,0.0,   7.03154E-03,  -5.68118E-03,  -781.955E-03,0.0436642,0.0384818,0.00830401
23396,29.0,-27.0,0.0,   6.93358E-03,  -6.01998E-03,  -805.876E-03,0.0433338,0.0399316,0.00816271
23397,28.0,-27.0,0.0,   6.81169E-03,  -6.34948E-03,  -828.437E-03,0.0430163,0.041343,0.00799409
23402,27.0,-27.0,0.0,   6.66877E-03,  -6.66877E-03,  -849.700E-03,0.0427125,0.0427125,0.00780166
23403,26.0,-27.0,0.0,   6.50744E-03,  -6.97712E-03,  -869.725E-03,0.0424226,0.0440372,0.0075887
23408,25.0,-27.0,0.0,   6.33000E-03,  -7.27393E-03,  -888.566E-03,0.0421471,0.0453148,0.00735817
23411,24.0,-27.0,0.0,   6.13854E-03,  -7.55874E-03,  -906.277E-03,0.0418859,0.0465437,0.00711277
23412,23.0,-27.0,0.0,   5.93488E-03,  -7.83122E-03,  -922.910E-03,0.041639,0.0477224,0.00685487
23417,22.0,-27.0,0.0,   5.72066E-03,  -8.09111E-03,  -938.510E-03,0.0414062,0.0488499,0.00658661
23418,21.0,-27.0,0.0,   5.49729E-03,  -8.33828E-03,  -953.125E-03,0.0411871,0.0499255,0.00630982
23423,20.0,-27.0,0.0,   5.26606E-03,  -8.57264E-03,  -966.796E-03,0.0409816,0.0509489,0.00602612
23426,19.0,-27.0,0.0,   5.02806E-03,  -8.79418E-03,  -979.563E-03,0.0407892,0.0519197,0.00573688
23427,18.0,-27.0,0.0,   4.78428E-03,  -9.00295E-03,  -991.464E-03,0.0406094,0.0528379,0.00544329
23432,17.0,-27.0,0.0,   4.53557E-03,  -9.19904E-03,      -1.00253,0.040442,0.0537035,0.00514633
23433,16.0,-27.0,0.0,   4.28267E-03,  -9.38256E-03,      -1.01280,0.0402864,0.0545169,0.00484683
23438,15.0,-27.0,0.0,   4.02623E-03,  -9.55368E-03,      -1.02231,0.0401423,0.0552781,0.00454549
23441,14.0,-27.0,0.0,   3.76680E-03,  -9.71256E-03,      -1.03107,0.0400093,0.0559876,0.00424286
23442,13.0,-27.0,0.0,   3.50489E-03,  -9.85938E-03,      -1.03912,0.0398871,0.0566457,0.00393939
23447,12.0,-27.0,0.0,   3.24089E-03,  -9.99434E-03,      -1.04648,0.0397753,0.0572529,0.00363544
23448,11.0,-27.0,0.0,   2.97517E-03,  -10.1176E-03,      -1.05317,0.0396735,0.0578094,0.00333129
23453,10.0,-27.0,0.0,   2.70804E-03,  -10.2294E-03,      -1.05922,0.0395816,0.0583159,0.00302714
23456,9.0,-27.0,0.0,   2.43975E-03,  -10.3300E-03,      -1.06463,0.0394992,0.0587727,0.00272314
23457,8.0,-27.0,0.0,   2.17053E-03,  -10.4194E-03,      -1.06944,0.0394261,0.0591801,0.0024194
23462,7.0,-27.0,0.0,   1.90055E-03,  -10.4979E-03,      -1.07364,0.039362,0.0595386,0.00211598
23463,6.0,-27.0,0.0,   1.62997E-03,  -10.5656E-03,      -1.07726,0.0393069,0.0598486,0.00181289
23468,5.0,-27.0,0.0,   1.35893E-03,  -10.6226E-03,      -1.08030,0.0392605,0.0601103,0.00151013
23471,4.0,-27.0,0.0,   1.08753E-03,  -10.6691E-03,      -1.08278,0.0392227,0.0603241,0.00120769
23472,3.0,-27.0,0.0,   815.865E-06,  -10.7051E-03,      -1.08470,0.0391935,0.0604901,0.000905516
23477,2.0,-27.0,0.0,   544.010E-06,  -10.7308E-03,      -1.08606,0.0391726,0.0606085,0.000603555
23478,1.0,-27.0,0.0,   272.034E-06,  -10.7462E-03,      -1.08688,0.0391601,0.0606795,0.00030174
23483,0.0,-27.0,0.0,   4.29606E-15,  -10.7514E-03,      -1.08715,0.039156,0.0607032,0.0
23486,-1.0,-27.0,0.0,  -272.034E-06,  -10.7462E-03,      -1.08688,0.0391601,0.0606795,-0.00030174
23487,-2.0,-27.0,0.0,  -544.010E-06,  -10.7308E-03,      -1.08606,0.0391726,0.0606085,-0.000603555
23492,-3.0,-27.0,0.0,  -815.865E-06,  -10.7051E-03,      -1.08470,0.0391935,0.0604901,-0.000905516
23493,-4.0,-27.0,0.0,  -1.08753E-03,  -10.6691E-03,      -1.08278,0.0392227,0.0603241,-0.00120769
23498,-5.0,-27.0,0.0,  -1.35893E-03,  -10.6226E-03,      -1.08030,0.0392605,0.0601103,-0.00151013
23501,-6.0,-27.0,0.0,  -1.62997E-03,  -10.5656E-03,      -1.07726,0.0393069,0.0598486,-0.00181289
23502,-7.0,-27.0,0.0,  -1.90055E-03,  -10.4979E-03,      -1.07364,0.039362,0.0595386,-0.00211598
23507,-8.0,-27.0,0.0,  -2.17053E-03,  -10.4194E-03,      -1.06944,0.0394261,0.0591801,-0.0024194
23508,-9.0,-27.0,0.0,  -2.43975E-03,  -10.3300E-03,      -1.06463,0.0394992,0.0587727,-0.00272314
23513,-10.0,-27.0,0.0,  -2.70804E-03,  -10.2294E-03,      -1.05922,0.0395816,0.0583159,-0.00302714
23516,-11.0,-27.0,0.0,  -2.97517E-03,  -10.1176E-03,      -1.05317,0.0396735,0.0578094,-0.00333129
23517,-12.0,-27.0,0.0,  -3.24089E-03,  -9.99434E-03,      -1.04648,0.0397753,0.0572529,-0.00363544
23522,-13.0,-27.0,0.0,  -3.50489E-03,  -9.85938E-03,      -1.03912,0.0398871,0.0566457,-0.00393939
23523,-14.0,-27.0,0.0,  -3.76680E-03,  -9.71256E-03,      -1.03107,0.0400093,0.0559876,-0.00424286
23528,-15.0,-27.0,0.0,  -4.02623E-03,  -9.55368E-03,      -1.02231,0.0401423,0.0552781,-0.00454549
23531,-16.0,-27.0,0.0,  -4.28267E-03,  -9.38256E-03,      -1.01280,0.0402864,0.0545169,-0.00484683
23532,-17.0,-27.0,0.0,  -4.53557E-03,  -9.19904E-03,      -1.00253,0.040442,0.0537035,-0.00514633
23537,-18.0,-27.0,0.0,  -4.78428E-03,  -9.00295E-03,  -991.464E-03,0.0406094,0.0528379,-0.00544329
23538,-19.0,-27.0,0.0,  -5.02806E-03,  -8.79418E-03,  -979.563E-03,0.0407892,0.0519197,-0.00573688
23543,-20.0,-27.0,0.0,  -5.26606E-03,  -8.57264E-03,  -966.796E-03,0.0409816,0.0509489,-0.00602612
23546,-21.0,-27.0,0.0,  -5.49729E-03,  -8.33828E-03,  -953.125E-03,0.0411871,0.0499255,-0.00630982
23547,-22.0,-27.0,0.0,  -5.72066E-03,  -8.09111E-03,  -938.510E-03,0.0414062,0.0488499,-0.00658661
23552,-23.0,-27.0,0.0,  -5.93488E-03,  -7.83122E-03,  -922.910E-03,0.041639,0.0477224,-0.00685487
23553,-24.0,-27.0,0.0,  -6.13854E-03,  -7.55874E-03,  -906.277E-03,0.0418859,0.0465437,-0.00711277
23558,-25.0,-27.0,0.0,  -6.33000E-03,  -7.27393E-03,  -888.566E-03,0.0421471,0.0453148,-0.00735817
23561,-26.0,-27.0,0.0,  -6.50744E-03,  -6.97712E-03,  -869.725E-03,0.0424226,0.0440372,-0.0075887
23562,-27.0,-27.0,0.0,  -6.66877E-03,  -6.66877E-03,  -849.700E-03,0.0427125,0.0427125,-0.00780166
23567,-28.0,-27.0,0.0,  -6.81169E-03,  -6.34948E-03,  -828.437E-03,0.0430163,0.041343,-0.00799409
23568,-29.0,-27.0,0.0,  -6.93358E-03,  -6.01998E-03,  -805.876E-03,0.0433338,0.0399316,-0.00816271
23573,-30.0,-27.0,0.0,  -7.03154E-03,  -5.68118E-03,  -781.955E-03,0.0436642,0.0384818,-0.00830401
23576,-31.0,-27.0,0.0,  -7.10233E-03,  -5.33413E-03,  -756.613E-03,0.0440064,0.0369979,-0.00841421
23577,-32.0,-27.0,0.0,  -7.14234E-03,  -4.98010E-03,  -729.782E-03,0.0443592,0.0354849,-0.00848939
23582,-33.0,-27.0,0.0,  -7.14760E-03,  -4.62055E-03,  -701.394E-03,0.0447208,0.0339491,-0.00852549
23583,-34.0,-27.0,0.0,  -7.11373E-03,  -4.25712E-03,  -671.381E-03,0.0450891,0.0323972,-0.00851844
23588,-35.0,-27.0,0.0,  -7.03593E-03,  -3.89168E-03,  -639.672E-03,0.0454615,0.0308376,-0.00846428
23591,-36.0,-27.0,0.0,  -6.90898E-03,  -3.52629E-03,  -606.195E-03,0.0458346,0.0292792,-0.00835931
23592,-37.0,-27.0,0.0,  -6.72722E-03,  -3.16323E-03,  -570.880E-03,0.0462042,0.0277321,-0.00820027
23597,-38.0,-27.0,0.0,  -6.48458E-03,  -2.80492E-03,  -533.656E-03,0.0465643,0.0262068,-0.0079846
23598,-39.0,-27.0,0.0,  -6.17461E-03,  -2.45400E-03,  -494.455E-03,0.046906,0.0247142,-0.00771079
23603,-40.0,-27.0,0.0,  -5.79056E-03,  -2.11322E-03,  -453.215E-03,0.0472138,0.0232638,-0.00737876
23606,-41.0,-27.0,0.0,  -5.32555E-03,  -1.78547E-03,  -409.879E-03,0.047458,0.0218613,-0.00699075
23607,-42.0,-27.0,0.0,  -4.77297E-03,  -1.47377E-03,  -364.409E-03,0.0475775,0.0205035,-0.00655212
23612,-43.0,-27.0,0.0,  -4.12732E-03,  -1.18122E-03,  -316.793E-03,0.0474403,0.0191652,-0.00607351
23613,-44.0,-27.0,0.0,  -3.38614E-03,  -911.138E-06,  -267.088E-03,0.0467528,0.0177725,-0.00557226
23618,-45.0,-27.0,0.0,  -2.55442E-03,  -667.100E-06,  -215.487E-03,0.0448509,0.0161402,-0.00507595
23621,-46.0,-27.0,0.0,  -1.65470E-03,  -453.238E-06,  -162.497E-03,0.0402196,0.0138285,-0.0046177
23622,-47.0,-27.0,0.0,  -749.160E-06,  -274.563E-06,  -109.324E-03,0.0293849,0.0098149,-0.00422065
23627,-48.0,-27.0,0.0,   17.0814E-06,  -137.065E-06,  -58.7821E-03,0.00436087,0.00173203,-0.00380737
23628,-49.0,-27.0,0.0,   362.178E-06,  -46.1162E-06,  -17.3595E-03,-0.0532091,-0.0158847,-0.00294278
23633,-50.0,-27.0,0.0,   1.98837E-39,  -630.247E-42,           -0.,-0.0933284,-0.0280038,-0.00147599
23636,50.0,-28.0,0.0,  -1.91138E-39,  -605.956E-42,           -0.,-0.0919881,-0.0276019,0.00149125
23637,49.0,-28.0,0.0,  -349.054E-06,  -46.1510E-06,  -16.9855E-03,-0.0531111,-0.0158734,0.00303909
23642,48.0,-28.0,0.0,  -16.9159E-06,  -139.181E-06,  -57.6197E-03,0.00297562,0.00129374,0.00396594
23643,47.0,-28.0,0.0,   727.694E-06,  -281.090E-06,  -107.346E-03,0.0277842,0.00932342,0.00441239
23648,46.0,-28.0,0.0,   1.61102E-03,  -466.318E-06,  -159.734E-03,0.0387118,0.0133903,0.00483566
23651,45.0,-28.0,0.0,   2.48916E-03,  -688.455E-06,  -211.949E-03,0.0434618,0.0157741,0.00532087
23652,44.0,-28.0,0.0,   3.29946E-03,  -942.033E-06,  -262.756E-03,0.0454443,0.0174756,0.00584514
23657,43.0,-28.0,0.0,   4.01897E-03,  -1.22250E-03,  -311.628E-03,0.0461731,0.0189319,0.00637329
23658,42.0,-28.0,0.0,   4.64264E-03,  -1.52589E-03,  -358.365E-03,0.0463236,0.0203293,0.00687552
23663,41.0,-28.0,0.0,   5.17314E-03,  -1.84858E-03,  -402.911E-03,0.0462002,0.0217434,0.00733285
23666,40.0,-28.0,0.0,   5.61632E-03,  -2.18715E-03,  -445.277E-03,0.0459427,0.0231994,0.0077338
23667,39.0,-28.0,0.0,   5.97919E-03,  -2.53836E-03,  -485.511E-03,0.0456171,0.0247007,0.00807277
23672,38.0,-28.0,0.0,   6.26897E-03,  -2.89912E-03,  -523.676E-03,0.0452562,0.0262412,0.00834777
23673,37.0,-28.0,0.0,   6.49276E-03,  -3.26651E-03,  -559.843E-03,0.0448774,0.0278108,0.00855941
23678,36.0,-28.0,0.0,   6.65726E-03,  -3.63780E-03,  -594.088E-03,0.044491,0.0293984,0.00870993
23681,35.0,-28.0,0.0,   6.76876E-03,  -4.01045E-03,  -626.489E-03,0.0441035,0.030993,0.0088027
23682,34.0,-28.0,0.0,   6.83305E-03,  -4.38217E-03,  -657.124E-03,0.0437196,0.0325845,0.0088418
23687,33.0,-28.0,0.0,   6.85543E-03,  -4.75087E-03,  -686.071E-03,0.0433428,0.0341639,0.0088317
23688,32.0,-28.0,0.0,   6.84074E-03,  -5.11472E-03,  -713.407E-03,0.0429758,0.0357232,0.00877707
23693,31.0,-28.0,0.0,   6.79334E-03,  -5.47207E-03,  -739.206E-03,0.0426207,0.0372557,0.00868259
23696,30.0,-28.0,0.0,   6.71717E-03,  -5.82155E-03,  -763.541E-03,0.0422789,0.0387556,0.00855283
23697,29.0,-28.0,0.0,   6.61576E-03,  -6.16194E-03,  -786.480E-03,0.0419515,0.0402181,0.00839215
23702,28.0,-28.0,0.0,   6.49227E-03,  -6.49227E-03,  -808.091E-03,0.0416394,0.0416394,0.00820465
23703,27.0,-28.0,0.0,   6.34948E-03,  -6.81169E-03,  -828.437E-03,0.041343,0.0430163,0.00799409
23708,26.0,-28.0,0.0,   6.18991E-03,  -7.11956E-03,  -847.578E-03,0.0410623,0.0443463,0.00776391
23711,25.0,-28.0,0.0,   6.01575E-03,  -7.41537E-03,  -865.573E-03,0.0407974,0.0456275,0.00751719
23712,24.0,-28.0,0.0,   5.82896E-03,  -7.69874E-03,  -882.475E-03,0.040548,0.0468583,0.00725669
23717,23.0,-28.0,0.0,   5.63125E-03,  -7.96939E-03,  -898.336E-03,0.0403138,0.0480378,0.00698482
23718,22.0,-28.0,0.0,   5.42414E-03,  -8.22715E-03,  -913.203E-03,0.0400944,0.0491651,0.00670368
23723,21.0,-28.0,0.0,   5.20895E-03,  -8.47194E-03,  -927.121E-03,0.0398892,0.0502397,0.0064151
23726,20.0,-28.0,0.0,   4.98684E-03,  -8.70375E-03,  -940.134E-03,0.0396978,0.0512615,0.00612063
23727,19.0,-28.0,0.0,   4.75883E-03,  -8.92261E-03,  -952.281E-03,0.0395195,0.0522303,0.00582158
23732,18.0,-28.0,0.0,   4.52581E-03,  -9.12863E-03,  -963.599E-03,0.0393539,0.0531462,0.00551908
23733,17.0,-28.0,0.0,   4.28854E-03,  -9.32193E-03,  -974.122E-03,0.0392003,0.0540094,0.00521405
23738,16.0,-28.0,0.0,   4.04770E-03,  -9.50268E-03,  -983.883E-03,0.0390583,0.0548202,0.00490723
23741,15.0,-28.0,0.0,   3.80385E-03,  -9.67106E-03,  -992.911E-03,0.0389273,0.0555788,0.00459926
23742,14.0,-28.0,0.0,   3.55751E-03,  -9.82728E-03,      -1.00123,0.0388069,0.0562856,0.00429062
23747,13.0,-28.0,0.0,   3.30909E-03,  -9.97153E-03,      -1.00888,0.0386966,0.0569412,0.00398171
23748,12.0,-28.0,0.0,   3.05896E-03,  -10.1040E-03,      -1.01586,0.038596,0.0575459,0.00367281
23753,11.0,-28.0,0.0,   2.80743E-03,  -10.2250E-03,      -1.02222,0.0385048,0.0581002,0.00336416
23756,10.0,-28.0,0.0,   2.55477E-03,  -10.3347E-03,      -1.02795,0.0384226,0.0586046,0.0030559
23757,9.0,-28.0,0.0,   2.30120E-03,  -10.4332E-03,      -1.03309,0.0383491,0.0590594,0.00274813
23762,8.0,-28.0,0.0,   2.04689E-03,  -10.5208E-03,      -1.03765,0.038284,0.0594651,0.00244092
23763,7.0,-28.0,0.0,   1.79202E-03,  -10.5977E-03,      -1.04163,0.0382271,0.0598221,0.00213428
23768,6.0,-28.0,0.0,   1.53669E-03,  -10.6640E-03,      -1.04507,0.0381782,0.0601307,0.00182819
23771,5.0,-28.0,0.0,   1.28102E-03,  -10.7198E-03,      -1.04795,0.0381372,0.0603912,0.00152262
23772,4.0,-28.0,0.0,   1.02509E-03,  -10.7653E-03,      -1.05030,0.0381038,0.060604,0.00121751
23777,3.0,-28.0,0.0,   768.965E-06,  -10.8006E-03,      -1.05212,0.0380779,0.0607693,0.000912778
23778,2.0,-28.0,0.0,   512.712E-06,  -10.8258E-03,      -1.05342,0.0380595,0.0608872,0.000608349
23783,1.0,-28.0,0.0,   256.376E-06,  -10.8408E-03,      -1.05419,0.0380485,0.0609579,0.000304123
23786,0.0,-28.0,0.0,   3.04138E-15,  -10.8458E-03,      -1.05445,0.0380448,0.0609814,0.0
23787,-1.0,-28.0,0.0,  -256.376E-06,  -10.8408E-03,      -1.05419,0.0380485,0.0609579,-0.000304123
23792,-2.0,-28.0,0.0,  -512.712E-06,  -10.8258E-03,      -1.05342,0.0380595,0.0608872,-0.000608349
23793,-3.0,-28.0,0.0,  -768.965E-06,  -10.8006E-03,      -1.05212,0.0380779,0.0607693,-0.000912778
23798,-4.0,-28.0,0.0,  -1.02509E-03,  -10.7653E-03,      -1.05030,0.0381038,0.060604,-0.00121751
23801,-5.0,-28.0,0.0,  -1.28102E-03,  -10.7198E-03,      -1.04795,0.0381372,0.0603912,-0.00152262
23802,-6.0,-28.0,0.0,  -1.53669E-03,  -10.6640E-03,      -1.04507,0.0381782,0.0601307,-0.00182819
23807,-7.0,-28.0,0.0,  -1.79202E-03,  -10.5977E-03,      -1.04163,0.0382271,0.0598221,-0.00213428
23808,-8.0,-28.0,0.0,  -2.04689E-03,  -10.5208E-03,      -1.03765,0.038284,0.0594651,-0.00244092
23813,-9.0,-28.0,0.0,  -2.30120E-03,  -10.4332E-03,      -1.03309,0.0383491,0.0590594,-0.00274813
23816,-10.0,-28.0,0.0,  -2.55477E-03,  -10.3347E-03,      -1.02795,0.0384226,0.0586046,-0.0030559
23817,-11.0,-28.0,0.0,  -2.80743E-03,  -10.2250E-03,      -1.02222,0.0385048,0.0581002,-0.00336416
23822,-12.0,-28.0,0.0,  -3.05896E-03,  -10.1040E-03,      -1.01586,0.038596,0.0575459,-0.00367281
23823,-13.0,-28.0,0.0,  -3.30909E-03,  -9.97153E-03,      -1.00888,0.0386966,0.0569412,-0.00398171
23828,-14.0,-28.0,0.0,  -3.55751E-03,  -9.82728E-03,      -1.00123,0.0388069,0.0562856,-0.00429062
23831,-15.0,-28.0,0.0,  -3.80385E-03,  -9.67106E-03,  -992.911E-03,0.0389273,0.0555788,-0.00459926
23832,-16.0,-28.0,0.0,  -4.04770E-03,  -9.50268E-03,  -983.883E-03,0.0390583,0.0548202,-0.00490723
23837,-17.0,-28.0,0.0,  -4.28854E-03,  -9.32193E-03,  -974.122E-03,0.0392003,0.0540094,-0.00521405
23838,-18.0,-28.0,0.0,  -4.52581E-03,  -9.12863E-03,  -963.599E-03,0.0393539,0.0531462,-0.00551908
23843,-19.0,-28.0,0.0,  -4.75883E-03,  -8.92261E-03,  -952.281E-03,0.0395195,0.0522303,-0.00582158
23846,-20.0,-28.0,0.0,  -4.98684E-03,  -8.70375E-03,  -940.134E-03,0.0396978,0.0512615,-0.00612063
23847,-21.0,-28.0,0.0,  -5.20895E-03,  -8.47194E-03,  -927.121E-03,0.0398892,0.0502397,-0.0064151
23852,-22.0,-28.0,0.0,  -5.42414E-03,  -8.22715E-03,  -913.203E-03,0.0400944,0.0491651,-0.00670368
23853,-23.0,-28.0,0.0,  -5.63125E-03,  -7.96939E-03,  -898.336E-03,0.0403138,0.0480378,-0.00698482
23858,-24.0,-28.0,0.0,  -5.82896E-03,  -7.69874E-03,  -882.475E-03,0.040548,0.0468583,-0.00725669
23861,-25.0,-28.0,0.0,  -6.01575E-03,  -7.41537E-03,  -865.573E-03,0.0407974,0.0456275,-0.00751719
23862,-26.0,-28.0,0.0,  -6.18991E-03,  -7.11956E-03,  -847.578E-03,0.0410623,0.0443463,-0.00776391
23867,-27.0,-28.0,0.0,  -6.34948E-03,  -6.81169E-03,  -828.437E-03,0.041343,0.0430163,-0.00799409
23868,-28.0,-28.0,0.0,  -6.49227E-03,  -6.49227E-03,  -808.091E-03,0.0416394,0.0416394,-0.00820465
23873,-29.0,-28.0,0.0,  -6.61576E-03,  -6.16194E-03,  -786.480E-03,0.0419515,0.0402181,-0.00839215
23876,-30.0,-28.0,0.0,  -6.71717E-03,  -5.82155E-03,  -763.541E-03,0.0422789,0.0387556,-0.00855283
23877,-31.0,-28.0,0.0,  -6.79334E-03,  -5.47207E-03,  -739.206E-03,0.0426207,0.0372557,-0.00868259
23882,-32.0,-28.0,0.0,  -6.84074E-03,  -5.11472E-03,  -713.407E-03,0.0429758,0.0357232,-0.00877707
23883,-33.0,-28.0,0.0,  -6.85543E-03,  -4.75087E-03,  -686.071E-03,0.0433428,0.0341639,-0.0088317
23888,-34.0,-28.0,0.0,  -6.83305E-03,  -4.38217E-03,  -657.124E-03,0.0437196,0.0325845,-0.0088418
23891,-35.0,-28.0,0.0,  -6.76876E-03,  -4.01045E-03,  -626.489E-03,0.0441035,0.030993,-0.0088027
23892,-36.0,-28.0,0.0,  -6.65726E-03,  -3.63780E-03,  -594.088E-03,0.044491,0.0293984,-0.00870993
23897,-37.0,-28.0,0.0,  -6.49276E-03,  -3.26651E-03,  -559.843E-03,0.0448774,0.0278108,-0.00855941
23898,-38.0,-28.0,0.0,  -6.26897E-03,  -2.89912E-03,  -523.676E-03,0.0452562,0.0262412,-0.00834777
23903,-39.0,-28.0,0.0,  -5.97919E-03,  -2.53836E-03,  -485.511E-03,0.0456171,0.0247007,-0.00807277
23904,-40.0,-28.0,0.0,  -5.61632E-03,  -2.18715E-03,  -445.277E-03,0.0459427,0.0231994,-0.0077338
23909,-41.0,-28.0,0.0,  -5.17314E-03,  -1.84858E-03,  -402.911E-03,0.0462002,0.0217434,-0.00733285
23910,-42.0,-28.0,0.0,  -4.64264E-03,  -1.52589E-03,  -358.365E-03,0.0463236,0.0203293,-0.00687552
23915,-43.0,-28.0,0.0,  -4.01897E-03,  -1.22250E-03,  -311.628E-03,0.0461731,0.0189319,-0.00637329
23918,-44.0,-28.0,0.0,  -3.29946E-03,  -942.033E-06,  -262.756E-03,0.0454443,0.0174756,-0.00584514
23919,-45.0,-28.0,0.0,  -2.48916E-03,  -688.455E-06,  -211.949E-03,0.0434618,0.0157741,-0.00532087
23924,-46.0,-28.0,0.0,  -1.61102E-03,  -466.318E-06,  -159.734E-03,0.0387118,0.0133903,-0.00483566
23925,-47.0,-28.0,0.0,  -727.694E-06,  -281.090E-06,  -107.346E-03,0.0277842,0.00932342,-0.00441239
23930,-48.0,-28.0,0.0,   16.9159E-06,  -139.181E-06,  -57.6197E-03,0.00297562,0.00129374,-0.00396594
23933,-49.0,-28.0,0.0,   349.054E-06,  -46.1510E-06,  -16.9855E-03,-0.0531111,-0.0158734,-0.00303909
23934,-50.0,-28.0,0.0,   1.91138E-39,  -605.956E-42,           -0.,-0.0919881,-0.0276019,-0.00149125
23939,50.0,-29.0,0.0,  -1.83037E-39,  -580.066E-42,           -0.,-0.0905647,-0.0271752,0.00149861
23940,49.0,-29.0,0.0,  -335.219E-06,  -45.8669E-06,  -16.5915E-03,-0.0529809,-0.015855,0.00313127
23945,48.0,-29.0,0.0,  -16.3869E-06,  -140.713E-06,  -56.3909E-03,0.00155208,0.00084024,0.00412555
23948,47.0,-29.0,0.0,   705.472E-06,  -286.853E-06,  -105.248E-03,0.026123,0.00881107,0.00460888
23949,46.0,-29.0,0.0,   1.56518E-03,  -478.540E-06,  -156.796E-03,0.0371436,0.0129345,0.00506093
23954,45.0,-29.0,0.0,   2.42028E-03,  -708.914E-06,  -208.179E-03,0.0420189,0.0153973,0.00557504
23955,44.0,-29.0,0.0,   3.20768E-03,  -971.999E-06,  -258.132E-03,0.0440882,0.0171757,0.00612869
23960,43.0,-29.0,0.0,   3.90407E-03,  -1.26276E-03,  -306.110E-03,0.0448617,0.0187029,0.00668457
23963,42.0,-29.0,0.0,   4.50435E-03,  -1.57681E-03,  -351.903E-03,0.0450263,0.0201662,0.00721045
23964,41.0,-29.0,0.0,   5.01145E-03,  -1.91014E-03,  -395.454E-03,0.0448981,0.021642,0.00768568
23969,40.0,-29.0,0.0,   5.43161E-03,  -2.25904E-03,  -436.780E-03,0.0446252,0.0231561,0.0080979
23970,39.0,-29.0,0.0,   5.77224E-03,  -2.61999E-03,  -475.935E-03,0.0442795,0.0247118,0.00844139
23975,38.0,-29.0,0.0,   6.04100E-03,  -2.98970E-03,  -512.991E-03,0.0438971,0.0263025,0.00871456
23978,37.0,-29.0,0.0,   6.24531E-03,  -3.36511E-03,  -548.029E-03,0.0434979,0.0279178,0.00891878
23979,36.0,-29.0,0.0,   6.39215E-03,  -3.74337E-03,  -581.134E-03,0.0430933,0.0295462,0.00905723
23984,35.0,-29.0,0.0,   6.48800E-03,  -4.12190E-03,  -612.392E-03,0.0426908,0.0311767,0.00913425
23985,34.0,-29.0,0.0,   6.53876E-03,  -4.49837E-03,  -641.890E-03,0.0422955,0.0327991,0.0091549
23990,33.0,-29.0,0.0,   6.54982E-03,  -4.87072E-03,  -669.712E-03,0.041911,0.0344046,0.00912454
23993,32.0,-29.0,0.0,   6.52601E-03,  -5.23714E-03,  -695.942E-03,0.0415398,0.0359856,0.00904861
23994,31.0,-29.0,0.0,   6.47166E-03,  -5.59607E-03,  -720.659E-03,0.0411839,0.0375356,0.00893248
23999,30.0,-29.0,0.0,   6.39065E-03,  -5.94619E-03,  -743.939E-03,0.0408445,0.0390494,0.00878123
24000,29.0,-29.0,0.0,   6.28639E-03,  -6.28639E-03,  -765.857E-03,0.0405225,0.0405225,0.00859966
24005,28.0,-29.0,0.0,   6.16194E-03,  -6.61576E-03,  -786.480E-03,0.0402181,0.0419515,0.00839215
24008,27.0,-29.0,0.0,   6.01998E-03,  -6.93358E-03,  -805.876E-03,0.0399316,0.0433338,0.00816271
24009,26.0,-29.0,0.0,   5.86288E-03,  -7.23929E-03,  -824.105E-03,0.0396626,0.0446672,0.0079149
24014,25.0,-29.0,0.0,   5.69270E-03,  -7.53246E-03,  -841.228E-03,0.0394108,0.04595,0.00765187
24015,24.0,-29.0,0.0,   5.51127E-03,  -7.81279E-03,  -857.298E-03,0.0391756,0.0471812,0.00737641
24020,23.0,-29.0,0.0,   5.32018E-03,  -8.08010E-03,  -872.366E-03,0.0389564,0.0483599,0.0070909
24023,22.0,-29.0,0.0,   5.12083E-03,  -8.33430E-03,  -886.482E-03,0.0387526,0.0494857,0.00679741
24024,21.0,-29.0,0.0,   4.91442E-03,  -8.57536E-03,  -899.691E-03,0.0385633,0.0505582,0.00649769
24029,20.0,-29.0,0.0,   4.70202E-03,  -8.80334E-03,  -912.033E-03,0.0383879,0.0515774,0.00619323
24030,19.0,-29.0,0.0,   4.48454E-03,  -9.01832E-03,  -923.548E-03,0.0382256,0.0525433,0.00588526
24035,18.0,-29.0,0.0,   4.26278E-03,  -9.22046E-03,  -934.274E-03,0.0380757,0.0534561,0.0055748
24038,17.0,-29.0,0.0,   4.03743E-03,  -9.40993E-03,  -944.242E-03,0.0379375,0.0543161,0.0052627
24039,16.0,-29.0,0.0,   3.80907E-03,  -9.58693E-03,  -953.485E-03,0.0378104,0.0551236,0.00494962
24044,15.0,-29.0,0.0,   3.57823E-03,  -9.75167E-03,  -962.032E-03,0.0376937,0.0558791,0.0046361
24045,14.0,-29.0,0.0,   3.34532E-03,  -9.90439E-03,  -969.910E-03,0.037587,0.0565829,0.00432256
24050,13.0,-29.0,0.0,   3.11074E-03,  -10.0453E-03,  -977.142E-03,0.0374896,0.0572356,0.00400932
24053,12.0,-29.0,0.0,   2.87478E-03,  -10.1747E-03,  -983.752E-03,0.0374012,0.0578375,0.00369661
24054,11.0,-29.0,0.0,   2.63773E-03,  -10.2927E-03,  -989.761E-03,0.0373213,0.0583893,0.00338459
24059,10.0,-29.0,0.0,   2.39979E-03,  -10.3997E-03,  -995.186E-03,0.0372495,0.0588912,0.00307336
24060,9.0,-29.0,0.0,   2.16117E-03,  -10.4957E-03,      -1.00004,0.0371856,0.0593439,0.00276296
24065,8.0,-29.0,0.0,   1.92200E-03,  -10.5811E-03,      -1.00435,0.0371291,0.0597477,0.00245342
24068,7.0,-29.0,0.0,   1.68241E-03,  -10.6560E-03,      -1.00812,0.0370798,0.0601029,0.00214469
24069,6.0,-29.0,0.0,   1.44251E-03,  -10.7205E-03,      -1.01137,0.0370376,0.0604101,0.00183674
24074,5.0,-29.0,0.0,   1.20238E-03,  -10.7748E-03,      -1.01409,0.0370022,0.0606694,0.00152948
24075,4.0,-29.0,0.0,   962.074E-06,  -10.8191E-03,      -1.01632,0.0369734,0.0608812,0.00122283
24080,3.0,-29.0,0.0,   721.648E-06,  -10.8535E-03,      -1.01804,0.0369512,0.0610456,0.000916673
24083,2.0,-29.0,0.0,   481.140E-06,  -10.8779E-03,      -1.01926,0.0369353,0.061163,0.000610899
24084,1.0,-29.0,0.0,   240.582E-06,  -10.8926E-03,      -1.01999,0.0369259,0.0612333,0.000305384
24089,0.0,-29.0,0.0,   4.95901E-15,  -10.8975E-03,      -1.02024,0.0369227,0.0612568,0.0
24090,-1.0,-29.0,0.0,  -240.582E-06,  -10.8926E-03,      -1.01999,0.0369259,0.0612333,-0.000305384
24095,-2.0,-29.0,0.0,  -481.140E-06,  -10.8779E-03,      -1.01926,0.0369353,0.061163,-0.000610899
24098,-3.0,-29.0,0.0,  -721.648E-06,  -10.8535E-03,      -1.01804,0.0369512,0.0610456,-0.000916673
24099,-4.0,-29.0,0.0,  -962.074E-06,  -10.8191E-03,      -1.01632,0.0369734,0.0608812,-0.00122283
24104,-5.0,-29.0,0.0,  -1.20238E-03,  -10.7748E-03,      -1.01409,0.0370022,0.0606694,-0.00152948
24105,-6.0,-29.0,0.0,  -1.44251E-03,  -10.7205E-03,      -1.01137,0.0370376,0.0604101,-0.00183674
24110,-7.0,-29.0,0.0,  -1.68241E-03,  -10.6560E-03,      -1.00812,0.0370798,0.0601029,-0.00214469
24113,-8.0,-29.0,0.0,  -1.92200E-03,  -10.5811E-03,      -1.00435,0.0371291,0.0597477,-0.00245342
24114,-9.0,-29.0,0.0,  -2.16117E-03,  -10.4957E-03,      -1.00004,0.0371856,0.0593439,-0.00276296
24119,-10.0,-29.0,0.0,  -2.39979E-03,  -10.3997E-03,  -995.186E-03,0.0372495,0.0588912,-0.00307336
24120,-11.0,-29.0,0.0,  -2.63773E-03,  -10.2927E-03,  -989.761E-03,0.0373213,0.0583893,-0.00338459
24125,-12.0,-29.0,0.0,  -2.87478E-03,  -10.1747E-03,  -983.752E-03,0.0374012,0.0578375,-0.00369661
24128,-13.0,-29.0,0.0,  -3.11074E-03,  -10.0453E-03,  -977.142E-03,0.0374896,0.0572356,-0.00400932
24129,-14.0,-29.0,0.0,  -3.34532E-03,  -9.90439E-03,  -969.910E-03,0.037587,0.0565829,-0.00432256
24134,-15.0,-29.0,0.0,  -3.57823E-03,  -9.75167E-03,  -962.032E-03,0.0376937,0.0558791,-0.0046361
24135,-16.0,-29.0,0.0,  -3.80907E-03,  -9.58693E-03,  -953.485E-03,0.0378104,0.0551236,-0.00494962
24140,-17.0,-29.0,0.0,  -4.03743E-03,  -9.40993E-03,  -944.242E-03,0.0379375,0.0543161,-0.0052627
24143,-18.0,-29.0,0.0,  -4.26278E-03,  -9.22046E-03,  -934.274E-03,0.0380757,0.0534561,-0.0055748
24144,-19.0,-29.0,0.0,  -4.48454E-03,  -9.01832E-03,  -923.548E-03,0.0382256,0.0525433,-0.00588526
24149,-20.0,-29.0,0.0,  -4.70202E-03,  -8.80334E-03,  -912.033E-03,0.0383879,0.0515774,-0.00619323
24150,-21.0,-29.0,0.0,  -4.91442E-03,  -8.57536E-03,  -899.691E-03,0.0385633,0.0505582,-0.0064977
24155,-22.0,-29.0,0.0,  -5.12083E-03,  -8.33430E-03,  -886.482E-03,0.0387526,0.0494857,-0.00679741
24158,-23.0,-29.0,0.0,  -5.32018E-03,  -8.08010E-03,  -872.366E-03,0.0389564,0.0483599,-0.0070909
24159,-24.0,-29.0,0.0,  -5.51127E-03,  -7.81279E-03,  -857.298E-03,0.0391756,0.0471812,-0.00737641
24164,-25.0,-29.0,0.0,  -5.69270E-03,  -7.53246E-03,  -841.228E-03,0.0394108,0.04595,-0.00765187
24165,-26.0,-29.0,0.0,  -5.86288E-03,  -7.23929E-03,  -824.105E-03,0.0396626,0.0446672,-0.0079149
24170,-27.0,-29.0,0.0,  -6.01998E-03,  -6.93358E-03,  -805.876E-03,0.0399316,0.0433338,-0.00816271
24173,-28.0,-29.0,0.0,  -6.16194E-03,  -6.61576E-03,  -786.480E-03,0.0402181,0.0419515,-0.00839215
24174,-29.0,-29.0,0.0,  -6.28639E-03,  -6.28639E-03,  -765.857E-03,0.0405225,0.0405225,-0.00859966
24179,-30.0,-29.0,0.0,  -6.39065E-03,  -5.94619E-03,  -743.939E-03,0.0408445,0.0390494,-0.00878123
24180,-31.0,-29.0,0.0,  -6.47166E-03,  -5.59607E-03,  -720.659E-03,0.0411839,0.0375356,-0.00893248
24185,-32.0,-29.0,0.0,  -6.52601E-03,  -5.23714E-03,  -695.942E-03,0.0415398,0.0359856,-0.00904861
24188,-33.0,-29.0,0.0,  -6.54982E-03,  -4.87072E-03,  -669.712E-03,0.041911,0.0344046,-0.00912454
24189,-34.0,-29.0,0.0,  -6.53876E-03,  -4.49837E-03,  -641.890E-03,0.0422955,0.0327991,-0.0091549
24194,-35.0,-29.0,0.0,  -6.48800E-03,  -4.12190E-03,  -612.392E-03,0.0426908,0.0311767,-0.00913425
24195,-36.0,-29.0,0.0,  -6.39215E-03,  -3.74337E-03,  -581.134E-03,0.0430933,0.0295462,-0.00905723
24200,-37.0,-29.0,0.0,  -6.24531E-03,  -3.36511E-03,  -548.029E-03,0.0434979,0.0279178,-0.00891878
24203,-38.0,-29.0,0.0,  -6.04100E-03,  -2.98970E-03,  -512.991E-03,0.0438971,0.0263025,-0.00871456
24204,-39.0,-29.0,0.0,  -5.77224E-03,  -2.61999E-03,  -475.935E-03,0.0442795,0.0247118,-0.00844139
24209,-40.0,-29.0,0.0,  -5.43161E-03,  -2.25904E-03,  -436.780E-03,0.0446252,0.0231561,-0.0080979
24210,-41.0,-29.0,0.0,  -5.01145E-03,  -1.91014E-03,  -395.454E-03,0.0448981,0.021642,-0.00768568
24215,-42.0,-29.0,0.0,  -4.50435E-03,  -1.57681E-03,  -351.903E-03,0.0450263,0.0201662,-0.00721045
24218,-43.0,-29.0,0.0,  -3.90407E-03,  -1.26276E-03,  -306.110E-03,0.0448617,0.0187029,-0.00668457
24219,-44.0,-29.0,0.0,  -3.20768E-03,  -971.999E-06,  -258.132E-03,0.0440882,0.0171757,-0.00612869
24224,-45.0,-29.0,0.0,  -2.42028E-03,  -708.914E-06,  -208.179E-03,0.0420189,0.0153973,-0.00557504
24225,-46.0,-29.0,0.0,  -1.56518E-03,  -478.540E-06,  -156.796E-03,0.0371436,0.0129345,-0.00506093
24230,-47.0,-29.0,0.0,  -705.472E-06,  -286.853E-06,  -105.248E-03,0.026123,0.00881107,-0.00460888
24233,-48.0,-29.0,0.0,   16.3869E-06,  -140.713E-06,  -56.3909E-03,0.00155208,0.00084024,-0.00412555
24234,-49.0,-29.0,0.0,   335.219E-06,  -45.8669E-06,  -16.5915E-03,-0.0529809,-0.015855,-0.00313127
24239,-50.0,-29.0,0.0,   1.83037E-39,  -580.066E-42,           -0.,-0.0905647,-0.0271752,-0.00149861
24240,50.0,-30.0,0.0,  -1.74516E-39,  -552.466E-42,           -0.,-0.0890541,-0.0267223,0.00149694
24245,49.0,-30.0,0.0,  -320.631E-06,  -45.2196E-06,  -16.1765E-03,-0.0528142,-0.0158286,0.00321861
24248,48.0,-30.0,0.0,  -15.4100E-06,  -141.580E-06,  -55.0922E-03,9.34759e-05,0.000372349,0.00428625
24249,47.0,-30.0,0.0,   682.554E-06,  -291.734E-06,  -103.022E-03,0.0244024,0.00827855,0.00481086
24254,46.0,-30.0,0.0,   1.51717E-03,  -489.761E-06,  -153.669E-03,0.0355156,0.0124623,0.0052947
24255,45.0,-30.0,0.0,   2.34764E-03,  -728.309E-06,  -204.159E-03,0.0405231,0.015012,0.0058399
24260,44.0,-30.0,0.0,   3.11057E-03,  -1.00083E-03,  -253.194E-03,0.0426856,0.0168764,0.0064244
24263,43.0,-30.0,0.0,   3.78227E-03,  -1.30176E-03,  -300.210E-03,0.0435073,0.0184831,0.00700865
24264,42.0,-30.0,0.0,   4.35767E-03,  -1.62620E-03,  -344.986E-03,0.0436868,0.0200198,0.00755785
24269,41.0,-30.0,0.0,   4.83999E-03,  -1.96974E-03,  -387.467E-03,0.0435524,0.0215635,0.00804958
24270,40.0,-30.0,0.0,   5.23591E-03,  -2.32832E-03,  -427.676E-03,0.0432618,0.0231404,0.0084707
24275,39.0,-30.0,0.0,   5.55331E-03,  -2.69816E-03,  -465.673E-03,0.0428931,0.0247537,0.00881553
24278,38.0,-30.0,0.0,   5.80027E-03,  -3.07576E-03,  -501.543E-03,0.0424868,0.0263966,0.00908313
24279,37.0,-30.0,0.0,   5.98456E-03,  -3.45790E-03,  -535.376E-03,0.0420652,0.0280582,0.00927586
24284,36.0,-30.0,0.0,   6.11344E-03,  -3.84167E-03,  -567.267E-03,0.0416413,0.0297272,0.00939806
24285,35.0,-30.0,0.0,   6.19356E-03,  -4.22445E-03,  -597.313E-03,0.0412235,0.0313924,0.00945531
24290,34.0,-30.0,0.0,   6.23094E-03,  -4.60393E-03,  -625.609E-03,0.0408172,0.033044,0.00945376
24293,33.0,-30.0,0.0,   6.23098E-03,  -4.97809E-03,  -652.247E-03,0.040426,0.0346735,0.0093998
24294,32.0,-30.0,0.0,   6.19851E-03,  -5.34518E-03,  -677.316E-03,0.0400524,0.0362736,0.00929974
24299,31.0,-30.0,0.0,   6.13778E-03,  -5.70375E-03,  -700.901E-03,0.0396979,0.0378385,0.00915961
24300,30.0,-30.0,0.0,   6.05257E-03,  -6.05257E-03,  -723.083E-03,0.0393634,0.0393634,0.00898505
24305,29.0,-30.0,0.0,   5.94619E-03,  -6.39065E-03,  -743.939E-03,0.0390494,0.0408445,0.00878123
24308,28.0,-30.0,0.0,   5.82155E-03,  -6.71717E-03,  -763.541E-03,0.0387556,0.0422789,0.00855283
24309,27.0,-30.0,0.0,   5.68118E-03,  -7.03154E-03,  -781.955E-03,0.0384818,0.0436642,0.00830401
24314,26.0,-30.0,0.0,   5.52730E-03,  -7.33330E-03,  -799.247E-03,0.0382273,0.0449987,0.00803841
24315,25.0,-30.0,0.0,   5.36185E-03,  -7.62211E-03,  -815.474E-03,0.0379913,0.0462813,0.00775922
24320,24.0,-30.0,0.0,   5.18650E-03,  -7.89779E-03,  -830.691E-03,0.0377729,0.0475111,0.00746919
24323,23.0,-30.0,0.0,   5.00273E-03,  -8.16022E-03,  -844.952E-03,0.0375713,0.0486876,0.00717064
24324,22.0,-30.0,0.0,   4.81178E-03,  -8.40939E-03,  -858.302E-03,0.0373854,0.0498105,0.00686556
24329,21.0,-30.0,0.0,   4.61477E-03,  -8.64535E-03,  -870.787E-03,0.0372142,0.0508796,0.0065556
24330,20.0,-30.0,0.0,   4.41265E-03,  -8.86820E-03,  -882.448E-03,0.0370568,0.0518951,0.00624215
24335,19.0,-30.0,0.0,   4.20622E-03,  -9.07810E-03,  -893.323E-03,0.0369122,0.0528572,0.00592632
24338,18.0,-30.0,0.0,   3.99620E-03,  -9.27524E-03,  -903.449E-03,0.0367797,0.0537661,0.00560903
24339,17.0,-30.0,0.0,   3.78319E-03,  -9.45984E-03,  -912.856E-03,0.0366584,0.0546222,0.00529102
24344,16.0,-30.0,0.0,   3.56772E-03,  -9.63212E-03,  -921.577E-03,0.0365475,0.055426,0.00497287
24345,15.0,-30.0,0.0,   3.35022E-03,  -9.79234E-03,  -929.639E-03,0.0364464,0.0561778,0.00465501
24350,14.0,-30.0,0.0,   3.13108E-03,  -9.94075E-03,  -937.067E-03,0.0363544,0.0568781,0.0043378
24353,13.0,-30.0,0.0,   2.91061E-03,  -10.0776E-03,  -943.886E-03,0.036271,0.0575275,0.00402146
24354,12.0,-30.0,0.0,   2.68909E-03,  -10.2032E-03,  -950.117E-03,0.0361956,0.0581264,0.00370616
24359,11.0,-30.0,0.0,   2.46673E-03,  -10.3177E-03,  -955.780E-03,0.0361278,0.0586753,0.00339199
24360,10.0,-30.0,0.0,   2.24372E-03,  -10.4213E-03,  -960.892E-03,0.0360671,0.0591747,0.003079
24365,9.0,-30.0,0.0,   2.02021E-03,  -10.5144E-03,  -965.471E-03,0.0360132,0.0596251,0.00276719
24368,8.0,-30.0,0.0,   1.79633E-03,  -10.5971E-03,  -969.530E-03,0.0359659,0.0600267,0.00245651
24369,7.0,-30.0,0.0,   1.57217E-03,  -10.6696E-03,  -973.081E-03,0.0359247,0.0603802,0.0021469
24374,6.0,-30.0,0.0,   1.34782E-03,  -10.7320E-03,  -976.137E-03,0.0358894,0.0606857,0.00183827
24375,5.0,-30.0,0.0,   1.12333E-03,  -10.7846E-03,  -978.707E-03,0.03586,0.0609437,0.00153051
24380,4.0,-30.0,0.0,   898.747E-06,  -10.8275E-03,  -980.799E-03,0.0358361,0.0611544,0.00122349
24383,3.0,-30.0,0.0,   674.101E-06,  -10.8607E-03,  -982.419E-03,0.0358176,0.0613181,0.000917073
24384,2.0,-30.0,0.0,   449.418E-06,  -10.8843E-03,  -983.573E-03,0.0358045,0.0614348,0.000611122
24389,1.0,-30.0,0.0,   224.714E-06,  -10.8985E-03,  -984.263E-03,0.0357967,0.0615048,0.000305483
24390,0.0,-30.0,0.0,   2.04857E-15,  -10.9032E-03,  -984.493E-03,0.0357941,0.0615281,3.63798e-12
24395,-1.0,-30.0,0.0,  -224.714E-06,  -10.8985E-03,  -984.263E-03,0.0357967,0.0615048,-0.000305483
24398,-2.0,-30.0,0.0,  -449.418E-06,  -10.8843E-03,  -983.573E-03,0.0358045,0.0614348,-0.000611122
24399,-3.0,-30.0,0.0,  -674.101E-06,  -10.8607E-03,  -982.419E-03,0.0358176,0.0613181,-0.000917073
24404,-4.0,-30.0,0.0,  -898.747E-06,  -10.8275E-03,  -980.799E-03,0.0358361,0.0611544,-0.00122349
24405,-5.0,-30.0,0.0,  -1.12333E-03,  -10.7846E-03,  -978.707E-03,0.03586,0.0609437,-0.00153051
24410,-6.0,-30.0,0.0,  -1.34782E-03,  -10.7320E-03,  -976.137E-03,0.0358894,0.0606857,-0.00183827
24413,-7.0,-30.0,0.0,  -1.57217E-03,  -10.6696E-03,  -973.081E-03,0.0359247,0.0603802,-0.0021469
24414,-8.0,-30.0,0.0,  -1.79633E-03,  -10.5971E-03,  -969.530E-03,0.0359659,0.0600267,-0.00245651
24419,-9.0,-30.0,0.0,  -2.02021E-03,  -10.5144E-03,  -965.471E-03,0.0360132,0.0596251,-0.00276719
24420,-10.0,-30.0,0.0,  -2.24372E-03,  -10.4213E-03,  -960.892E-03,0.0360671,0.0591747,-0.003079
24425,-11.0,-30.0,0.0,  -2.46673E-03,  -10.3177E-03,  -955.780E-03,0.0361278,0.0586753,-0.00339199
24428,-12.0,-30.0,0.0,  -2.68909E-03,  -10.2032E-03,  -950.117E-03,0.0361956,0.0581264,-0.00370616
24429,-13.0,-30.0,0.0,  -2.91061E-03,  -10.0776E-03,  -943.886E-03,0.036271,0.0575275,-0.00402146
24434,-14.0,-30.0,0.0,  -3.13108E-03,  -9.94075E-03,  -937.067E-03,0.0363544,0.0568781,-0.0043378
24435,-15.0,-30.0,0.0,  -3.35022E-03,  -9.79234E-03,  -929.639E-03,0.0364464,0.0561778,-0.00465501
24440,-16.0,-30.0,0.0,  -3.56772E-03,  -9.63212E-03,  -921.577E-03,0.0365475,0.055426,-0.00497287
24443,-17.0,-30.0,0.0,  -3.78319E-03,  -9.45984E-03,  -912.856E-03,0.0366584,0.0546222,-0.00529102
24444,-18.0,-30.0,0.0,  -3.99620E-03,  -9.27524E-03,  -903.449E-03,0.0367797,0.0537661,-0.00560903
24449,-19.0,-30.0,0.0,  -4.20622E-03,  -9.07810E-03,  -893.323E-03,0.0369122,0.0528572,-0.00592632
24450,-20.0,-30.0,0.0,  -4.41265E-03,  -8.86820E-03,  -882.448E-03,0.0370568,0.0518951,-0.00624215
24455,-21.0,-30.0,0.0,  -4.61477E-03,  -8.64535E-03,  -870.787E-03,0.0372142,0.0508796,-0.00655561
24458,-22.0,-30.0,0.0,  -4.81178E-03,  -8.40939E-03,  -858.302E-03,0.0373854,0.0498105,-0.00686556
24459,-23.0,-30.0,0.0,  -5.00273E-03,  -8.16022E-03,  -844.952E-03,0.0375713,0.0486876,-0.00717064
24464,-24.0,-30.0,0.0,  -5.18650E-03,  -7.89779E-03,  -830.691E-03,0.0377729,0.0475111,-0.00746919
24465,-25.0,-30.0,0.0,  -5.36185E-03,  -7.62211E-03,  -815.474E-03,0.0379913,0.0462813,-0.00775922
24470,-26.0,-30.0,0.0,  -5.52730E-03,  -7.33330E-03,  -799.247E-03,0.0382273,0.0449987,-0.00803841
24473,-27.0,-30.0,0.0,  -5.68118E-03,  -7.03154E-03,  -781.955E-03,0.0384818,0.0436642,-0.00830401
24474,-28.0,-30.0,0.0,  -5.82155E-03,  -6.71717E-03,  -763.541E-03,0.0387556,0.0422789,-0.00855283
24479,-29.0,-30.0,0.0,  -5.94619E-03,  -6.39065E-03,  -743.939E-03,0.0390494,0.0408445,-0.00878123
24480,-30.0,-30.0,0.0,  -6.05257E-03,  -6.05257E-03,  -723.083E-03,0.0393634,0.0393634,-0.00898505
24485,-31.0,-30.0,0.0,  -6.13778E-03,  -5.70375E-03,  -700.901E-03,0.0396979,0.0378385,-0.00915961
24488,-32.0,-30.0,0.0,  -6.19851E-03,  -5.34518E-03,  -677.316E-03,0.0400524,0.0362736,-0.00929974
24489,-33.0,-30.0,0.0,  -6.23098E-03,  -4.97809E-03,  -652.247E-03,0.040426,0.0346735,-0.0093998
24494,-34.0,-30.0,0.0,  -6.23094E-03,  -4.60393E-03,  -625.609E-03,0.0408172,0.033044,-0.00945376
24495,-35.0,-30.0,0.0,  -6.19356E-03,  -4.22445E-03,  -597.313E-03,0.0412235,0.0313924,-0.00945531
24500,-36.0,-30.0,0.0,  -6.11344E-03,  -3.84167E-03,  -567.267E-03,0.0416413,0.0297272,-0.00939806
24503,-37.0,-30.0,0.0,  -5.98456E-03,  -3.45790E-03,  -535.376E-03,0.0420652,0.0280582,-0.00927586
24504,-38.0,-30.0,0.0,  -5.80027E-03,  -3.07576E-03,  -501.543E-03,0.0424868,0.0263966,-0.00908313
24509,-39.0,-30.0,0.0,  -5.55331E-03,  -2.69816E-03,  -465.673E-03,0.0428931,0.0247537,-0.00881553
24510,-40.0,-30.0,0.0,  -5.23591E-03,  -2.32832E-03,  -427.676E-03,0.0432618,0.0231404,-0.0084707
24515,-41.0,-30.0,0.0,  -4.83999E-03,  -1.96974E-03,  -387.467E-03,0.0435524,0.0215635,-0.00804958
24518,-42.0,-30.0,0.0,  -4.35767E-03,  -1.62620E-03,  -344.986E-03,0.0436868,0.0200198,-0.00755784
24519,-43.0,-30.0,0.0,  -3.78227E-03,  -1.30176E-03,  -300.210E-03,0.0435073,0.0184831,-0.00700865
24524,-44.0,-30.0,0.0,  -3.11057E-03,  -1.00083E-03,  -253.194E-03,0.0426856,0.0168764,-0.0064244
24525,-45.0,-30.0,0.0,  -2.34764E-03,  -728.309E-06,  -204.159E-03,0.0405231,0.015012,-0.0058399
24530,-46.0,-30.0,0.0,  -1.51717E-03,  -489.761E-06,  -153.669E-03,0.0355156,0.0124623,-0.0052947
24533,-47.0,-30.0,0.0,  -682.554E-06,  -291.734E-06,  -103.022E-03,0.0244024,0.00827855,-0.00481086
24534,-48.0,-30.0,0.0,   15.4100E-06,  -141.580E-06,  -55.0922E-03,9.34759e-05,0.000372349,-0.00428625
24539,-49.0,-30.0,0.0,   320.631E-06,  -45.2196E-06,  -16.1765E-03,-0.0528142,-0.0158286,-0.00321861
24540,-50.0,-30.0,0.0,   1.74516E-39,  -552.466E-42,           -0.,-0.0890541,-0.0267223,-0.00149694
24545,50.0,-31.0,0.0,  -1.65552E-39,  -523.042E-42,           -0.,-0.0874516,-0.0262418,0.00148506
24548,49.0,-31.0,0.0,  -305.245E-06,  -44.1616E-06,  -15.7398E-03,-0.0526061,-0.0157927,0.00330047
24549,48.0,-31.0,0.0,  -13.8876E-06,  -141.689E-06,  -53.7198E-03,-0.00139612,-0.00010858,0.00444831
24554,47.0,-31.0,0.0,   659.012E-06,  -295.606E-06,  -100.659E-03,0.0226245,0.00772726,0.00501936
24555,46.0,-31.0,0.0,   1.46695E-03,  -499.818E-06,  -150.340E-03,0.0338291,0.0119761,0.0055386
24560,45.0,-31.0,0.0,   2.27111E-03,  -746.444E-06,  -199.868E-03,0.0389755,0.014622,0.00611732
24563,44.0,-31.0,0.0,   3.00784E-03,  -1.02830E-03,  -247.914E-03,0.0412377,0.0165829,0.00673409
24564,43.0,-31.0,0.0,   3.65318E-03,  -1.33918E-03,  -293.892E-03,0.0421113,0.0182792,0.007347
24569,42.0,-31.0,0.0,   4.20212E-03,  -1.67365E-03,  -337.573E-03,0.0423061,0.0198977,0.00791857
24570,41.0,-31.0,0.0,   4.65824E-03,  -2.02684E-03,  -378.902E-03,0.0421639,0.021516,0.00842462
24575,40.0,-31.0,0.0,   5.02869E-03,  -2.39430E-03,  -417.908E-03,0.0418527,0.0231604,0.00885136
24578,39.0,-31.0,0.0,   5.32189E-03,  -2.77197E-03,  -454.664E-03,0.041458,0.0248342,0.0091934
24579,38.0,-31.0,0.0,   5.54635E-03,  -3.15615E-03,  -489.264E-03,0.041025,0.0265304,0.00945077
24584,37.0,-31.0,0.0,   5.71021E-03,  -3.54350E-03,  -521.811E-03,0.0405791,0.0282382,0.00962714
24585,36.0,-31.0,0.0,   5.82098E-03,  -3.93107E-03,  -552.413E-03,0.040135,0.0299464,0.00972831
24590,35.0,-31.0,0.0,   5.88547E-03,  -4.31623E-03,  -581.176E-03,0.0397018,0.0316442,0.00976128
24593,34.0,-31.0,0.0,   5.90977E-03,  -4.69673E-03,  -608.205E-03,0.0392853,0.0333222,0.00973351
24594,33.0,-31.0,0.0,   5.89928E-03,  -5.07062E-03,  -633.598E-03,0.0388891,0.0349725,0.0096525
24599,32.0,-31.0,0.0,   5.85876E-03,  -5.43628E-03,  -657.453E-03,0.0385153,0.0365885,0.00952546
24600,31.0,-31.0,0.0,   5.79237E-03,  -5.79237E-03,  -679.859E-03,0.038165,0.038165,0.00935911
24605,30.0,-31.0,0.0,   5.70375E-03,  -6.13778E-03,  -700.901E-03,0.0378385,0.0396979,0.00915961
24608,29.0,-31.0,0.0,   5.59607E-03,  -6.47166E-03,  -720.659E-03,0.0375356,0.0411839,0.00893248
24609,28.0,-31.0,0.0,   5.47207E-03,  -6.79334E-03,  -739.206E-03,0.0372557,0.0426207,0.00868259
24614,27.0,-31.0,0.0,   5.33413E-03,  -7.10233E-03,  -756.613E-03,0.0369979,0.0440064,0.00841421
24615,26.0,-31.0,0.0,   5.18430E-03,  -7.39828E-03,  -772.942E-03,0.036761,0.0453398,0.00813102
24620,25.0,-31.0,0.0,   5.02436E-03,  -7.68099E-03,  -788.254E-03,0.0365438,0.0466201,0.00783614
24623,24.0,-31.0,0.0,   4.85585E-03,  -7.95034E-03,  -802.603E-03,0.0363451,0.0478467,0.00753225
24624,23.0,-31.0,0.0,   4.68008E-03,  -8.20632E-03,  -816.040E-03,0.0361636,0.0490193,0.00722155
24629,22.0,-31.0,0.0,   4.49820E-03,  -8.44899E-03,  -828.613E-03,0.0359979,0.0501378,0.00690592
24630,21.0,-31.0,0.0,   4.31118E-03,  -8.67846E-03,  -840.366E-03,0.035847,0.0512024,0.00658687
24635,20.0,-31.0,0.0,   4.11986E-03,  -8.89491E-03,  -851.337E-03,0.0357096,0.0522132,0.00626563
24638,19.0,-31.0,0.0,   3.92498E-03,  -9.09854E-03,  -861.566E-03,0.0355847,0.0531706,0.00594322
24639,18.0,-31.0,0.0,   3.72714E-03,  -9.28958E-03,  -871.086E-03,0.0354711,0.0540748,0.00562041
24644,17.0,-31.0,0.0,   3.52687E-03,  -9.46829E-03,  -879.929E-03,0.0353682,0.0549264,0.00529783
24645,16.0,-31.0,0.0,   3.32463E-03,  -9.63492E-03,  -888.124E-03,0.0352748,0.0557259,0.00497594
24650,15.0,-31.0,0.0,   3.12079E-03,  -9.78976E-03,  -895.698E-03,0.0351904,0.0564735,0.0046551
24653,14.0,-31.0,0.0,   2.91567E-03,  -9.93307E-03,  -902.676E-03,0.0351142,0.05717,0.00433554
24654,13.0,-31.0,0.0,   2.70954E-03,  -10.0651E-03,  -909.080E-03,0.0350456,0.0578158,0.00401743
24659,12.0,-31.0,0.0,   2.50264E-03,  -10.1862E-03,  -914.931E-03,0.0349841,0.0584114,0.00370085
24660,11.0,-31.0,0.0,   2.29513E-03,  -10.2966E-03,  -920.247E-03,0.034929,0.0589572,0.00338584
24665,10.0,-31.0,0.0,   2.08718E-03,  -10.3965E-03,  -925.047E-03,0.0348801,0.0594539,0.00307238
24668,9.0,-31.0,0.0,   1.87891E-03,  -10.4861E-03,  -929.345E-03,0.0348369,0.0599017,0.00276042
24669,8.0,-31.0,0.0,   1.67041E-03,  -10.5657E-03,  -933.155E-03,0.0347991,0.0603012,0.00244987
24674,7.0,-31.0,0.0,   1.46175E-03,  -10.6354E-03,  -936.488E-03,0.0347664,0.0606527,0.00214062
24675,6.0,-31.0,0.0,   1.25300E-03,  -10.6955E-03,  -939.356E-03,0.0347385,0.0609566,0.00183255
24680,5.0,-31.0,0.0,   1.04420E-03,  -10.7461E-03,  -941.768E-03,0.0347152,0.0612132,0.0015255
24683,4.0,-31.0,0.0,   835.364E-06,  -10.7873E-03,  -943.731E-03,0.0346965,0.0614227,0.00121933
24684,3.0,-31.0,0.0,   626.521E-06,  -10.8192E-03,  -945.251E-03,0.034682,0.0615855,0.000913871
24689,2.0,-31.0,0.0,   417.678E-06,  -10.8420E-03,  -946.334E-03,0.0346717,0.0617016,0.000608947
24690,1.0,-31.0,0.0,   208.838E-06,  -10.8556E-03,  -946.982E-03,0.0346656,0.0617712,0.000304383
24695,0.0,-31.0,0.0,   4.56913E-15,  -10.8601E-03,  -947.198E-03,0.0346635,0.0617944,0.0
24698,-1.0,-31.0,0.0,  -208.838E-06,  -10.8556E-03,  -946.982E-03,0.0346656,0.0617713,-0.000304383
24699,-2.0,-31.0,0.0,  -417.678E-06,  -10.8420E-03,  -946.334E-03,0.0346717,0.0617016,-0.000608947
24704,-3.0,-31.0,0.0,  -626.521E-06,  -10.8192E-03,  -945.251E-03,0.034682,0.0615855,-0.000913871
24705,-4.0,-31.0,0.0,  -835.364E-06,  -10.7873E-03,  -943.731E-03,0.0346965,0.0614227,-0.00121933
24710,-5.0,-31.0,0.0,  -1.04420E-03,  -10.7461E-03,  -941.768E-03,0.0347152,0.0612132,-0.0015255
24713,-6.0,-31.0,0.0,  -1.25300E-03,  -10.6955E-03,  -939.356E-03,0.0347385,0.0609566,-0.00183255
24714,-7.0,-31.0,0.0,  -1.46175E-03,  -10.6354E-03,  -936.488E-03,0.0347664,0.0606527,-0.00214062
24719,-8.0,-31.0,0.0,  -1.67041E-03,  -10.5657E-03,  -933.155E-03,0.0347991,0.0603012,-0.00244987
24720,-9.0,-31.0,0.0,  -1.87891E-03,  -10.4861E-03,  -929.345E-03,0.0348369,0.0599017,-0.00276042
24725,-10.0,-31.0,0.0,  -2.08718E-03,  -10.3965E-03,  -925.047E-03,0.0348801,0.0594539,-0.00307238
24728,-11.0,-31.0,0.0,  -2.29513E-03,  -10.2966E-03,  -920.247E-03,0.034929,0.0589572,-0.00338584
24729,-12.0,-31.0,0.0,  -2.50264E-03,  -10.1862E-03,  -914.931E-03,0.0349841,0.0584114,-0.00370085
24734,-13.0,-31.0,0.0,  -2.70954E-03,  -10.0651E-03,  -909.080E-03,0.0350456,0.0578158,-0.00401743
24735,-14.0,-31.0,0.0,  -2.91567E-03,  -9.93307E-03,  -902.676E-03,0.0351142,0.05717,-0.00433554
24740,-15.0,-31.0,0.0,  -3.12079E-03,  -9.78976E-03,  -895.698E-03,0.0351904,0.0564735,-0.0046551
24743,-16.0,-31.0,0.0,  -3.32463E-03,  -9.63492E-03,  -888.124E-03,0.0352748,0.0557259,-0.00497594
24744,-17.0,-31.0,0.0,  -3.52687E-03,  -9.46829E-03,  -879.929E-03,0.0353682,0.0549264,-0.00529783
24749,-18.0,-31.0,0.0,  -3.72714E-03,  -9.28958E-03,  -871.086E-03,0.0354711,0.0540748,-0.00562041
24750,-19.0,-31.0,0.0,  -3.92498E-03,  -9.09854E-03,  -861.566E-03,0.0355847,0.0531706,-0.00594322
24755,-20.0,-31.0,0.0,  -4.11986E-03,  -8.89491E-03,  -851.337E-03,0.0357096,0.0522132,-0.00626563
24758,-21.0,-31.0,0.0,  -4.31118E-03,  -8.67846E-03,  -840.366E-03,0.035847,0.0512024,-0.00658687
24759,-22.0,-31.0,0.0,  -4.49820E-03,  -8.44899E-03,  -828.613E-03,0.0359979,0.0501378,-0.00690592
24764,-23.0,-31.0,0.0,  -4.68008E-03,  -8.20632E-03,  -816.040E-03,0.0361636,0.0490193,-0.00722155
24765,-24.0,-31.0,0.0,  -4.85585E-03,  -7.95034E-03,  -802.603E-03,0.0363451,0.0478467,-0.00753224
24770,-25.0,-31.0,0.0,  -5.02436E-03,  -7.68099E-03,  -788.254E-03,0.0365438,0.0466201,-0.00783614
24773,-26.0,-31.0,0.0,  -5.18430E-03,  -7.39828E-03,  -772.942E-03,0.036761,0.0453398,-0.00813102
24774,-27.0,-31.0,0.0,  -5.33413E-03,  -7.10233E-03,  -756.613E-03,0.0369979,0.0440064,-0.00841421
24779,-28.0,-31.0,0.0,  -5.47207E-03,  -6.79334E-03,  -739.206E-03,0.0372557,0.0426207,-0.00868259
24780,-29.0,-31.0,0.0,  -5.59607E-03,  -6.47166E-03,  -720.659E-03,0.0375356,0.0411839,-0.00893248
24785,-30.0,-31.0,0.0,  -5.70375E-03,  -6.13778E-03,  -700.901E-03,0.0378385,0.0396979,-0.00915961
24788,-31.0,-31.0,0.0,  -5.79237E-03,  -5.79237E-03,  -679.859E-03,0.038165,0.038165,-0.00935911
24789,-32.0,-31.0,0.0,  -5.85876E-03,  -5.43628E-03,  -657.453E-03,0.0385153,0.0365885,-0.00952545
24794,-33.0,-31.0,0.0,  -5.89928E-03,  -5.07062E-03,  -633.598E-03,0.0388891,0.0349725,-0.0096525
24795,-34.0,-31.0,0.0,  -5.90977E-03,  -4.69673E-03,  -608.205E-03,0.0392853,0.0333222,-0.00973351
24800,-35.0,-31.0,0.0,  -5.88547E-03,  -4.31623E-03,  -581.176E-03,0.0397018,0.0316442,-0.00976128
24803,-36.0,-31.0,0.0,  -5.82098E-03,  -3.93107E-03,  -552.413E-03,0.040135,0.0299464,-0.00972831
24804,-37.0,-31.0,0.0,  -5.71021E-03,  -3.54350E-03,  -521.811E-03,0.0405791,0.0282382,-0.00962714
24809,-38.0,-31.0,0.0,  -5.54635E-03,  -3.15615E-03,  -489.264E-03,0.041025,0.0265304,-0.00945077
24810,-39.0,-31.0,0.0,  -5.32189E-03,  -2.77197E-03,  -454.664E-03,0.041458,0.0248342,-0.0091934
24815,-40.0,-31.0,0.0,  -5.02869E-03,  -2.39430E-03,  -417.908E-03,0.0418527,0.0231604,-0.00885136
24818,-41.0,-31.0,0.0,  -4.65824E-03,  -2.02684E-03,  -378.902E-03,0.0421639,0.021516,-0.00842462
24819,-42.0,-31.0,0.0,  -4.20212E-03,  -1.67365E-03,  -337.573E-03,0.0423061,0.0198977,-0.00791857
24824,-43.0,-31.0,0.0,  -3.65318E-03,  -1.33918E-03,  -293.892E-03,0.0421113,0.0182792,-0.007347
24825,-44.0,-31.0,0.0,  -3.00784E-03,  -1.02830E-03,  -247.914E-03,0.0412377,0.0165829,-0.00673409
24830,-45.0,-31.0,0.0,  -2.27111E-03,  -746.444E-06,  -199.868E-03,0.0389755,0.014622,-0.00611732
24833,-46.0,-31.0,0.0,  -1.46695E-03,  -499.818E-06,  -150.340E-03,0.0338291,0.0119761,-0.0055386
24834,-47.0,-31.0,0.0,  -659.012E-06,  -295.606E-06,  -100.659E-03,0.0226245,0.00772726,-0.00501936
24839,-48.0,-31.0,0.0,   13.8876E-06,  -141.689E-06,  -53.7198E-03,-0.00139612,-0.00010858,-0.00444831
24840,-49.0,-31.0,0.0,   305.245E-06,  -44.1616E-06,  -15.7398E-03,-0.0526061,-0.0157927,-0.00330047
24845,-50.0,-31.0,0.0,   1.65552E-39,  -523.042E-42,           -0.,-0.0874516,-0.0262418,-0.00148506
24848,50.0,-32.0,0.0,  -1.56123E-39,  -491.675E-42,           -0.,-0.0857519,-0.0257323,0.0014618
24849,49.0,-32.0,0.0,  -289.008E-06,  -42.6435E-06,  -15.2801E-03,-0.0523506,-0.0157453,0.00337632
24854,48.0,-32.0,0.0,  -11.7091E-06,  -140.944E-06,  -52.2690E-03,-0.00291145,-0.000600399,0.00461231
24855,47.0,-32.0,0.0,   634.923E-06,  -298.327E-06,  -98.1496E-03,0.0207924,0.00715965,0.00523601
24860,46.0,-32.0,0.0,   1.41451E-03,  -508.528E-06,  -146.792E-03,0.0320859,0.0114794,0.00579485
24861,45.0,-32.0,0.0,   2.19049E-03,  -763.085E-06,  -195.282E-03,0.0373778,0.0142327,0.00640976
24866,44.0,-32.0,0.0,   2.89915E-03,  -1.05409E-03,  -242.259E-03,0.0397463,0.0163025,0.00706002
24867,43.0,-32.0,0.0,   3.51632E-03,  -1.37463E-03,  -287.115E-03,0.0406751,0.0180998,0.00770128
24872,42.0,-32.0,0.0,   4.03713E-03,  -1.71865E-03,  -329.613E-03,0.0408853,0.0198096,0.00829335
24875,41.0,-32.0,0.0,   4.46558E-03,  -2.08074E-03,  -369.699E-03,0.0407329,0.0215093,0.00881041
24876,40.0,-32.0,0.0,   4.80938E-03,  -2.45606E-03,  -407.411E-03,0.0403978,0.0232257,0.00923827
24881,39.0,-32.0,0.0,   5.07749E-03,  -2.84025E-03,  -442.835E-03,0.0399736,0.0249621,0.00957223
24882,38.0,-32.0,0.0,   5.27888E-03,  -3.22944E-03,  -476.077E-03,0.0395112,0.0267118,0.00981366
24887,37.0,-32.0,0.0,   5.42204E-03,  -3.62021E-03,  -507.255E-03,0.0390391,0.0284644,0.00996793
24890,36.0,-32.0,0.0,   5.51473E-03,  -4.00957E-03,  -536.489E-03,0.0385741,0.0302092,0.0100426
24891,35.0,-32.0,0.0,   5.56388E-03,  -4.39496E-03,  -563.897E-03,0.0381261,0.0319361,0.0100464
24896,34.0,-32.0,0.0,   5.57559E-03,  -4.77423E-03,  -589.592E-03,0.0377011,0.0336366,0.00998821
24897,33.0,-32.0,0.0,   5.55524E-03,  -5.14555E-03,  -613.683E-03,0.0373023,0.0353035,0.00987669
24902,32.0,-32.0,0.0,   5.50746E-03,  -5.50746E-03,  -636.272E-03,0.0369313,0.0369313,0.00971997
24905,31.0,-32.0,0.0,   5.43628E-03,  -5.85876E-03,  -657.453E-03,0.0365885,0.0385153,0.00952545
24906,30.0,-32.0,0.0,   5.34518E-03,  -6.19851E-03,  -677.316E-03,0.0362736,0.0400524,0.00929974
24911,29.0,-32.0,0.0,   5.23714E-03,  -6.52601E-03,  -695.942E-03,0.0359856,0.0415398,0.00904861
24912,28.0,-32.0,0.0,   5.11472E-03,  -6.84074E-03,  -713.407E-03,0.0357232,0.0429758,0.00877707
24917,27.0,-32.0,0.0,   4.98010E-03,  -7.14234E-03,  -729.782E-03,0.0354849,0.0443592,0.00848939
24920,26.0,-32.0,0.0,   4.83518E-03,  -7.43059E-03,  -745.129E-03,0.035269,0.045689,0.00818919
24921,25.0,-32.0,0.0,   4.68157E-03,  -7.70540E-03,  -759.509E-03,0.0350739,0.0469647,0.00787949
24926,24.0,-32.0,0.0,   4.52064E-03,  -7.96674E-03,  -772.976E-03,0.0348978,0.0481862,0.0075628
24927,23.0,-32.0,0.0,   4.35358E-03,  -8.21471E-03,  -785.580E-03,0.034739,0.0493533,0.00724119
24932,22.0,-32.0,0.0,   4.18138E-03,  -8.44941E-03,  -797.368E-03,0.0345962,0.0504661,0.00691634
24935,21.0,-32.0,0.0,   4.00492E-03,  -8.67105E-03,  -808.381E-03,0.0344677,0.051525,0.0065896
24936,20.0,-32.0,0.0,   3.82493E-03,  -8.87985E-03,  -818.658E-03,0.0343523,0.0525301,0.00626205
24941,19.0,-32.0,0.0,   3.64204E-03,  -9.07604E-03,  -828.237E-03,0.0342487,0.0534819,0.00593454
24942,18.0,-32.0,0.0,   3.45677E-03,  -9.25991E-03,  -837.149E-03,0.0341558,0.0543808,0.0056077
24947,17.0,-32.0,0.0,   3.26958E-03,  -9.43174E-03,  -845.425E-03,0.0340725,0.0552273,0.00528204
24950,16.0,-32.0,0.0,   3.08085E-03,  -9.59183E-03,  -853.093E-03,0.033998,0.0560219,0.00495791
24951,15.0,-32.0,0.0,   2.89091E-03,  -9.74046E-03,  -860.179E-03,0.0339314,0.056765,0.00463554
24956,14.0,-32.0,0.0,   2.70002E-03,  -9.87793E-03,  -866.706E-03,0.0338719,0.0574573,0.00431508
24957,13.0,-32.0,0.0,   2.50840E-03,  -10.0045E-03,  -872.696E-03,0.033819,0.0580992,0.00399662
24962,12.0,-32.0,0.0,   2.31624E-03,  -10.1205E-03,  -878.168E-03,0.033772,0.0586912,0.00368017
24965,11.0,-32.0,0.0,   2.12369E-03,  -10.2262E-03,  -883.139E-03,0.0337304,0.0592338,0.00336569
24966,10.0,-32.0,0.0,   1.93087E-03,  -10.3218E-03,  -887.627E-03,0.0336938,0.0597275,0.00305311
24971,9.0,-32.0,0.0,   1.73787E-03,  -10.4075E-03,  -891.645E-03,0.0336617,0.0601728,0.00274233
24972,8.0,-32.0,0.0,   1.54477E-03,  -10.4837E-03,  -895.206E-03,0.0336338,0.0605699,0.00243322
24977,7.0,-32.0,0.0,   1.35162E-03,  -10.5503E-03,  -898.323E-03,0.0336099,0.0609194,0.00212563
24980,6.0,-32.0,0.0,   1.15846E-03,  -10.6078E-03,  -901.004E-03,0.0335897,0.0612216,0.00181939
24981,5.0,-32.0,0.0,   965.317E-06,  -10.6561E-03,  -903.258E-03,0.0335729,0.0614767,0.00151432
24986,4.0,-32.0,0.0,   772.198E-06,  -10.6954E-03,  -905.093E-03,0.0335594,0.0616851,0.00121025
24987,3.0,-32.0,0.0,   579.111E-06,  -10.7259E-03,  -906.514E-03,0.033549,0.061847,0.000906982
24992,2.0,-32.0,0.0,   386.055E-06,  -10.7477E-03,  -907.525E-03,0.0335417,0.0619624,0.000604317
24995,1.0,-32.0,0.0,   193.021E-06,  -10.7607E-03,  -908.131E-03,0.0335373,0.0620317,0.000302057
24996,0.0,-32.0,0.0,   3.70874E-15,  -10.7650E-03,  -908.333E-03,0.0335359,0.0620548,0.0
25001,-1.0,-32.0,0.0,  -193.021E-06,  -10.7607E-03,  -908.131E-03,0.0335373,0.0620317,-0.000302057
25002,-2.0,-32.0,0.0,  -386.055E-06,  -10.7477E-03,  -907.525E-03,0.0335417,0.0619624,-0.000604317
25007,-3.0,-32.0,0.0,  -579.111E-06,  -10.7259E-03,  -906.514E-03,0.033549,0.061847,-0.000906982
25010,-4.0,-32.0,0.0,  -772.198E-06,  -10.6954E-03,  -905.093E-03,0.0335594,0.0616851,-0.00121025
25011,-5.0,-32.0,0.0,  -965.317E-06,  -10.6561E-03,  -903.258E-03,0.0335729,0.0614767,-0.00151432
25016,-6.0,-32.0,0.0,  -1.15846E-03,  -10.6078E-03,  -901.004E-03,0.0335897,0.0612216,-0.00181939
25017,-7.0,-32.0,0.0,  -1.35162E-03,  -10.5503E-03,  -898.323E-03,0.0336099,0.0609194,-0.00212563
25022,-8.0,-32.0,0.0,  -1.54477E-03,  -10.4837E-03,  -895.206E-03,0.0336338,0.0605699,-0.00243322
25025,-9.0,-32.0,0.0,  -1.73787E-03,  -10.4075E-03,  -891.645E-03,0.0336617,0.0601728,-0.00274233
25026,-10.0,-32.0,0.0,  -1.93087E-03,  -10.3218E-03,  -887.627E-03,0.0336938,0.0597275,-0.00305311
25031,-11.0,-32.0,0.0,  -2.12369E-03,  -10.2262E-03,  -883.139E-03,0.0337304,0.0592338,-0.00336569
25032,-12.0,-32.0,0.0,  -2.31624E-03,  -10.1205E-03,  -878.168E-03,0.033772,0.0586912,-0.00368017
25037,-13.0,-32.0,0.0,  -2.50840E-03,  -10.0045E-03,  -872.696E-03,0.033819,0.0580992,-0.00399662
25040,-14.0,-32.0,0.0,  -2.70002E-03,  -9.87793E-03,  -866.706E-03,0.0338719,0.0574573,-0.00431508
25041,-15.0,-32.0,0.0,  -2.89091E-03,  -9.74046E-03,  -860.179E-03,0.0339314,0.056765,-0.00463554
25046,-16.0,-32.0,0.0,  -3.08085E-03,  -9.59183E-03,  -853.093E-03,0.033998,0.0560219,-0.00495791
25047,-17.0,-32.0,0.0,  -3.26958E-03,  -9.43174E-03,  -845.425E-03,0.0340725,0.0552273,-0.00528204
25052,-18.0,-32.0,0.0,  -3.45677E-03,  -9.25991E-03,  -837.149E-03,0.0341558,0.0543808,-0.0056077
25055,-19.0,-32.0,0.0,  -3.64204E-03,  -9.07604E-03,  -828.237E-03,0.0342487,0.0534819,-0.00593454
25056,-20.0,-32.0,0.0,  -3.82493E-03,  -8.87985E-03,  -818.658E-03,0.0343523,0.0525301,-0.00626205
25061,-21.0,-32.0,0.0,  -4.00492E-03,  -8.67105E-03,  -808.381E-03,0.0344677,0.051525,-0.0065896
25062,-22.0,-32.0,0.0,  -4.18138E-03,  -8.44941E-03,  -797.368E-03,0.0345962,0.0504661,-0.00691634
25067,-23.0,-32.0,0.0,  -4.35358E-03,  -8.21471E-03,  -785.580E-03,0.034739,0.0493533,-0.00724119
25070,-24.0,-32.0,0.0,  -4.52064E-03,  -7.96674E-03,  -772.976E-03,0.0348978,0.0481862,-0.0075628
25071,-25.0,-32.0,0.0,  -4.68157E-03,  -7.70540E-03,  -759.509E-03,0.0350739,0.0469647,-0.00787949
25076,-26.0,-32.0,0.0,  -4.83518E-03,  -7.43059E-03,  -745.129E-03,0.0352691,0.045689,-0.00818919
25077,-27.0,-32.0,0.0,  -4.98010E-03,  -7.14234E-03,  -729.782E-03,0.0354849,0.0443592,-0.00848939
25082,-28.0,-32.0,0.0,  -5.11472E-03,  -6.84074E-03,  -713.407E-03,0.0357232,0.0429758,-0.00877707
25085,-29.0,-32.0,0.0,  -5.23714E-03,  -6.52601E-03,  -695.942E-03,0.0359856,0.0415398,-0.00904861
25086,-30.0,-32.0,0.0,  -5.34518E-03,  -6.19851E-03,  -677.316E-03,0.0362736,0.0400524,-0.00929974
25091,-31.0,-32.0,0.0,  -5.43628E-03,  -5.85876E-03,  -657.453E-03,0.0365885,0.0385153,-0.00952545
25092,-32.0,-32.0,0.0,  -5.50746E-03,  -5.50746E-03,  -636.272E-03,0.0369313,0.0369313,-0.00971997
25097,-33.0,-32.0,0.0,  -5.55524E-03,  -5.14555E-03,  -613.683E-03,0.0373023,0.0353035,-0.00987669
25100,-34.0,-32.0,0.0,  -5.57559E-03,  -4.77423E-03,  -589.592E-03,0.0377011,0.0336366,-0.00998821
25101,-35.0,-32.0,0.0,  -5.56388E-03,  -4.39496E-03,  -563.897E-03,0.0381261,0.0319361,-0.0100464
25106,-36.0,-32.0,0.0,  -5.51473E-03,  -4.00957E-03,  -536.489E-03,0.0385741,0.0302092,-0.0100426
25107,-37.0,-32.0,0.0,  -5.42204E-03,  -3.62021E-03,  -507.255E-03,0.0390391,0.0284644,-0.00996793
25112,-38.0,-32.0,0.0,  -5.27888E-03,  -3.22944E-03,  -476.077E-03,0.0395112,0.0267118,-0.00981366
25115,-39.0,-32.0,0.0,  -5.07749E-03,  -2.84025E-03,  -442.835E-03,0.0399736,0.0249621,-0.00957223
25116,-40.0,-32.0,0.0,  -4.80938E-03,  -2.45606E-03,  -407.411E-03,0.0403978,0.0232257,-0.00923827
25121,-41.0,-32.0,0.0,  -4.46558E-03,  -2.08074E-03,  -369.699E-03,0.0407329,0.0215093,-0.00881041
25122,-42.0,-32.0,0.0,  -4.03713E-03,  -1.71865E-03,  -329.613E-03,0.0408853,0.0198096,-0.00829335
25127,-43.0,-32.0,0.0,  -3.51632E-03,  -1.37463E-03,  -287.115E-03,0.0406751,0.0180998,-0.00770128
25130,-44.0,-32.0,0.0,  -2.89915E-03,  -1.05409E-03,  -242.259E-03,0.0397463,0.0163025,-0.00706002
25131,-45.0,-32.0,0.0,  -2.19049E-03,  -763.085E-06,  -195.282E-03,0.0373778,0.0142327,-0.00640976
25136,-46.0,-32.0,0.0,  -1.41451E-03,  -508.528E-06,  -146.792E-03,0.0320859,0.0114794,-0.00579485
25137,-47.0,-32.0,0.0,  -634.923E-06,  -298.327E-06,  -98.1496E-03,0.0207924,0.00715965,-0.00523601
25142,-48.0,-32.0,0.0,   11.7091E-06,  -140.944E-06,  -52.2690E-03,-0.00291145,-0.000600399,-0.00461231
25145,-49.0,-32.0,0.0,   289.008E-06,  -42.6435E-06,  -15.2801E-03,-0.0523506,-0.0157453,-0.00337632
25146,-50.0,-32.0,0.0,   1.56123E-39,  -491.675E-42,           -0.,-0.0857519,-0.0257323,-0.0014618
25151,50.0,-33.0,0.0,  -1.46203E-39,  -458.255E-42,           -0.,-0.0839488,-0.0251917,0.00142611
25152,49.0,-33.0,0.0,  -271.860E-06,  -40.6169E-06,  -14.7962E-03,-0.0520402,-0.0156838,0.00344595
25157,48.0,-33.0,0.0,  -8.75173E-06,  -139.247E-06,  -50.7346E-03,-0.00444554,-0.00109974,0.00477948
25160,47.0,-33.0,0.0,   610.373E-06,  -299.745E-06,  -95.4818E-03,0.0189107,0.00657975,0.00546321
25161,46.0,-33.0,0.0,   1.35977E-03,  -515.681E-06,  -143.003E-03,0.0302892,0.0109778,0.00606661
25166,45.0,-33.0,0.0,   2.10554E-03,  -777.957E-06,  -190.370E-03,0.0357324,0.0138517,0.00672047
25167,44.0,-33.0,0.0,   2.78409E-03,  -1.07785E-03,  -236.189E-03,0.0382132,0.0160449,0.00740494
25172,43.0,-33.0,0.0,   3.37113E-03,  -1.40763E-03,  -279.829E-03,0.0392,0.0179562,0.00807326
25175,42.0,-33.0,0.0,   3.86204E-03,  -1.76052E-03,  -321.047E-03,0.039425,0.0197675,0.00868261
25176,41.0,-33.0,0.0,   4.26134E-03,  -2.13055E-03,  -359.790E-03,0.0392595,0.0215558,0.00920582
25181,40.0,-33.0,0.0,   4.57734E-03,  -2.51244E-03,  -396.108E-03,0.0388965,0.0233479,0.00962875
25182,39.0,-33.0,0.0,   4.81957E-03,  -2.90155E-03,  -430.101E-03,0.0384391,0.0251477,0.00994789
25187,38.0,-33.0,0.0,   4.99749E-03,  -3.29386E-03,  -461.892E-03,0.0379444,0.0269495,0.0101665
25190,37.0,-33.0,0.0,   5.11991E-03,  -3.68589E-03,  -491.614E-03,0.0374448,0.0287437,0.010292
25191,36.0,-33.0,0.0,   5.19478E-03,  -4.07472E-03,  -519.399E-03,0.0369589,0.0305208,0.0103342
25196,35.0,-33.0,0.0,   5.22910E-03,  -4.45790E-03,  -545.379E-03,0.0364974,0.0322719,0.0103037
25197,34.0,-33.0,0.0,   5.22896E-03,  -4.83340E-03,  -569.677E-03,0.0360661,0.0339896,0.0102108
25202,33.0,-33.0,0.0,   5.19961E-03,  -5.19961E-03,  -592.409E-03,0.0356679,0.0356679,0.0100654
25205,32.0,-33.0,0.0,   5.14555E-03,  -5.55524E-03,  -613.683E-03,0.0353035,0.0373023,0.00987669
25206,31.0,-33.0,0.0,   5.07062E-03,  -5.89928E-03,  -633.598E-03,0.0349725,0.0388891,0.0096525
25211,30.0,-33.0,0.0,   4.97809E-03,  -6.23098E-03,  -652.247E-03,0.0346735,0.040426,0.0093998
25212,29.0,-33.0,0.0,   4.87072E-03,  -6.54982E-03,  -669.712E-03,0.0344046,0.041911,0.00912454
25217,28.0,-33.0,0.0,   4.75087E-03,  -6.85543E-03,  -686.071E-03,0.0341639,0.0433428,0.0088317
25220,27.0,-33.0,0.0,   4.62055E-03,  -7.14760E-03,  -701.394E-03,0.0339491,0.0447208,0.00852549
25221,26.0,-33.0,0.0,   4.48143E-03,  -7.42623E-03,  -715.744E-03,0.0337578,0.0460444,0.00820936
25226,25.0,-33.0,0.0,   4.33497E-03,  -7.69135E-03,  -729.181E-03,0.033588,0.0473134,0.00788615
25227,24.0,-33.0,0.0,   4.18238E-03,  -7.94302E-03,  -741.756E-03,0.0334374,0.0485279,0.00755814
25232,23.0,-33.0,0.0,   4.02469E-03,  -8.18142E-03,  -753.520E-03,0.0333042,0.0496879,0.0072272
25235,22.0,-33.0,0.0,   3.86279E-03,  -8.40674E-03,  -764.517E-03,0.0331865,0.0507937,0.00689479
25236,21.0,-33.0,0.0,   3.69741E-03,  -8.61922E-03,  -774.788E-03,0.0330827,0.0518456,0.00656206
25241,20.0,-33.0,0.0,   3.52920E-03,  -8.81915E-03,  -784.369E-03,0.0329912,0.0528441,0.0062299
25242,19.0,-33.0,0.0,   3.35869E-03,  -9.00680E-03,  -793.297E-03,0.0329106,0.0537896,0.00589899
25247,18.0,-33.0,0.0,   3.18633E-03,  -9.18248E-03,  -801.601E-03,0.0328397,0.0546825,0.00556981
25250,17.0,-33.0,0.0,   3.01249E-03,  -9.34651E-03,  -809.311E-03,0.0327775,0.0555234,0.00524273
25251,16.0,-33.0,0.0,   2.83751E-03,  -9.49919E-03,  -816.454E-03,0.0327229,0.0563127,0.00491796
25256,15.0,-33.0,0.0,   2.66164E-03,  -9.64085E-03,  -823.053E-03,0.032675,0.0570509,0.00459565
25257,14.0,-33.0,0.0,   2.48511E-03,  -9.77178E-03,  -829.131E-03,0.0326332,0.0577387,0.00427585
25262,13.0,-33.0,0.0,   2.30809E-03,  -9.89227E-03,  -834.708E-03,0.0325967,0.0583765,0.00395855
25265,12.0,-33.0,0.0,   2.13074E-03,  -10.0026E-03,  -839.803E-03,0.0325648,0.0589647,0.0036437
25266,11.0,-33.0,0.0,   1.95317E-03,  -10.1031E-03,  -844.431E-03,0.0325372,0.059504,0.00333119
25271,10.0,-33.0,0.0,   1.77548E-03,  -10.1939E-03,  -848.609E-03,0.0325133,0.0599946,0.0030209
25272,9.0,-33.0,0.0,   1.59774E-03,  -10.2754E-03,  -852.349E-03,0.0324928,0.0604371,0.00271268
25277,8.0,-33.0,0.0,   1.41999E-03,  -10.3477E-03,  -855.664E-03,0.0324753,0.0608319,0.00240636
25280,7.0,-33.0,0.0,   1.24228E-03,  -10.4110E-03,  -858.565E-03,0.0324604,0.0611793,0.00210175
25281,6.0,-33.0,0.0,   1.06462E-03,  -10.4655E-03,  -861.061E-03,0.0324481,0.0614797,0.00179865
25286,5.0,-33.0,0.0,   887.040E-06,  -10.5113E-03,  -863.159E-03,0.0324379,0.0617334,0.00149685
25287,4.0,-33.0,0.0,   709.527E-06,  -10.5487E-03,  -864.866E-03,0.0324299,0.0619406,0.00119616
25292,3.0,-33.0,0.0,   532.080E-06,  -10.5776E-03,  -866.189E-03,0.0324237,0.0621015,0.000896343
25295,2.0,-33.0,0.0,   354.688E-06,  -10.5982E-03,  -867.131E-03,0.0324194,0.0622163,0.000597192
25296,1.0,-33.0,0.0,   177.334E-06,  -10.6105E-03,  -867.694E-03,0.0324169,0.0622851,0.000298485
25301,0.0,-33.0,0.0,   4.19754E-15,  -10.6146E-03,  -867.882E-03,0.032416,0.0623081,0.0
25302,-1.0,-33.0,0.0,  -177.334E-06,  -10.6105E-03,  -867.694E-03,0.0324169,0.0622851,-0.000298485
25307,-2.0,-33.0,0.0,  -354.688E-06,  -10.5982E-03,  -867.131E-03,0.0324194,0.0622163,-0.000597192
25310,-3.0,-33.0,0.0,  -532.080E-06,  -10.5776E-03,  -866.189E-03,0.0324237,0.0621015,-0.000896343
25311,-4.0,-33.0,0.0,  -709.527E-06,  -10.5487E-03,  -864.866E-03,0.0324299,0.0619406,-0.00119616
25316,-5.0,-33.0,0.0,  -887.040E-06,  -10.5113E-03,  -863.159E-03,0.0324379,0.0617334,-0.00149685
25317,-6.0,-33.0,0.0,  -1.06462E-03,  -10.4655E-03,  -861.061E-03,0.0324481,0.0614797,-0.00179865
25322,-7.0,-33.0,0.0,  -1.24228E-03,  -10.4110E-03,  -858.565E-03,0.0324604,0.0611793,-0.00210175
25325,-8.0,-33.0,0.0,  -1.41999E-03,  -10.3477E-03,  -855.664E-03,0.0324753,0.0608319,-0.00240636
25326,-9.0,-33.0,0.0,  -1.59774E-03,  -10.2754E-03,  -852.349E-03,0.0324928,0.0604371,-0.00271268
25331,-10.0,-33.0,0.0,  -1.77548E-03,  -10.1939E-03,  -848.609E-03,0.0325133,0.0599946,-0.0030209
25332,-11.0,-33.0,0.0,  -1.95317E-03,  -10.1031E-03,  -844.431E-03,0.0325372,0.059504,-0.00333119
25337,-12.0,-33.0,0.0,  -2.13074E-03,  -10.0026E-03,  -839.803E-03,0.0325648,0.0589647,-0.0036437
25340,-13.0,-33.0,0.0,  -2.30809E-03,  -9.89227E-03,  -834.708E-03,0.0325967,0.0583765,-0.00395855
25341,-14.0,-33.0,0.0,  -2.48511E-03,  -9.77178E-03,  -829.131E-03,0.0326332,0.0577387,-0.00427585
25346,-15.0,-33.0,0.0,  -2.66164E-03,  -9.64085E-03,  -823.053E-03,0.032675,0.057051,-0.00459565
25347,-16.0,-33.0,0.0,  -2.83751E-03,  -9.49919E-03,  -816.454E-03,0.0327229,0.0563127,-0.00491796
25352,-17.0,-33.0,0.0,  -3.01249E-03,  -9.34651E-03,  -809.311E-03,0.0327775,0.0555234,-0.00524273
25355,-18.0,-33.0,0.0,  -3.18633E-03,  -9.18248E-03,  -801.601E-03,0.0328397,0.0546825,-0.00556981
25356,-19.0,-33.0,0.0,  -3.35869E-03,  -9.00680E-03,  -793.297E-03,0.0329106,0.0537896,-0.00589899
25361,-20.0,-33.0,0.0,  -3.52920E-03,  -8.81915E-03,  -784.369E-03,0.0329912,0.0528441,-0.0062299
25362,-21.0,-33.0,0.0,  -3.69741E-03,  -8.61922E-03,  -774.788E-03,0.0330827,0.0518456,-0.00656206
25367,-22.0,-33.0,0.0,  -3.86279E-03,  -8.40674E-03,  -764.517E-03,0.0331865,0.0507937,-0.00689479
25370,-23.0,-33.0,0.0,  -4.02469E-03,  -8.18142E-03,  -753.520E-03,0.0333042,0.0496879,-0.0072272
25371,-24.0,-33.0,0.0,  -4.18238E-03,  -7.94302E-03,  -741.756E-03,0.0334374,0.0485279,-0.00755814
25376,-25.0,-33.0,0.0,  -4.33497E-03,  -7.69135E-03,  -729.181E-03,0.033588,0.0473134,-0.00788615
25377,-26.0,-33.0,0.0,  -4.48143E-03,  -7.42623E-03,  -715.744E-03,0.0337578,0.0460444,-0.00820936
25382,-27.0,-33.0,0.0,  -4.62055E-03,  -7.14760E-03,  -701.394E-03,0.0339491,0.0447208,-0.00852549
25385,-28.0,-33.0,0.0,  -4.75087E-03,  -6.85543E-03,  -686.071E-03,0.0341639,0.0433428,-0.0088317
25386,-29.0,-33.0,0.0,  -4.87072E-03,  -6.54982E-03,  -669.712E-03,0.0344046,0.041911,-0.00912454
25391,-30.0,-33.0,0.0,  -4.97809E-03,  -6.23098E-03,  -652.247E-03,0.0346735,0.040426,-0.0093998
25392,-31.0,-33.0,0.0,  -5.07062E-03,  -5.89928E-03,  -633.598E-03,0.0349725,0.0388891,-0.0096525
25397,-32.0,-33.0,0.0,  -5.14555E-03,  -5.55524E-03,  -613.683E-03,0.0353035,0.0373023,-0.00987669
25400,-33.0,-33.0,0.0,  -5.19961E-03,  -5.19961E-03,  -592.409E-03,0.0356679,0.0356679,-0.0100654
25401,-34.0,-33.0,0.0,  -5.22896E-03,  -4.83340E-03,  -569.677E-03,0.0360661,0.0339896,-0.0102108
25406,-35.0,-33.0,0.0,  -5.22910E-03,  -4.45790E-03,  -545.379E-03,0.0364974,0.0322719,-0.0103037
25407,-36.0,-33.0,0.0,  -5.19478E-03,  -4.07472E-03,  -519.399E-03,0.0369589,0.0305208,-0.0103342
25412,-37.0,-33.0,0.0,  -5.11991E-03,  -3.68589E-03,  -491.614E-03,0.0374448,0.0287437,-0.010292
25415,-38.0,-33.0,0.0,  -4.99749E-03,  -3.29386E-03,  -461.892E-03,0.0379444,0.0269495,-0.0101665
25416,-39.0,-33.0,0.0,  -4.81957E-03,  -2.90155E-03,  -430.101E-03,0.0384391,0.0251477,-0.00994789
25421,-40.0,-33.0,0.0,  -4.57734E-03,  -2.51244E-03,  -396.108E-03,0.0388965,0.0233479,-0.00962875
25422,-41.0,-33.0,0.0,  -4.26134E-03,  -2.13055E-03,  -359.790E-03,0.0392595,0.0215558,-0.00920582
25427,-42.0,-33.0,0.0,  -3.86204E-03,  -1.76052E-03,  -321.047E-03,0.039425,0.0197675,-0.00868261
25430,-43.0,-33.0,0.0,  -3.37113E-03,  -1.40763E-03,  -279.829E-03,0.0392,0.0179562,-0.00807326
25431,-44.0,-33.0,0.0,  -2.78409E-03,  -1.07785E-03,  -236.189E-03,0.0382132,0.0160449,-0.00740494
25436,-45.0,-33.0,0.0,  -2.10554E-03,  -777.957E-06,  -190.370E-03,0.0357324,0.0138517,-0.00672047
25437,-46.0,-33.0,0.0,  -1.35977E-03,  -515.681E-06,  -143.003E-03,0.0302892,0.0109778,-0.00606661
25442,-47.0,-33.0,0.0,  -610.373E-06,  -299.745E-06,  -95.4818E-03,0.0189107,0.00657975,-0.00546321
25445,-48.0,-33.0,0.0,   8.75173E-06,  -139.247E-06,  -50.7346E-03,-0.00444554,-0.00109974,-0.00477948
25446,-49.0,-33.0,0.0,   271.860E-06,  -40.6169E-06,  -14.7962E-03,-0.0520402,-0.0156838,-0.00344595
25451,-50.0,-33.0,0.0,   1.46203E-39,  -458.255E-42,           -0.,-0.0839487,-0.0251917,-0.00142611
25452,50.0,-34.0,0.0,  -1.35771E-39,  -422.693E-42,           -0.,-0.082034,-0.0246177,0.00137727
25457,49.0,-34.0,0.0,  -253.738E-06,  -38.0392E-06,  -14.2866E-03,-0.0516654,-0.0156042,0.00350973
25460,48.0,-34.0,0.0,  -4.88543E-06,  -136.502E-06,  -49.1101E-03,-0.00598883,-0.00160138,0.004952
25461,47.0,-34.0,0.0,   585.435E-06,  -299.697E-06,  -92.6406E-03,0.0169858,0.0059939,0.00570467
25466,46.0,-34.0,0.0,   1.30265E-03,  -521.038E-06,  -138.950E-03,0.0284431,0.0104796,0.0063583
25467,45.0,-34.0,0.0,   2.01595E-03,  -790.723E-06,  -185.096E-03,0.0340421,0.0134899,0.00705375
25472,44.0,-34.0,0.0,   2.66209E-03,  -1.09910E-03,  -229.653E-03,0.0366402,0.0158232,0.0077722
25475,43.0,-34.0,0.0,   3.21688E-03,  -1.43752E-03,  -271.972E-03,0.0376868,0.0178631,0.00846468
25476,42.0,-34.0,0.0,   3.67605E-03,  -1.79838E-03,  -311.798E-03,0.037925,0.0197865,0.00908611
25481,41.0,-34.0,0.0,   4.04472E-03,  -2.17509E-03,  -349.089E-03,0.0377426,0.0216696,0.00960852
25482,40.0,-34.0,0.0,   4.33187E-03,  -2.56192E-03,  -383.905E-03,0.0373473,0.0235398,0.0100185
25487,39.0,-34.0,0.0,   4.54763E-03,  -2.95397E-03,  -416.363E-03,0.036853,0.0254022,0.0103144
25490,38.0,-34.0,0.0,   4.70190E-03,  -3.34711E-03,  -446.606E-03,0.0363235,0.0272526,0.010502
25491,37.0,-34.0,0.0,   4.80380E-03,  -3.73790E-03,  -474.781E-03,0.0357955,0.0290832,0.0105913
25496,36.0,-34.0,0.0,   4.86138E-03,  -4.12351E-03,  -501.038E-03,0.0352895,0.0308863,0.0105946
25497,35.0,-34.0,0.0,   4.88167E-03,  -4.50170E-03,  -525.518E-03,0.0348168,0.0326548,0.0105243
25502,34.0,-34.0,0.0,   4.87064E-03,  -4.87064E-03,  -548.357E-03,0.0343829,0.0343829,0.0103927
25505,33.0,-34.0,0.0,   4.83340E-03,  -5.22896E-03,  -569.677E-03,0.0339896,0.0360661,0.0102108
25506,32.0,-34.0,0.0,   4.77423E-03,  -5.57559E-03,  -589.592E-03,0.0336366,0.0377011,0.00998821
25511,31.0,-34.0,0.0,   4.69673E-03,  -5.90977E-03,  -608.205E-03,0.0333222,0.0392853,0.00973351
25512,30.0,-34.0,0.0,   4.60393E-03,  -6.23094E-03,  -625.609E-03,0.033044,0.0408172,0.00945376
25517,29.0,-34.0,0.0,   4.49837E-03,  -6.53876E-03,  -641.890E-03,0.0327991,0.0422955,0.0091549
25520,28.0,-34.0,0.0,   4.38217E-03,  -6.83305E-03,  -657.124E-03,0.0325845,0.0437196,0.0088418
25521,27.0,-34.0,0.0,   4.25712E-03,  -7.11373E-03,  -671.381E-03,0.0323972,0.0450891,0.00851844
25526,26.0,-34.0,0.0,   4.12471E-03,  -7.38084E-03,  -684.724E-03,0.0322344,0.0464039,0.00818802
25527,25.0,-34.0,0.0,   3.98622E-03,  -7.63449E-03,  -697.209E-03,0.0320933,0.047664,0.0078531
25532,24.0,-34.0,0.0,   3.84269E-03,  -7.87487E-03,  -708.888E-03,0.0319713,0.0488696,0.0075157
25535,23.0,-34.0,0.0,   3.69502E-03,  -8.10221E-03,  -719.809E-03,0.0318663,0.050021,0.0071774
25536,22.0,-34.0,0.0,   3.54396E-03,  -8.31677E-03,  -730.014E-03,0.0317761,0.0511185,0.00683942
25541,21.0,-34.0,0.0,   3.39015E-03,  -8.51885E-03,  -739.542E-03,0.0316989,0.0521626,0.00650268
25542,20.0,-34.0,0.0,   3.23413E-03,  -8.70876E-03,  -748.430E-03,0.0316331,0.0531536,0.00616787
25547,19.0,-34.0,0.0,   3.07633E-03,  -8.88682E-03,  -756.708E-03,0.0315771,0.054092,0.00583547
25550,18.0,-34.0,0.0,   2.91713E-03,  -9.05336E-03,  -764.407E-03,0.0315296,0.0549784,0.00550581
25551,17.0,-34.0,0.0,   2.75686E-03,  -9.20872E-03,  -771.555E-03,0.0314895,0.0558131,0.00517911
25556,16.0,-34.0,0.0,   2.59577E-03,  -9.35322E-03,  -778.175E-03,0.0314558,0.0565968,0.00485546
25557,15.0,-34.0,0.0,   2.43408E-03,  -9.48719E-03,  -784.292E-03,0.0314275,0.0573299,0.0045349
25562,14.0,-34.0,0.0,   2.27197E-03,  -9.61093E-03,  -789.924E-03,0.031404,0.058013,0.00421739
25565,13.0,-34.0,0.0,   2.10957E-03,  -9.72474E-03,  -795.092E-03,0.0313845,0.0586464,0.00390284
25566,12.0,-34.0,0.0,   1.94701E-03,  -9.82892E-03,  -799.813E-03,0.0313684,0.0592308,0.00359112
25571,11.0,-34.0,0.0,   1.78438E-03,  -9.92372E-03,  -804.102E-03,0.0313552,0.0597665,0.00328208
25572,10.0,-34.0,0.0,   1.62174E-03,  -10.0094E-03,  -807.973E-03,0.0313444,0.0602541,0.00297554
25577,9.0,-34.0,0.0,   1.45914E-03,  -10.0862E-03,  -811.438E-03,0.0313357,0.0606938,0.00267129
25580,8.0,-34.0,0.0,   1.29663E-03,  -10.1543E-03,  -814.510E-03,0.0313288,0.0610861,0.00236914
25581,7.0,-34.0,0.0,   1.13422E-03,  -10.2140E-03,  -817.197E-03,0.0313232,0.0614314,0.00206887
25586,6.0,-34.0,0.0,   971.914E-06,  -10.2653E-03,  -819.509E-03,0.0313189,0.06173,0.00177024
25587,5.0,-34.0,0.0,   809.724E-06,  -10.3085E-03,  -821.453E-03,0.0313156,0.0619822,0.00147302
25592,4.0,-34.0,0.0,   647.637E-06,  -10.3437E-03,  -823.035E-03,0.031313,0.0621881,0.001177
25595,3.0,-34.0,0.0,   485.642E-06,  -10.3709E-03,  -824.261E-03,0.0313112,0.0623481,0.000881916
25596,2.0,-34.0,0.0,   323.720E-06,  -10.3903E-03,  -825.133E-03,0.03131,0.0624623,0.000587548
25601,1.0,-34.0,0.0,   161.847E-06,  -10.4019E-03,  -825.656E-03,0.0313093,0.0625307,0.000293655
25602,0.0,-34.0,0.0,   264.346E-18,  -10.4058E-03,  -825.830E-03,0.031309,0.0625535,3.63798e-12
25607,-1.0,-34.0,0.0,  -161.847E-06,  -10.4019E-03,  -825.656E-03,0.0313093,0.0625307,-0.000293655
25610,-2.0,-34.0,0.0,  -323.720E-06,  -10.3903E-03,  -825.133E-03,0.03131,0.0624623,-0.000587548
25611,-3.0,-34.0,0.0,  -485.642E-06,  -10.3709E-03,  -824.261E-03,0.0313112,0.0623481,-0.000881916
25616,-4.0,-34.0,0.0,  -647.637E-06,  -10.3437E-03,  -823.035E-03,0.031313,0.0621882,-0.001177
25617,-5.0,-34.0,0.0,  -809.724E-06,  -10.3085E-03,  -821.453E-03,0.0313156,0.0619822,-0.00147302
25622,-6.0,-34.0,0.0,  -971.914E-06,  -10.2653E-03,  -819.509E-03,0.0313189,0.06173,-0.00177024
25625,-7.0,-34.0,0.0,  -1.13422E-03,  -10.2140E-03,  -817.197E-03,0.0313232,0.0614314,-0.00206887
25626,-8.0,-34.0,0.0,  -1.29663E-03,  -10.1543E-03,  -814.510E-03,0.0313288,0.0610861,-0.00236914
25631,-9.0,-34.0,0.0,  -1.45914E-03,  -10.0862E-03,  -811.438E-03,0.0313357,0.0606938,-0.00267129
25632,-10.0,-34.0,0.0,  -1.62174E-03,  -10.0094E-03,  -807.973E-03,0.0313444,0.0602541,-0.00297554
25637,-11.0,-34.0,0.0,  -1.78438E-03,  -9.92372E-03,  -804.102E-03,0.0313552,0.0597665,-0.00328208
25640,-12.0,-34.0,0.0,  -1.94701E-03,  -9.82892E-03,  -799.813E-03,0.0313684,0.0592308,-0.00359112
25641,-13.0,-34.0,0.0,  -2.10957E-03,  -9.72474E-03,  -795.092E-03,0.0313845,0.0586465,-0.00390284
25646,-14.0,-34.0,0.0,  -2.27197E-03,  -9.61093E-03,  -789.924E-03,0.031404,0.058013,-0.00421739
25647,-15.0,-34.0,0.0,  -2.43408E-03,  -9.48719E-03,  -784.292E-03,0.0314275,0.0573299,-0.0045349
25652,-16.0,-34.0,0.0,  -2.59577E-03,  -9.35322E-03,  -778.175E-03,0.0314558,0.0565968,-0.00485546
25655,-17.0,-34.0,0.0,  -2.75686E-03,  -9.20872E-03,  -771.555E-03,0.0314895,0.0558131,-0.00517911
25656,-18.0,-34.0,0.0,  -2.91713E-03,  -9.05336E-03,  -764.407E-03,0.0315296,0.0549784,-0.00550581
25661,-19.0,-34.0,0.0,  -3.07633E-03,  -8.88682E-03,  -756.708E-03,0.0315771,0.054092,-0.00583547
25662,-20.0,-34.0,0.0,  -3.23413E-03,  -8.70876E-03,  -748.430E-03,0.0316331,0.0531536,-0.00616787
25667,-21.0,-34.0,0.0,  -3.39015E-03,  -8.51885E-03,  -739.542E-03,0.0316989,0.0521626,-0.00650268
25670,-22.0,-34.0,0.0,  -3.54396E-03,  -8.31677E-03,  -730.014E-03,0.0317761,0.0511185,-0.00683942
25671,-23.0,-34.0,0.0,  -3.69502E-03,  -8.10221E-03,  -719.809E-03,0.0318663,0.050021,-0.0071774
25676,-24.0,-34.0,0.0,  -3.84269E-03,  -7.87487E-03,  -708.888E-03,0.0319713,0.0488696,-0.0075157
25677,-25.0,-34.0,0.0,  -3.98622E-03,  -7.63449E-03,  -697.209E-03,0.0320933,0.047664,-0.0078531
25682,-26.0,-34.0,0.0,  -4.12471E-03,  -7.38084E-03,  -684.724E-03,0.0322344,0.0464039,-0.00818802
25685,-27.0,-34.0,0.0,  -4.25712E-03,  -7.11373E-03,  -671.381E-03,0.0323973,0.0450891,-0.00851844
25686,-28.0,-34.0,0.0,  -4.38217E-03,  -6.83305E-03,  -657.124E-03,0.0325845,0.0437196,-0.0088418
25691,-29.0,-34.0,0.0,  -4.49837E-03,  -6.53876E-03,  -641.890E-03,0.0327991,0.0422955,-0.0091549
25692,-30.0,-34.0,0.0,  -4.60393E-03,  -6.23094E-03,  -625.609E-03,0.033044,0.0408172,-0.00945376
25697,-31.0,-34.0,0.0,  -4.69673E-03,  -5.90977E-03,  -608.205E-03,0.0333222,0.0392853,-0.00973351
25700,-32.0,-34.0,0.0,  -4.77423E-03,  -5.57559E-03,  -589.592E-03,0.0336366,0.0377011,-0.00998821
25701,-33.0,-34.0,0.0,  -4.83340E-03,  -5.22896E-03,  -569.677E-03,0.0339896,0.0360661,-0.0102108
25706,-34.0,-34.0,0.0,  -4.87064E-03,  -4.87064E-03,  -548.357E-03,0.0343829,0.0343829,-0.0103927
25707,-35.0,-34.0,0.0,  -4.88167E-03,  -4.50170E-03,  -525.518E-03,0.0348168,0.0326548,-0.0105243
25712,-36.0,-34.0,0.0,  -4.86138E-03,  -4.12351E-03,  -501.038E-03,0.0352895,0.0308863,-0.0105946
25715,-37.0,-34.0,0.0,  -4.80380E-03,  -3.73790E-03,  -474.781E-03,0.0357955,0.0290832,-0.0105913
25716,-38.0,-34.0,0.0,  -4.70190E-03,  -3.34711E-03,  -446.606E-03,0.0363235,0.0272526,-0.010502
25721,-39.0,-34.0,0.0,  -4.54763E-03,  -2.95397E-03,  -416.363E-03,0.036853,0.0254023,-0.0103144
25722,-40.0,-34.0,0.0,  -4.33187E-03,  -2.56192E-03,  -383.905E-03,0.0373473,0.0235398,-0.0100185
25727,-41.0,-34.0,0.0,  -4.04472E-03,  -2.17509E-03,  -349.089E-03,0.0377426,0.0216696,-0.00960852
25730,-42.0,-34.0,0.0,  -3.67605E-03,  -1.79838E-03,  -311.798E-03,0.037925,0.0197865,-0.00908611
25731,-43.0,-34.0,0.0,  -3.21688E-03,  -1.43752E-03,  -271.972E-03,0.0376868,0.0178631,-0.00846468
25736,-44.0,-34.0,0.0,  -2.66209E-03,  -1.09910E-03,  -229.653E-03,0.0366402,0.0158232,-0.0077722
25737,-45.0,-34.0,0.0,  -2.01595E-03,  -790.723E-06,  -185.096E-03,0.0340421,0.0134899,-0.00705375
25742,-46.0,-34.0,0.0,  -1.30265E-03,  -521.038E-06,  -138.950E-03,0.0284431,0.0104796,-0.0063583
25745,-47.0,-34.0,0.0,  -585.435E-06,  -299.697E-06,  -92.6406E-03,0.0169858,0.0059939,-0.00570467
25746,-48.0,-34.0,0.0,   4.88543E-06,  -136.502E-06,  -49.1101E-03,-0.00598883,-0.00160138,-0.004952
25751,-49.0,-34.0,0.0,   253.738E-06,  -38.0392E-06,  -14.2866E-03,-0.0516654,-0.0156042,-0.00350973
25752,-50.0,-34.0,0.0,   1.35771E-39,  -422.693E-42,           -0.,-0.082034,-0.0246177,-0.00137727
25757,50.0,-35.0,0.0,  -1.24806E-39,  -384.949E-42,           -0.,-0.0799967,-0.0240069,0.00131516
25760,49.0,-35.0,0.0,  -234.580E-06,  -34.8813E-06,  -13.7494E-03,-0.0512132,-0.0155007,0.00356903
25761,48.0,-35.0,0.0,   17.4069E-09,  -132.625E-06,  -47.3873E-03,-0.00752792,-0.00209742,0.00513358
25766,47.0,-35.0,0.0,   560.152E-06,  -298.019E-06,  -89.6075E-03,0.0150275,0.00541163,0.00596593
25767,46.0,-35.0,0.0,   1.24297E-03,  -524.324E-06,  -134.598E-03,0.0265539,0.00999684,0.00667615
25772,45.0,-35.0,0.0,   1.92124E-03,  -800.965E-06,  -179.411E-03,0.0323104,0.0131617,0.00741523
25775,44.0,-35.0,0.0,   2.53245E-03,  -1.11723E-03,  -222.590E-03,0.0350286,0.015654,0.00816572
25776,43.0,-35.0,0.0,   3.05268E-03,  -1.46342E-03,  -263.464E-03,0.036135,0.017838,0.00887702
25781,42.0,-35.0,0.0,   3.47820E-03,  -1.83103E-03,  -301.777E-03,0.0363832,0.0198841,0.00950253
25782,41.0,-35.0,0.0,   3.81482E-03,  -2.21277E-03,  -337.493E-03,0.0361794,0.0218671,0.0100144
25787,40.0,-35.0,0.0,   4.07225E-03,  -2.60248E-03,  -370.690E-03,0.0357471,0.0238156,0.010401
25790,39.0,-35.0,0.0,   4.26118E-03,  -2.99504E-03,  -401.504E-03,0.0352122,0.0257369,0.0106634
25791,38.0,-35.0,0.0,   4.39194E-03,  -3.38629E-03,  -430.096E-03,0.0346464,0.0276296,0.0108104
25796,37.0,-35.0,0.0,   4.47384E-03,  -3.77290E-03,  -456.634E-03,0.0340904,0.0294888,0.0108553
25797,36.0,-35.0,0.0,   4.51500E-03,  -4.15226E-03,  -481.283E-03,0.0335666,0.0313093,0.010813
25802,35.0,-35.0,0.0,   4.52235E-03,  -4.52235E-03,  -504.197E-03,0.0330865,0.0330865,0.0106981
25805,34.0,-35.0,0.0,   4.50170E-03,  -4.88167E-03,  -525.518E-03,0.0326548,0.0348168,0.0105243
25806,33.0,-35.0,0.0,   4.45790E-03,  -5.22910E-03,  -545.379E-03,0.0322719,0.0364974,0.0103037
25811,32.0,-35.0,0.0,   4.39496E-03,  -5.56388E-03,  -563.897E-03,0.0319361,0.0381261,0.0100464
25812,31.0,-35.0,0.0,   4.31623E-03,  -5.88547E-03,  -581.176E-03,0.0316442,0.0397018,0.00976128
25817,30.0,-35.0,0.0,   4.22445E-03,  -6.19356E-03,  -597.313E-03,0.0313924,0.0412235,0.00945531
25818,29.0,-35.0,0.0,   4.12190E-03,  -6.48800E-03,  -612.392E-03,0.0311767,0.0426908,0.00913425
25823,28.0,-35.0,0.0,   4.01045E-03,  -6.76876E-03,  -626.489E-03,0.030993,0.0441035,0.0088027
25824,27.0,-35.0,0.0,   3.89168E-03,  -7.03593E-03,  -639.672E-03,0.0308376,0.0454615,0.00846428
25829,26.0,-35.0,0.0,   3.76688E-03,  -7.28966E-03,  -652.001E-03,0.030707,0.0467649,0.00812184
25832,25.0,-35.0,0.0,   3.63714E-03,  -7.53016E-03,  -663.533E-03,0.0305979,0.048014,0.00777756
25833,24.0,-35.0,0.0,   3.50336E-03,  -7.75769E-03,  -674.316E-03,0.0305075,0.0492091,0.00743315
25838,23.0,-35.0,0.0,   3.36630E-03,  -7.97256E-03,  -684.396E-03,0.0304331,0.0503505,0.00708986
25839,22.0,-35.0,0.0,   3.22658E-03,  -8.17508E-03,  -693.812E-03,0.0303726,0.0514386,0.00674864
25844,21.0,-35.0,0.0,   3.08475E-03,  -8.36558E-03,  -702.602E-03,0.0303239,0.0524739,0.00641015
25847,20.0,-35.0,0.0,   2.94123E-03,  -8.54442E-03,  -710.799E-03,0.0302853,0.0534567,0.00607487
25848,19.0,-35.0,0.0,   2.79640E-03,  -8.71193E-03,  -718.434E-03,0.0302552,0.0543875,0.00574309
25853,18.0,-35.0,0.0,   2.65056E-03,  -8.86847E-03,  -725.534E-03,0.0302322,0.0552669,0.00541498
25854,17.0,-35.0,0.0,   2.50398E-03,  -9.01438E-03,  -732.124E-03,0.0302152,0.0560952,0.0050906
25859,16.0,-35.0,0.0,   2.35686E-03,  -9.14999E-03,  -738.228E-03,0.0302031,0.056873,0.00476994
25862,15.0,-35.0,0.0,   2.20937E-03,  -9.27563E-03,  -743.867E-03,0.0301952,0.0576007,0.00445292
25863,14.0,-35.0,0.0,   2.06165E-03,  -9.39161E-03,  -749.060E-03,0.0301905,0.0582789,0.00413941
25868,13.0,-35.0,0.0,   1.91381E-03,  -9.49823E-03,  -753.825E-03,0.0301884,0.0589079,0.00382925
25869,12.0,-35.0,0.0,   1.76595E-03,  -9.59577E-03,  -758.177E-03,0.0301884,0.0594883,0.00352226
25874,11.0,-35.0,0.0,   1.61812E-03,  -9.68450E-03,  -762.130E-03,0.03019,0.0600204,0.00321822
25877,10.0,-35.0,0.0,   1.47038E-03,  -9.76466E-03,  -765.699E-03,0.0301926,0.0605048,0.00291691
25878,9.0,-35.0,0.0,   1.32276E-03,  -9.83649E-03,  -768.894E-03,0.030196,0.0609417,0.00261809
25883,8.0,-35.0,0.0,   1.17528E-03,  -9.90018E-03,  -771.725E-03,0.0301997,0.0613316,0.00232152
25884,7.0,-35.0,0.0,   1.02795E-03,  -9.95594E-03,  -774.203E-03,0.0302036,0.0616748,0.00202695
25889,6.0,-35.0,0.0,   880.771E-06,  -10.0039E-03,  -776.334E-03,0.0302075,0.0619716,0.00173413
25892,5.0,-35.0,0.0,   733.731E-06,  -10.0443E-03,  -778.126E-03,0.030211,0.0622222,0.00144282
25893,4.0,-35.0,0.0,   586.819E-06,  -10.0771E-03,  -779.585E-03,0.0302141,0.062427,0.00115276
25898,3.0,-35.0,0.0,   440.015E-06,  -10.1026E-03,  -780.714E-03,0.0302166,0.062586,0.000863693
25899,2.0,-35.0,0.0,   293.295E-06,  -10.1207E-03,  -781.519E-03,0.0302185,0.0626995,0.000575379
25904,1.0,-35.0,0.0,   146.633E-06,  -10.1315E-03,  -782.000E-03,0.0302197,0.0627676,0.000287565
25907,0.0,-35.0,0.0,   289.698E-18,  -10.1351E-03,  -782.161E-03,0.0302201,0.0627903,0.0
25908,-1.0,-35.0,0.0,  -146.633E-06,  -10.1315E-03,  -782.000E-03,0.0302197,0.0627676,-0.000287565
25913,-2.0,-35.0,0.0,  -293.295E-06,  -10.1207E-03,  -781.519E-03,0.0302185,0.0626995,-0.000575379
25914,-3.0,-35.0,0.0,  -440.015E-06,  -10.1026E-03,  -780.714E-03,0.0302166,0.062586,-0.000863693
25919,-4.0,-35.0,0.0,  -586.819E-06,  -10.0771E-03,  -779.585E-03,0.0302141,0.062427,-0.00115276
25922,-5.0,-35.0,0.0,  -733.731E-06,  -10.0443E-03,  -778.126E-03,0.030211,0.0622222,-0.00144282
25923,-6.0,-35.0,0.0,  -880.771E-06,  -10.0039E-03,  -776.334E-03,0.0302075,0.0619716,-0.00173413
25928,-7.0,-35.0,0.0,  -1.02795E-03,  -9.95594E-03,  -774.203E-03,0.0302036,0.0616748,-0.00202695
25929,-8.0,-35.0,0.0,  -1.17528E-03,  -9.90018E-03,  -771.725E-03,0.0301997,0.0613316,-0.00232152
25934,-9.0,-35.0,0.0,  -1.32276E-03,  -9.83649E-03,  -768.894E-03,0.030196,0.0609417,-0.00261809
25937,-10.0,-35.0,0.0,  -1.47038E-03,  -9.76466E-03,  -765.699E-03,0.0301926,0.0605048,-0.00291691
25938,-11.0,-35.0,0.0,  -1.61812E-03,  -9.68450E-03,  -762.130E-03,0.03019,0.0600204,-0.00321822
25943,-12.0,-35.0,0.0,  -1.76595E-03,  -9.59577E-03,  -758.177E-03,0.0301884,0.0594883,-0.00352226
25944,-13.0,-35.0,0.0,  -1.91381E-03,  -9.49823E-03,  -753.825E-03,0.0301884,0.0589079,-0.00382925
25949,-14.0,-35.0,0.0,  -2.06165E-03,  -9.39161E-03,  -749.060E-03,0.0301905,0.0582789,-0.00413941
25952,-15.0,-35.0,0.0,  -2.20937E-03,  -9.27563E-03,  -743.867E-03,0.0301952,0.0576007,-0.00445292
25953,-16.0,-35.0,0.0,  -2.35686E-03,  -9.14999E-03,  -738.228E-03,0.0302031,0.056873,-0.00476994
25958,-17.0,-35.0,0.0,  -2.50398E-03,  -9.01438E-03,  -732.124E-03,0.0302152,0.0560952,-0.0050906
25959,-18.0,-35.0,0.0,  -2.65056E-03,  -8.86847E-03,  -725.534E-03,0.0302322,0.0552669,-0.00541498
25964,-19.0,-35.0,0.0,  -2.79640E-03,  -8.71193E-03,  -718.434E-03,0.0302552,0.0543875,-0.00574309
25967,-20.0,-35.0,0.0,  -2.94123E-03,  -8.54442E-03,  -710.799E-03,0.0302853,0.0534567,-0.00607487
25968,-21.0,-35.0,0.0,  -3.08475E-03,  -8.36558E-03,  -702.602E-03,0.0303239,0.0524739,-0.00641015
25973,-22.0,-35.0,0.0,  -3.22658E-03,  -8.17508E-03,  -693.812E-03,0.0303726,0.0514386,-0.00674864
25974,-23.0,-35.0,0.0,  -3.36630E-03,  -7.97256E-03,  -684.396E-03,0.0304331,0.0503505,-0.00708986
25979,-24.0,-35.0,0.0,  -3.50336E-03,  -7.75769E-03,  -674.316E-03,0.0305075,0.0492091,-0.00743315
25982,-25.0,-35.0,0.0,  -3.63714E-03,  -7.53016E-03,  -663.533E-03,0.0305979,0.048014,-0.00777756
25983,-26.0,-35.0,0.0,  -3.76688E-03,  -7.28966E-03,  -652.001E-03,0.030707,0.0467649,-0.00812184
25988,-27.0,-35.0,0.0,  -3.89168E-03,  -7.03593E-03,  -639.672E-03,0.0308376,0.0454615,-0.00846428
25989,-28.0,-35.0,0.0,  -4.01045E-03,  -6.76876E-03,  -626.489E-03,0.030993,0.0441035,-0.0088027
25994,-29.0,-35.0,0.0,  -4.12190E-03,  -6.48800E-03,  -612.392E-03,0.0311767,0.0426908,-0.00913425
25997,-30.0,-35.0,0.0,  -4.22445E-03,  -6.19356E-03,  -597.313E-03,0.0313924,0.0412235,-0.00945531
25998,-31.0,-35.0,0.0,  -4.31623E-03,  -5.88547E-03,  -581.176E-03,0.0316442,0.0397018,-0.00976128
26003,-32.0,-35.0,0.0,  -4.39496E-03,  -5.56388E-03,  -563.897E-03,0.0319361,0.0381261,-0.0100464
26004,-33.0,-35.0,0.0,  -4.45790E-03,  -5.22910E-03,  -545.379E-03,0.0322719,0.0364974,-0.0103037
26009,-34.0,-35.0,0.0,  -4.50170E-03,  -4.88167E-03,  -525.518E-03,0.0326548,0.0348168,-0.0105243
26012,-35.0,-35.0,0.0,  -4.52235E-03,  -4.52235E-03,  -504.197E-03,0.0330865,0.0330865,-0.0106981
26013,-36.0,-35.0,0.0,  -4.51500E-03,  -4.15226E-03,  -481.283E-03,0.0335666,0.0313093,-0.010813
26018,-37.0,-35.0,0.0,  -4.47384E-03,  -3.77290E-03,  -456.634E-03,0.0340904,0.0294888,-0.0108553
26019,-38.0,-35.0,0.0,  -4.39194E-03,  -3.38629E-03,  -430.096E-03,0.0346464,0.0276296,-0.0108104
26024,-39.0,-35.0,0.0,  -4.26118E-03,  -2.99504E-03,  -401.504E-03,0.0352122,0.0257369,-0.0106634
26027,-40.0,-35.0,0.0,  -4.07225E-03,  -2.60248E-03,  -370.690E-03,0.0357471,0.0238156,-0.010401
26028,-41.0,-35.0,0.0,  -3.81482E-03,  -2.21277E-03,  -337.493E-03,0.0361794,0.0218671,-0.0100144
26033,-42.0,-35.0,0.0,  -3.47820E-03,  -1.83103E-03,  -301.777E-03,0.0363832,0.0198841,-0.00950253
26034,-43.0,-35.0,0.0,  -3.05268E-03,  -1.46342E-03,  -263.464E-03,0.036135,0.017838,-0.00887702
26039,-44.0,-35.0,0.0,  -2.53245E-03,  -1.11723E-03,  -222.590E-03,0.0350286,0.015654,-0.00816572
26042,-45.0,-35.0,0.0,  -1.92124E-03,  -800.965E-06,  -179.411E-03,0.0323104,0.0131617,-0.00741523
26043,-46.0,-35.0,0.0,  -1.24297E-03,  -524.324E-06,  -134.598E-03,0.0265539,0.00999684,-0.00667615
26048,-47.0,-35.0,0.0,  -560.152E-06,  -298.019E-06,  -89.6075E-03,0.0150275,0.00541163,-0.00596593
26049,-48.0,-35.0,0.0,  -17.4069E-09,  -132.625E-06,  -47.3873E-03,-0.00752792,-0.00209742,-0.00513358
26054,-49.0,-35.0,0.0,   234.580E-06,  -34.8813E-06,  -13.7494E-03,-0.0512132,-0.0155007,-0.00356903
26057,-50.0,-35.0,0.0,   1.24806E-39,  -384.949E-42,           -0.,-0.0799967,-0.0240069,-0.00131516
26058,50.0,-36.0,0.0,  -1.13301E-39,  -345.067E-42,           -0.,-0.0778216,-0.0233547,0.00124072
26063,49.0,-36.0,0.0,  -214.330E-06,  -31.1375E-06,  -13.1823E-03,-0.0506652,-0.0153649,0.00362681
26064,48.0,-36.0,0.0,   6.06375E-06,  -127.554E-06,  -45.5560E-03,-0.00904372,-0.00257611,0.00533028
26069,47.0,-36.0,0.0,   534.504E-06,  -294.543E-06,  -86.3584E-03,0.0130493,0.00484678,0.0062552
26072,46.0,-36.0,0.0,   1.18040E-03,  -525.216E-06,  -129.908E-03,0.0246294,0.00954566,0.00702876
26073,45.0,-36.0,0.0,   1.82076E-03,  -808.144E-06,  -173.255E-03,0.0305404,0.0128859,0.00781207
26078,44.0,-36.0,0.0,   2.39419E-03,  -1.13143E-03,  -214.918E-03,0.0333779,0.0155575,0.00858982
26079,43.0,-36.0,0.0,   2.87740E-03,  -1.48416E-03,  -254.208E-03,0.0345412,0.0179012,0.00931092
26084,42.0,-36.0,0.0,   3.26734E-03,  -1.85684E-03,  -290.869E-03,0.0347948,0.020079,0.00992868
26087,41.0,-36.0,0.0,   3.57064E-03,  -2.24147E-03,  -324.876E-03,0.034564,0.0221644,0.0104169
26088,40.0,-36.0,0.0,   3.79771E-03,  -2.63147E-03,  -356.328E-03,0.0340902,0.0241882,0.0107667
26093,39.0,-36.0,0.0,   3.95982E-03,  -3.02159E-03,  -385.382E-03,0.0335123,0.0261615,0.0109832
26094,38.0,-36.0,0.0,   4.06758E-03,  -3.40772E-03,  -412.222E-03,0.03291,0.028087,0.0110791
26099,37.0,-36.0,0.0,   4.13043E-03,  -3.78676E-03,  -437.035E-03,0.0323283,0.029964,0.0110711
26102,36.0,-36.0,0.0,   4.15641E-03,  -4.15641E-03,  -459.999E-03,0.0317911,0.0317911,0.0109769
26103,35.0,-36.0,0.0,   4.15226E-03,  -4.51500E-03,  -481.283E-03,0.0313093,0.0335666,0.010813
26108,34.0,-36.0,0.0,   4.12351E-03,  -4.86138E-03,  -501.038E-03,0.0308863,0.0352895,0.0105946
26109,33.0,-36.0,0.0,   4.07472E-03,  -5.19478E-03,  -519.399E-03,0.0305208,0.0369589,0.0103342
26114,32.0,-36.0,0.0,   4.00957E-03,  -5.51473E-03,  -536.489E-03,0.0302092,0.0385741,0.0100426
26117,31.0,-36.0,0.0,   3.93107E-03,  -5.82098E-03,  -552.413E-03,0.0299464,0.040135,0.00972831
26118,30.0,-36.0,0.0,   3.84167E-03,  -6.11344E-03,  -567.267E-03,0.0297272,0.0416413,0.00939806
26123,29.0,-36.0,0.0,   3.74337E-03,  -6.39215E-03,  -581.134E-03,0.0295462,0.0430933,0.00905723
26124,28.0,-36.0,0.0,   3.63780E-03,  -6.65726E-03,  -594.088E-03,0.0293984,0.044491,0.00870993
26129,27.0,-36.0,0.0,   3.52629E-03,  -6.90898E-03,  -606.195E-03,0.0292792,0.0458346,0.00835931
26132,26.0,-36.0,0.0,   3.40997E-03,  -7.14756E-03,  -617.513E-03,0.0291845,0.0471244,0.00800776
26133,25.0,-36.0,0.0,   3.28972E-03,  -7.37332E-03,  -628.095E-03,0.0291107,0.0483606,0.00765705
26138,24.0,-36.0,0.0,   3.16632E-03,  -7.58657E-03,  -637.987E-03,0.0290545,0.0495437,0.00730847
26139,23.0,-36.0,0.0,   3.04038E-03,  -7.78767E-03,  -647.231E-03,0.0290131,0.0506739,0.00696296
26144,22.0,-36.0,0.0,   2.91242E-03,  -7.97698E-03,  -655.866E-03,0.0289842,0.0517517,0.00662115
26147,21.0,-36.0,0.0,   2.78288E-03,  -8.15486E-03,  -663.925E-03,0.0289656,0.0527774,0.00628345
26148,20.0,-36.0,0.0,   2.65211E-03,  -8.32168E-03,  -671.440E-03,0.0289554,0.0537515,0.00595011
26153,19.0,-36.0,0.0,   2.52042E-03,  -8.47779E-03,  -678.439E-03,0.0289523,0.0546743,0.00562124
26154,18.0,-36.0,0.0,   2.38804E-03,  -8.62356E-03,  -684.948E-03,0.0289547,0.0555463,0.00529684
26159,17.0,-36.0,0.0,   2.25518E-03,  -8.75933E-03,  -690.990E-03,0.0289615,0.0563679,0.00497685
26162,16.0,-36.0,0.0,   2.12201E-03,  -8.88544E-03,  -696.585E-03,0.0289717,0.0571397,0.00466113
26163,15.0,-36.0,0.0,   1.98866E-03,  -9.00220E-03,  -701.755E-03,0.0289845,0.0578619,0.00434951
26168,14.0,-36.0,0.0,   1.85523E-03,  -9.10993E-03,  -706.515E-03,0.028999,0.0585351,0.00404178
26169,13.0,-36.0,0.0,   1.72181E-03,  -9.20891E-03,  -710.883E-03,0.0290147,0.0591596,0.00373772
26174,12.0,-36.0,0.0,   1.58847E-03,  -9.29943E-03,  -714.873E-03,0.0290311,0.059736,0.00343708
26177,11.0,-36.0,0.0,   1.45524E-03,  -9.38174E-03,  -718.497E-03,0.0290475,0.0602646,0.0031396
26178,10.0,-36.0,0.0,   1.32217E-03,  -9.45607E-03,  -721.769E-03,0.0290636,0.0607458,0.00284503
26183,9.0,-36.0,0.0,   1.18926E-03,  -9.52265E-03,  -724.698E-03,0.0290792,0.0611799,0.00255308
26184,8.0,-36.0,0.0,   1.05654E-03,  -9.58168E-03,  -727.294E-03,0.0290937,0.0615674,0.0022635
26189,7.0,-36.0,0.0,   924.003E-06,  -9.63334E-03,  -729.566E-03,0.0291071,0.0619084,0.00197602
26192,6.0,-36.0,0.0,   791.637E-06,  -9.67779E-03,  -731.520E-03,0.0291192,0.0622034,0.00169036
26193,5.0,-36.0,0.0,   659.431E-06,  -9.71516E-03,  -733.163E-03,0.0291296,0.0624526,0.00140626
26198,4.0,-36.0,0.0,   527.365E-06,  -9.74557E-03,  -734.501E-03,0.0291383,0.0626562,0.00112346
26199,3.0,-36.0,0.0,   395.417E-06,  -9.76913E-03,  -735.537E-03,0.0291452,0.0628143,0.000841694
26204,2.0,-36.0,0.0,   263.559E-06,  -9.78590E-03,  -736.274E-03,0.0291502,0.0629271,0.0005607
26207,1.0,-36.0,0.0,   131.764E-06,  -9.79594E-03,  -736.716E-03,0.0291532,0.0629948,0.000280221
26208,0.0,-36.0,0.0,   689.479E-18,  -9.79929E-03,  -736.863E-03,0.0291542,0.0630173,0.0
26213,-1.0,-36.0,0.0,  -131.764E-06,  -9.79594E-03,  -736.716E-03,0.0291532,0.0629948,-0.000280221
26214,-2.0,-36.0,0.0,  -263.559E-06,  -9.78590E-03,  -736.274E-03,0.0291502,0.0629271,-0.0005607
26219,-3.0,-36.0,0.0,  -395.417E-06,  -9.76913E-03,  -735.537E-03,0.0291452,0.0628143,-0.000841694
26222,-4.0,-36.0,0.0,  -527.365E-06,  -9.74557E-03,  -734.501E-03,0.0291383,0.0626562,-0.00112346
26223,-5.0,-36.0,0.0,  -659.431E-06,  -9.71516E-03,  -733.163E-03,0.0291296,0.0624526,-0.00140626
26228,-6.0,-36.0,0.0,  -791.637E-06,  -9.67779E-03,  -731.520E-03,0.0291192,0.0622034,-0.00169036
26229,-7.0,-36.0,0.0,  -924.003E-06,  -9.63334E-03,  -729.566E-03,0.0291071,0.0619084,-0.00197602
26234,-8.0,-36.0,0.0,  -1.05654E-03,  -9.58168E-03,  -727.294E-03,0.0290937,0.0615674,-0.0022635
26237,-9.0,-36.0,0.0,  -1.18926E-03,  -9.52265E-03,  -724.698E-03,0.0290792,0.0611799,-0.00255308
26238,-10.0,-36.0,0.0,  -1.32217E-03,  -9.45607E-03,  -721.769E-03,0.0290636,0.0607458,-0.00284503
26243,-11.0,-36.0,0.0,  -1.45524E-03,  -9.38174E-03,  -718.497E-03,0.0290475,0.0602646,-0.0031396
26244,-12.0,-36.0,0.0,  -1.58847E-03,  -9.29943E-03,  -714.873E-03,0.0290311,0.059736,-0.00343708
26249,-13.0,-36.0,0.0,  -1.72181E-03,  -9.20891E-03,  -710.883E-03,0.0290147,0.0591596,-0.00373772
26252,-14.0,-36.0,0.0,  -1.85523E-03,  -9.10993E-03,  -706.515E-03,0.028999,0.0585351,-0.00404178
26253,-15.0,-36.0,0.0,  -1.98866E-03,  -9.00220E-03,  -701.755E-03,0.0289845,0.0578619,-0.00434951
26258,-16.0,-36.0,0.0,  -2.12201E-03,  -8.88544E-03,  -696.585E-03,0.0289717,0.0571397,-0.00466113
26259,-17.0,-36.0,0.0,  -2.25518E-03,  -8.75933E-03,  -690.990E-03,0.0289615,0.0563679,-0.00497685
26264,-18.0,-36.0,0.0,  -2.38804E-03,  -8.62356E-03,  -684.948E-03,0.0289547,0.0555463,-0.00529684
26267,-19.0,-36.0,0.0,  -2.52042E-03,  -8.47779E-03,  -678.439E-03,0.0289523,0.0546743,-0.00562124
26268,-20.0,-36.0,0.0,  -2.65211E-03,  -8.32168E-03,  -671.440E-03,0.0289555,0.0537515,-0.00595011
26273,-21.0,-36.0,0.0,  -2.78288E-03,  -8.15486E-03,  -663.925E-03,0.0289656,0.0527774,-0.00628345
26274,-22.0,-36.0,0.0,  -2.91242E-03,  -7.97698E-03,  -655.866E-03,0.0289842,0.0517517,-0.00662115
26279,-23.0,-36.0,0.0,  -3.04038E-03,  -7.78767E-03,  -647.231E-03,0.0290131,0.0506739,-0.00696296
26282,-24.0,-36.0,0.0,  -3.16632E-03,  -7.58657E-03,  -637.987E-03,0.0290545,0.0495437,-0.00730847
26283,-25.0,-36.0,0.0,  -3.28972E-03,  -7.37332E-03,  -628.095E-03,0.0291107,0.0483606,-0.00765705
26288,-26.0,-36.0,0.0,  -3.40997E-03,  -7.14756E-03,  -617.513E-03,0.0291845,0.0471244,-0.00800776
26289,-27.0,-36.0,0.0,  -3.52629E-03,  -6.90898E-03,  -606.195E-03,0.0292792,0.0458346,-0.00835931
26294,-28.0,-36.0,0.0,  -3.63780E-03,  -6.65726E-03,  -594.088E-03,0.0293984,0.044491,-0.00870993
26295,-29.0,-36.0,0.0,  -3.74337E-03,  -6.39215E-03,  -581.134E-03,0.0295462,0.0430933,-0.00905723
26300,-30.0,-36.0,0.0,  -3.84167E-03,  -6.11344E-03,  -567.267E-03,0.0297272,0.0416413,-0.00939806
26301,-31.0,-36.0,0.0,  -3.93107E-03,  -5.82098E-03,  -552.413E-03,0.0299464,0.040135,-0.00972831
26306,-32.0,-36.0,0.0,  -4.00957E-03,  -5.51473E-03,  -536.489E-03,0.0302092,0.0385741,-0.0100426
26309,-33.0,-36.0,0.0,  -4.07472E-03,  -5.19478E-03,  -519.399E-03,0.0305208,0.0369589,-0.0103342
26310,-34.0,-36.0,0.0,  -4.12351E-03,  -4.86138E-03,  -501.038E-03,0.0308863,0.0352895,-0.0105946
26315,-35.0,-36.0,0.0,  -4.15226E-03,  -4.51500E-03,  -481.283E-03,0.0313093,0.0335666,-0.010813
26316,-36.0,-36.0,0.0,  -4.15641E-03,  -4.15641E-03,  -459.999E-03,0.0317911,0.0317911,-0.0109769
26321,-37.0,-36.0,0.0,  -4.13043E-03,  -3.78676E-03,  -437.035E-03,0.0323283,0.029964,-0.0110711
26324,-38.0,-36.0,0.0,  -4.06758E-03,  -3.40772E-03,  -412.222E-03,0.03291,0.028087,-0.0110791
26325,-39.0,-36.0,0.0,  -3.95982E-03,  -3.02159E-03,  -385.382E-03,0.0335123,0.0261615,-0.0109832
26330,-40.0,-36.0,0.0,  -3.79771E-03,  -2.63147E-03,  -356.328E-03,0.0340902,0.0241882,-0.0107667
26331,-41.0,-36.0,0.0,  -3.57064E-03,  -2.24147E-03,  -324.876E-03,0.034564,0.0221644,-0.0104169
26336,-42.0,-36.0,0.0,  -3.26734E-03,  -1.85684E-03,  -290.869E-03,0.0347948,0.020079,-0.00992868
26339,-43.0,-36.0,0.0,  -2.87740E-03,  -1.48416E-03,  -254.208E-03,0.0345413,0.0179012,-0.00931092
26340,-44.0,-36.0,0.0,  -2.39419E-03,  -1.13143E-03,  -214.918E-03,0.0333779,0.0155575,-0.00858982
26345,-45.0,-36.0,0.0,  -1.82076E-03,  -808.144E-06,  -173.255E-03,0.0305404,0.0128859,-0.00781207
26346,-46.0,-36.0,0.0,  -1.18040E-03,  -525.216E-06,  -129.908E-03,0.0246294,0.00954566,-0.00702876
26351,-47.0,-36.0,0.0,  -534.504E-06,  -294.543E-06,  -86.3584E-03,0.0130493,0.00484678,-0.0062552
26354,-48.0,-36.0,0.0,  -6.06375E-06,  -127.554E-06,  -45.5560E-03,-0.00904372,-0.00257611,-0.00533028
26355,-49.0,-36.0,0.0,   214.330E-06,  -31.1375E-06,  -13.1823E-03,-0.0506652,-0.0153649,-0.00362681
26360,-50.0,-36.0,0.0,   1.13301E-39,  -345.067E-42,           -0.,-0.0778216,-0.0233547,-0.00124072
26361,50.0,-37.0,0.0,  -1.01266E-39,  -303.231E-42,           -0.,-0.0754859,-0.0226541,0.00115652
26366,49.0,-37.0,0.0,  -192.952E-06,  -26.8404E-06,  -12.5821E-03,-0.0499945,-0.0151841,0.00368853
26369,48.0,-37.0,0.0,   13.3090E-06,  -121.269E-06,  -43.6026E-03,-0.0105088,-0.0030205,0.00555153
26370,47.0,-37.0,0.0,   508.355E-06,  -289.103E-06,  -82.8621E-03,0.0110707,0.00431849,0.00658429
26375,46.0,-37.0,0.0,   1.11445E-03,  -523.322E-06,  -124.825E-03,0.0226798,0.00914715,0.00742767
26376,45.0,-37.0,0.0,   1.71357E-03,  -811.552E-06,  -166.550E-03,0.0287344,0.0126848,0.00825303
26381,44.0,-37.0,0.0,   2.24609E-03,  -1.14056E-03,  -206.535E-03,0.0316842,0.015556,0.00904876
26384,43.0,-37.0,0.0,   2.68966E-03,  -1.49809E-03,  -244.080E-03,0.0328978,0.0180733,0.00976543
26385,42.0,-37.0,0.0,   3.04217E-03,  -1.87358E-03,  -278.933E-03,0.0331498,0.0203887,0.0103585
26390,41.0,-37.0,0.0,   3.31111E-03,  -2.25831E-03,  -311.085E-03,0.0328862,0.0225751,0.0108055
26391,40.0,-37.0,0.0,   3.50760E-03,  -2.64536E-03,  -340.658E-03,0.0323675,0.0246669,0.0111023
26396,39.0,-37.0,0.0,   3.64333E-03,  -3.02945E-03,  -367.835E-03,0.0317461,0.0266811,0.0112588
26399,38.0,-37.0,0.0,   3.72910E-03,  -3.40668E-03,  -392.821E-03,0.0311099,0.0286263,0.0112922
26400,37.0,-37.0,0.0,   3.77430E-03,  -3.77430E-03,  -415.823E-03,0.0305077,0.0305077,0.0112229
26405,36.0,-37.0,0.0,   3.78676E-03,  -4.13043E-03,  -437.035E-03,0.029964,0.0323283,0.0110711
26406,35.0,-37.0,0.0,   3.77290E-03,  -4.47384E-03,  -456.634E-03,0.0294888,0.0340904,0.0108553
26411,34.0,-37.0,0.0,   3.73790E-03,  -4.80380E-03,  -474.781E-03,0.0290832,0.0357955,0.0105913
26414,33.0,-37.0,0.0,   3.68589E-03,  -5.11991E-03,  -491.614E-03,0.0287437,0.0374448,0.010292
26415,32.0,-37.0,0.0,   3.62021E-03,  -5.42204E-03,  -507.255E-03,0.0284644,0.0390391,0.00996793
26420,31.0,-37.0,0.0,   3.54350E-03,  -5.71021E-03,  -521.811E-03,0.0282382,0.0405791,0.00962714
26421,30.0,-37.0,0.0,   3.45790E-03,  -5.98456E-03,  -535.376E-03,0.0280582,0.0420652,0.00927586
26426,29.0,-37.0,0.0,   3.36511E-03,  -6.24531E-03,  -548.029E-03,0.0279178,0.0434979,0.00891878
26429,28.0,-37.0,0.0,   3.26651E-03,  -6.49276E-03,  -559.843E-03,0.0278108,0.0448774,0.00855941
26430,27.0,-37.0,0.0,   3.16323E-03,  -6.72722E-03,  -570.880E-03,0.0277321,0.0462042,0.00820027
26435,26.0,-37.0,0.0,   3.05617E-03,  -6.94905E-03,  -581.194E-03,0.0276768,0.0474783,0.00784322
26436,25.0,-37.0,0.0,   2.94609E-03,  -7.15862E-03,  -590.835E-03,0.0276411,0.0487002,0.00748954
26441,24.0,-37.0,0.0,   2.83360E-03,  -7.35631E-03,  -599.846E-03,0.0276216,0.0498701,0.00714012
26444,23.0,-37.0,0.0,   2.71921E-03,  -7.54250E-03,  -608.266E-03,0.0276151,0.0509883,0.00679552
26445,22.0,-37.0,0.0,   2.60333E-03,  -7.71758E-03,  -616.131E-03,0.0276193,0.0520551,0.00645607
26450,21.0,-37.0,0.0,   2.48631E-03,  -7.88193E-03,  -623.472E-03,0.027632,0.0530708,0.00612193
26451,20.0,-37.0,0.0,   2.36844E-03,  -8.03591E-03,  -630.317E-03,0.0276514,0.0540358,0.00579314
26456,19.0,-37.0,0.0,   2.24995E-03,  -8.17991E-03,  -636.692E-03,0.027676,0.0549503,0.00546961
26459,18.0,-37.0,0.0,   2.13104E-03,  -8.31426E-03,  -642.620E-03,0.0277044,0.0558148,0.00515122
26460,17.0,-37.0,0.0,   2.01185E-03,  -8.43932E-03,  -648.123E-03,0.0277354,0.0566297,0.00483776
26465,16.0,-37.0,0.0,   1.89252E-03,  -8.55541E-03,  -653.221E-03,0.0277683,0.0573953,0.004529
26466,15.0,-37.0,0.0,   1.77315E-03,  -8.66284E-03,  -657.930E-03,0.027802,0.058112,0.0042247
26471,14.0,-37.0,0.0,   1.65381E-03,  -8.76191E-03,  -662.267E-03,0.027836,0.0587803,0.00392457
26474,13.0,-37.0,0.0,   1.53458E-03,  -8.85291E-03,  -666.247E-03,0.0278695,0.0594004,0.00362832
26475,12.0,-37.0,0.0,   1.41548E-03,  -8.93608E-03,  -669.882E-03,0.0279022,0.0599728,0.00333568
26480,11.0,-37.0,0.0,   1.29657E-03,  -9.01169E-03,  -673.185E-03,0.0279336,0.0604978,0.00304634
26481,10.0,-37.0,0.0,   1.17784E-03,  -9.07995E-03,  -676.167E-03,0.0279632,0.0609759,0.00276001
26486,9.0,-37.0,0.0,   1.05932E-03,  -9.14108E-03,  -678.836E-03,0.0279909,0.0614073,0.0024764
26489,8.0,-37.0,0.0,   941.007E-06,  -9.19526E-03,  -681.202E-03,0.0280163,0.0617924,0.00219522
26490,7.0,-37.0,0.0,   822.888E-06,  -9.24266E-03,  -683.273E-03,0.0280391,0.0621314,0.00191618
26495,6.0,-37.0,0.0,   704.954E-06,  -9.28344E-03,  -685.054E-03,0.0280593,0.0624247,0.00163902
26496,5.0,-37.0,0.0,   587.188E-06,  -9.31772E-03,  -686.552E-03,0.0280766,0.0626724,0.00136344
26501,4.0,-37.0,0.0,   469.567E-06,  -9.34562E-03,  -687.771E-03,0.0280909,0.0628748,0.00108918
26504,3.0,-37.0,0.0,   352.067E-06,  -9.36722E-03,  -688.715E-03,0.0281022,0.063032,0.00081597
26505,2.0,-37.0,0.0,   234.659E-06,  -9.38260E-03,  -689.387E-03,0.0281103,0.0631442,0.000543545
26510,1.0,-37.0,0.0,   117.314E-06,  -9.39181E-03,  -689.790E-03,0.0281151,0.0632115,0.000271643
26511,0.0,-37.0,0.0,   1.11872E-15,  -9.39488E-03,  -689.924E-03,0.0281167,0.063234,-1.81899e-12
26516,-1.0,-37.0,0.0,  -117.314E-06,  -9.39181E-03,  -689.790E-03,0.0281151,0.0632115,-0.000271643
26519,-2.0,-37.0,0.0,  -234.659E-06,  -9.38260E-03,  -689.387E-03,0.0281102,0.0631442,-0.000543545
26520,-3.0,-37.0,0.0,  -352.067E-06,  -9.36722E-03,  -688.715E-03,0.0281022,0.063032,-0.00081597
26525,-4.0,-37.0,0.0,  -469.567E-06,  -9.34562E-03,  -687.771E-03,0.0280909,0.0628748,-0.00108918
26526,-5.0,-37.0,0.0,  -587.188E-06,  -9.31772E-03,  -686.552E-03,0.0280766,0.0626724,-0.00136344
26531,-6.0,-37.0,0.0,  -704.954E-06,  -9.28344E-03,  -685.054E-03,0.0280593,0.0624247,-0.00163902
26534,-7.0,-37.0,0.0,  -822.888E-06,  -9.24266E-03,  -683.273E-03,0.0280391,0.0621314,-0.00191618
26535,-8.0,-37.0,0.0,  -941.007E-06,  -9.19526E-03,  -681.202E-03,0.0280163,0.0617924,-0.00219522
26540,-9.0,-37.0,0.0,  -1.05932E-03,  -9.14108E-03,  -678.836E-03,0.0279909,0.0614073,-0.0024764
26541,-10.0,-37.0,0.0,  -1.17784E-03,  -9.07995E-03,  -676.167E-03,0.0279632,0.0609759,-0.00276001
26546,-11.0,-37.0,0.0,  -1.29657E-03,  -9.01169E-03,  -673.185E-03,0.0279336,0.0604978,-0.00304634
26549,-12.0,-37.0,0.0,  -1.41548E-03,  -8.93608E-03,  -669.882E-03,0.0279022,0.0599728,-0.00333568
26550,-13.0,-37.0,0.0,  -1.53458E-03,  -8.85291E-03,  -666.247E-03,0.0278695,0.0594004,-0.00362832
26555,-14.0,-37.0,0.0,  -1.65381E-03,  -8.76191E-03,  -662.267E-03,0.027836,0.0587803,-0.00392457
26556,-15.0,-37.0,0.0,  -1.77315E-03,  -8.66284E-03,  -657.930E-03,0.027802,0.058112,-0.0042247
26561,-16.0,-37.0,0.0,  -1.89252E-03,  -8.55541E-03,  -653.221E-03,0.0277683,0.0573953,-0.004529
26564,-17.0,-37.0,0.0,  -2.01185E-03,  -8.43932E-03,  -648.123E-03,0.0277354,0.0566297,-0.00483776
26565,-18.0,-37.0,0.0,  -2.13104E-03,  -8.31426E-03,  -642.620E-03,0.0277044,0.0558148,-0.00515122
26570,-19.0,-37.0,0.0,  -2.24995E-03,  -8.17991E-03,  -636.692E-03,0.027676,0.0549503,-0.00546961
26571,-20.0,-37.0,0.0,  -2.36844E-03,  -8.03591E-03,  -630.317E-03,0.0276514,0.0540358,-0.00579314
26576,-21.0,-37.0,0.0,  -2.48631E-03,  -7.88193E-03,  -623.472E-03,0.027632,0.0530708,-0.00612193
26579,-22.0,-37.0,0.0,  -2.60333E-03,  -7.71758E-03,  -616.131E-03,0.0276193,0.0520551,-0.00645607
26580,-23.0,-37.0,0.0,  -2.71921E-03,  -7.54250E-03,  -608.266E-03,0.0276151,0.0509883,-0.00679552
26585,-24.0,-37.0,0.0,  -2.83360E-03,  -7.35631E-03,  -599.846E-03,0.0276216,0.0498701,-0.00714012
26586,-25.0,-37.0,0.0,  -2.94609E-03,  -7.15862E-03,  -590.835E-03,0.0276411,0.0487002,-0.00748954
26591,-26.0,-37.0,0.0,  -3.05617E-03,  -6.94905E-03,  -581.194E-03,0.0276768,0.0474783,-0.00784322
26594,-27.0,-37.0,0.0,  -3.16323E-03,  -6.72722E-03,  -570.880E-03,0.0277321,0.0462042,-0.00820027
26595,-28.0,-37.0,0.0,  -3.26651E-03,  -6.49276E-03,  -559.843E-03,0.0278108,0.0448774,-0.0085594
26600,-29.0,-37.0,0.0,  -3.36511E-03,  -6.24531E-03,  -548.029E-03,0.0279178,0.0434979,-0.00891878
26601,-30.0,-37.0,0.0,  -3.45790E-03,  -5.98456E-03,  -535.376E-03,0.0280582,0.0420652,-0.00927586
26606,-31.0,-37.0,0.0,  -3.54350E-03,  -5.71021E-03,  -521.811E-03,0.0282382,0.0405791,-0.00962714
26609,-32.0,-37.0,0.0,  -3.62021E-03,  -5.42204E-03,  -507.255E-03,0.0284644,0.0390391,-0.00996793
26610,-33.0,-37.0,0.0,  -3.68589E-03,  -5.11991E-03,  -491.614E-03,0.0287437,0.0374448,-0.010292
26615,-34.0,-37.0,0.0,  -3.73790E-03,  -4.80380E-03,  -474.781E-03,0.0290832,0.0357955,-0.0105913
26616,-35.0,-37.0,0.0,  -3.77290E-03,  -4.47384E-03,  -456.634E-03,0.0294888,0.0340904,-0.0108553
26621,-36.0,-37.0,0.0,  -3.78676E-03,  -4.13043E-03,  -437.035E-03,0.029964,0.0323283,-0.0110711
26624,-37.0,-37.0,0.0,  -3.77430E-03,  -3.77430E-03,  -415.823E-03,0.0305077,0.0305077,-0.0112229
26625,-38.0,-37.0,0.0,  -3.72910E-03,  -3.40668E-03,  -392.821E-03,0.0311099,0.0286263,-0.0112922
26630,-39.0,-37.0,0.0,  -3.64333E-03,  -3.02945E-03,  -367.835E-03,0.0317461,0.0266811,-0.0112588
26631,-40.0,-37.0,0.0,  -3.50760E-03,  -2.64536E-03,  -340.658E-03,0.0323675,0.0246669,-0.0111023
26636,-41.0,-37.0,0.0,  -3.31111E-03,  -2.25831E-03,  -311.085E-03,0.0328862,0.0225751,-0.0108055
26639,-42.0,-37.0,0.0,  -3.04217E-03,  -1.87358E-03,  -278.933E-03,0.0331498,0.0203888,-0.0103585
26640,-43.0,-37.0,0.0,  -2.68966E-03,  -1.49809E-03,  -244.080E-03,0.0328978,0.0180733,-0.00976543
26645,-44.0,-37.0,0.0,  -2.24609E-03,  -1.14056E-03,  -206.535E-03,0.0316842,0.015556,-0.00904876
26646,-45.0,-37.0,0.0,  -1.71357E-03,  -811.552E-06,  -166.550E-03,0.0287344,0.0126848,-0.00825303
26651,-46.0,-37.0,0.0,  -1.11445E-03,  -523.322E-06,  -124.825E-03,0.0226798,0.00914715,-0.00742767
26654,-47.0,-37.0,0.0,  -508.355E-06,  -289.103E-06,  -82.8621E-03,0.0110707,0.00431849,-0.00658429
26655,-48.0,-37.0,0.0,  -13.3090E-06,  -121.269E-06,  -43.6026E-03,-0.0105088,-0.0030205,-0.00555153
26660,-49.0,-37.0,0.0,   192.952E-06,  -26.8404E-06,  -12.5821E-03,-0.0499945,-0.0151841,-0.00368853
26661,-50.0,-37.0,0.0,   1.01266E-39,  -303.231E-42,           -0.,-0.0754859,-0.0226541,-0.00115652
26666,50.0,-38.0,0.0,  -887.452E-42,  -259.832E-42,           -0.,-0.0729553,-0.0218947,0.00106755
26669,49.0,-38.0,0.0,  -170.456E-06,  -22.0781E-06,  -11.9448E-03,-0.0491619,-0.0149402,0.00376322
26670,48.0,-38.0,0.0,   21.7085E-06,  -113.803E-06,  -41.5092E-03,-0.0118842,-0.00340707,0.00581135
26675,47.0,-38.0,0.0,   481.381E-06,  -281.537E-06,  -79.0771E-03,0.00911784,0.00385177,0.00696953
26676,46.0,-38.0,0.0,   1.04431E-03,  -518.143E-06,  -119.279E-03,0.0207167,0.00882622,0.00788763
26681,45.0,-38.0,0.0,   1.59843E-03,  -810.220E-06,  -159.193E-03,0.0268914,0.0125818,0.00874801
26684,44.0,-38.0,0.0,   2.08658E-03,  -1.14304E-03,  -197.309E-03,0.0299377,0.0156698,0.00954571
26685,43.0,-38.0,0.0,   2.48786E-03,  -1.50292E-03,  -232.923E-03,0.0311894,0.0183701,0.0102366
26690,42.0,-38.0,0.0,   2.80129E-03,  -1.87816E-03,  -265.793E-03,0.0314309,0.0208237,0.0107819
26691,41.0,-38.0,0.0,   3.03526E-03,  -2.25939E-03,  -295.933E-03,0.0311294,0.0231039,0.0111654
26696,40.0,-38.0,0.0,   3.20146E-03,  -2.63946E-03,  -323.489E-03,0.0305648,0.0252512,0.0113896
26699,39.0,-38.0,0.0,   3.31185E-03,  -3.01324E-03,  -348.671E-03,0.0299031,0.0272909,0.0114705
26700,38.0,-38.0,0.0,   3.37721E-03,  -3.37721E-03,  -371.707E-03,0.0292398,0.0292398,0.0114301
26705,37.0,-38.0,0.0,   3.40668E-03,  -3.72910E-03,  -392.821E-03,0.0286263,0.0311099,0.0112922
26706,36.0,-38.0,0.0,   3.40772E-03,  -4.06758E-03,  -412.222E-03,0.028087,0.03291,0.0110791
26711,35.0,-38.0,0.0,   3.38629E-03,  -4.39194E-03,  -430.096E-03,0.0276296,0.0346464,0.0108104
26714,34.0,-38.0,0.0,   3.34711E-03,  -4.70190E-03,  -446.606E-03,0.0272526,0.0363235,0.010502
26715,33.0,-38.0,0.0,   3.29386E-03,  -4.99749E-03,  -461.892E-03,0.0269495,0.0379444,0.0101665
26720,32.0,-38.0,0.0,   3.22944E-03,  -5.27888E-03,  -476.077E-03,0.0267118,0.0395112,0.00981366
26721,31.0,-38.0,0.0,   3.15615E-03,  -5.54635E-03,  -489.264E-03,0.0265304,0.041025,0.00945077
26726,30.0,-38.0,0.0,   3.07576E-03,  -5.80027E-03,  -501.543E-03,0.0263966,0.0424868,0.00908313
26729,29.0,-38.0,0.0,   2.98970E-03,  -6.04100E-03,  -512.991E-03,0.0263025,0.0438971,0.00871456
26730,28.0,-38.0,0.0,   2.89912E-03,  -6.26897E-03,  -523.676E-03,0.0262412,0.0452562,0.00834777
26735,27.0,-38.0,0.0,   2.80492E-03,  -6.48458E-03,  -533.656E-03,0.0262068,0.0465643,0.0079846
26736,26.0,-38.0,0.0,   2.70785E-03,  -6.68825E-03,  -542.981E-03,0.0261942,0.0478216,0.00762631
26741,25.0,-38.0,0.0,   2.60849E-03,  -6.88040E-03,  -551.696E-03,0.0261992,0.0490282,0.00727365
26744,24.0,-38.0,0.0,   2.50735E-03,  -7.06143E-03,  -559.843E-03,0.0262182,0.0501843,0.0069271
26745,23.0,-38.0,0.0,   2.40482E-03,  -7.23176E-03,  -567.456E-03,0.0262482,0.05129,0.00658686
26750,22.0,-38.0,0.0,   2.30123E-03,  -7.39176E-03,  -574.566E-03,0.0262867,0.0523455,0.00625298
26751,21.0,-38.0,0.0,   2.19686E-03,  -7.54183E-03,  -581.204E-03,0.0263316,0.0533511,0.00592537
26756,20.0,-38.0,0.0,   2.09192E-03,  -7.68233E-03,  -587.393E-03,0.0263812,0.0543069,0.00560386
26759,19.0,-38.0,0.0,   1.98660E-03,  -7.81363E-03,  -593.159E-03,0.0264339,0.0552132,0.00528824
26760,18.0,-38.0,0.0,   1.88104E-03,  -7.93606E-03,  -598.521E-03,0.0264885,0.0560702,0.00497822
26765,17.0,-38.0,0.0,   1.77536E-03,  -8.04996E-03,  -603.499E-03,0.026544,0.0568784,0.00467351
26766,16.0,-38.0,0.0,   1.66966E-03,  -8.15564E-03,  -608.111E-03,0.0265995,0.057638,0.00437379
26771,15.0,-38.0,0.0,   1.56402E-03,  -8.25340E-03,  -612.372E-03,0.0266542,0.0583493,0.00407874
26772,14.0,-38.0,0.0,   1.45849E-03,  -8.34351E-03,  -616.296E-03,0.0267075,0.0590128,0.00378803
26777,13.0,-38.0,0.0,   1.35312E-03,  -8.42624E-03,  -619.898E-03,0.0267589,0.0596286,0.00350133
26778,12.0,-38.0,0.0,   1.24793E-03,  -8.50185E-03,  -623.188E-03,0.0268079,0.0601971,0.00321832
26783,11.0,-38.0,0.0,   1.14294E-03,  -8.57055E-03,  -626.178E-03,0.026854,0.0607188,0.00293868
26786,10.0,-38.0,0.0,   1.03817E-03,  -8.63256E-03,  -628.877E-03,0.0268971,0.0611939,0.00266209
26787,9.0,-38.0,0.0,   933.612E-06,  -8.68808E-03,  -631.294E-03,0.0269367,0.0616226,0.00238826
26792,8.0,-38.0,0.0,   829.268E-06,  -8.73728E-03,  -633.436E-03,0.0269727,0.0620054,0.00211686
26793,7.0,-38.0,0.0,   725.123E-06,  -8.78032E-03,  -635.310E-03,0.0270049,0.0623425,0.00184763
26798,6.0,-38.0,0.0,   621.164E-06,  -8.81733E-03,  -636.923E-03,0.0270331,0.0626341,0.00158026
26801,5.0,-38.0,0.0,   517.369E-06,  -8.84845E-03,  -638.280E-03,0.0270572,0.0628805,0.00131448
26802,4.0,-38.0,0.0,   413.718E-06,  -8.87376E-03,  -639.384E-03,0.027077,0.0630818,0.00105002
26807,3.0,-38.0,0.0,   310.183E-06,  -8.89337E-03,  -640.239E-03,0.0270925,0.0632382,0.000786605
26808,2.0,-38.0,0.0,   206.738E-06,  -8.90732E-03,  -640.848E-03,0.0271037,0.0633498,0.000523971
26813,1.0,-38.0,0.0,   103.354E-06,  -8.91568E-03,  -641.212E-03,0.0271104,0.0634167,0.000261856
26816,0.0,-38.0,0.0,  -2.59628E-15,  -8.91846E-03,  -641.334E-03,0.0271126,0.063439,1.81899e-12
26817,-1.0,-38.0,0.0,  -103.354E-06,  -8.91568E-03,  -641.212E-03,0.0271104,0.0634167,-0.000261856
26822,-2.0,-38.0,0.0,  -206.738E-06,  -8.90732E-03,  -640.848E-03,0.0271037,0.0633498,-0.000523971
26823,-3.0,-38.0,0.0,  -310.183E-06,  -8.89337E-03,  -640.239E-03,0.0270925,0.0632382,-0.000786605
26828,-4.0,-38.0,0.0,  -413.718E-06,  -8.87376E-03,  -639.384E-03,0.027077,0.0630818,-0.00105002
26831,-5.0,-38.0,0.0,  -517.369E-06,  -8.84845E-03,  -638.280E-03,0.0270572,0.0628805,-0.00131448
26832,-6.0,-38.0,0.0,  -621.164E-06,  -8.81733E-03,  -636.923E-03,0.0270331,0.0626341,-0.00158026
26837,-7.0,-38.0,0.0,  -725.123E-06,  -8.78032E-03,  -635.310E-03,0.0270049,0.0623425,-0.00184763
26838,-8.0,-38.0,0.0,  -829.268E-06,  -8.73728E-03,  -633.436E-03,0.0269727,0.0620054,-0.00211686
26843,-9.0,-38.0,0.0,  -933.612E-06,  -8.68808E-03,  -631.294E-03,0.0269367,0.0616226,-0.00238826
26846,-10.0,-38.0,0.0,  -1.03817E-03,  -8.63256E-03,  -628.877E-03,0.0268971,0.0611939,-0.00266209
26847,-11.0,-38.0,0.0,  -1.14294E-03,  -8.57055E-03,  -626.178E-03,0.026854,0.0607188,-0.00293868
26852,-12.0,-38.0,0.0,  -1.24793E-03,  -8.50185E-03,  -623.188E-03,0.0268079,0.0601971,-0.00321832
26853,-13.0,-38.0,0.0,  -1.35312E-03,  -8.42624E-03,  -619.898E-03,0.0267589,0.0596286,-0.00350133
26858,-14.0,-38.0,0.0,  -1.45849E-03,  -8.34351E-03,  -616.296E-03,0.0267075,0.0590128,-0.00378803
26861,-15.0,-38.0,0.0,  -1.56402E-03,  -8.25340E-03,  -612.372E-03,0.0266542,0.0583493,-0.00407874
26862,-16.0,-38.0,0.0,  -1.66966E-03,  -8.15564E-03,  -608.111E-03,0.0265995,0.057638,-0.00437379
26867,-17.0,-38.0,0.0,  -1.77536E-03,  -8.04996E-03,  -603.499E-03,0.026544,0.0568784,-0.00467351
26868,-18.0,-38.0,0.0,  -1.88104E-03,  -7.93606E-03,  -598.521E-03,0.0264885,0.0560702,-0.00497822
26873,-19.0,-38.0,0.0,  -1.98660E-03,  -7.81363E-03,  -593.159E-03,0.0264339,0.0552132,-0.00528824
26876,-20.0,-38.0,0.0,  -2.09192E-03,  -7.68233E-03,  -587.393E-03,0.0263812,0.0543069,-0.00560386
26877,-21.0,-38.0,0.0,  -2.19686E-03,  -7.54183E-03,  -581.204E-03,0.0263316,0.0533511,-0.00592537
26882,-22.0,-38.0,0.0,  -2.30123E-03,  -7.39176E-03,  -574.566E-03,0.0262867,0.0523455,-0.00625298
26883,-23.0,-38.0,0.0,  -2.40482E-03,  -7.23176E-03,  -567.456E-03,0.0262482,0.05129,-0.00658686
26888,-24.0,-38.0,0.0,  -2.50735E-03,  -7.06143E-03,  -559.843E-03,0.0262182,0.0501843,-0.0069271
26891,-25.0,-38.0,0.0,  -2.60849E-03,  -6.88040E-03,  -551.696E-03,0.0261992,0.0490282,-0.00727365
26892,-26.0,-38.0,0.0,  -2.70785E-03,  -6.68825E-03,  -542.981E-03,0.0261942,0.0478216,-0.00762631
26897,-27.0,-38.0,0.0,  -2.80492E-03,  -6.48458E-03,  -533.656E-03,0.0262068,0.0465643,-0.0079846
26898,-28.0,-38.0,0.0,  -2.89912E-03,  -6.26897E-03,  -523.676E-03,0.0262412,0.0452562,-0.00834777
26903,-29.0,-38.0,0.0,  -2.98970E-03,  -6.04100E-03,  -512.991E-03,0.0263025,0.0438971,-0.00871456
26906,-30.0,-38.0,0.0,  -3.07576E-03,  -5.80027E-03,  -501.543E-03,0.0263966,0.0424868,-0.00908313
26907,-31.0,-38.0,0.0,  -3.15615E-03,  -5.54635E-03,  -489.264E-03,0.0265304,0.041025,-0.00945077
26912,-32.0,-38.0,0.0,  -3.22944E-03,  -5.27888E-03,  -476.077E-03,0.0267118,0.0395112,-0.00981366
26913,-33.0,-38.0,0.0,  -3.29386E-03,  -4.99749E-03,  -461.892E-03,0.0269495,0.0379444,-0.0101665
26918,-34.0,-38.0,0.0,  -3.34711E-03,  -4.70190E-03,  -446.606E-03,0.0272526,0.0363235,-0.010502
26921,-35.0,-38.0,0.0,  -3.38629E-03,  -4.39194E-03,  -430.096E-03,0.0276296,0.0346464,-0.0108104
26922,-36.0,-38.0,0.0,  -3.40772E-03,  -4.06758E-03,  -412.222E-03,0.028087,0.03291,-0.0110791
26927,-37.0,-38.0,0.0,  -3.40668E-03,  -3.72910E-03,  -392.821E-03,0.0286263,0.0311099,-0.0112922
26928,-38.0,-38.0,0.0,  -3.37721E-03,  -3.37721E-03,  -371.707E-03,0.0292398,0.0292398,-0.0114301
26933,-39.0,-38.0,0.0,  -3.31185E-03,  -3.01324E-03,  -348.671E-03,0.0299031,0.0272909,-0.0114705
26936,-40.0,-38.0,0.0,  -3.20146E-03,  -2.63946E-03,  -323.489E-03,0.0305648,0.0252512,-0.0113896
26937,-41.0,-38.0,0.0,  -3.03526E-03,  -2.25939E-03,  -295.933E-03,0.0311294,0.0231039,-0.0111654
26942,-42.0,-38.0,0.0,  -2.80129E-03,  -1.87816E-03,  -265.793E-03,0.0314309,0.0208237,-0.0107819
26943,-43.0,-38.0,0.0,  -2.48786E-03,  -1.50292E-03,  -232.923E-03,0.0311894,0.0183701,-0.0102366
26948,-44.0,-38.0,0.0,  -2.08658E-03,  -1.14304E-03,  -197.309E-03,0.0299377,0.0156698,-0.00954571
26951,-45.0,-38.0,0.0,  -1.59843E-03,  -810.220E-06,  -159.193E-03,0.0268914,0.0125818,-0.00874801
26952,-46.0,-38.0,0.0,  -1.04431E-03,  -518.143E-06,  -119.279E-03,0.0207167,0.00882622,-0.00788763
26957,-47.0,-38.0,0.0,  -481.381E-06,  -281.537E-06,  -79.0771E-03,0.00911784,0.00385177,-0.00696953
26958,-48.0,-38.0,0.0,  -21.7085E-06,  -113.803E-06,  -41.5092E-03,-0.0118842,-0.00340707,-0.00581135
26963,-49.0,-38.0,0.0,   170.456E-06,  -22.0781E-06,  -11.9448E-03,-0.0491619,-0.0149402,-0.00376322
26966,-50.0,-38.0,0.0,   887.452E-42,  -259.832E-42,           -0.,-0.0729553,-0.0218947,-0.00106755
26967,50.0,-39.0,0.0,  -758.369E-42,  -215.549E-42,           -0.,-0.0701774,-0.0210606,0.000982154
26972,49.0,-39.0,0.0,  -146.934E-06,  -17.0130E-06,  -11.2646E-03,-0.0481098,-0.0146077,0.00386481
26973,48.0,-39.0,0.0,   31.0477E-06,  -105.264E-06,  -39.2515E-03,-0.0131148,-0.0037047,0.00612962
26978,47.0,-39.0,0.0,   452.989E-06,  -271.676E-06,  -74.9483E-03,0.00722557,0.00347642,0.00743231
26981,46.0,-39.0,0.0,   968.852E-06,  -509.022E-06,  -113.175E-03,0.0187519,0.00860825,0.0084262
26982,45.0,-39.0,0.0,   1.47371E-03,  -802.797E-06,  -151.052E-03,0.0250045,0.0125958,0.00930679
26987,44.0,-39.0,0.0,   1.91384E-03,  -1.13668E-03,  -187.074E-03,0.0281186,0.0159097,0.010081
26988,43.0,-39.0,0.0,   2.27030E-03,  -1.49544E-03,  -220.544E-03,0.0293896,0.0187937,0.0107159
26993,42.0,-39.0,0.0,   2.54340E-03,  -1.86633E-03,  -251.240E-03,0.0296102,0.0213775,0.0111829
26996,41.0,-39.0,0.0,   2.74237E-03,  -2.23944E-03,  -279.199E-03,0.029268,0.0237371,0.0114758
26997,40.0,-39.0,0.0,   2.87928E-03,  -2.60762E-03,  -304.598E-03,0.0286614,0.0259222,0.0116057
27002,39.0,-39.0,0.0,   2.96607E-03,  -2.96607E-03,  -327.672E-03,0.0279685,0.0279685,0.011595
27003,38.0,-39.0,0.0,   3.01324E-03,  -3.31185E-03,  -348.671E-03,0.0272909,0.0299031,0.0114705
27008,37.0,-39.0,0.0,   3.02945E-03,  -3.64333E-03,  -367.835E-03,0.0266811,0.0317461,0.0112588
27011,36.0,-39.0,0.0,   3.02159E-03,  -3.95982E-03,  -385.382E-03,0.0261615,0.0335123,0.0109832
27012,35.0,-39.0,0.0,   2.99504E-03,  -4.26118E-03,  -401.504E-03,0.0257369,0.0352122,0.0106634
27017,34.0,-39.0,0.0,   2.95397E-03,  -4.54763E-03,  -416.363E-03,0.0254023,0.036853,0.0103144
27018,33.0,-39.0,0.0,   2.90155E-03,  -4.81957E-03,  -430.101E-03,0.0251477,0.0384391,0.00994789
27023,32.0,-39.0,0.0,   2.84025E-03,  -5.07749E-03,  -442.835E-03,0.0249621,0.0399736,0.00957223
27026,31.0,-39.0,0.0,   2.77197E-03,  -5.32189E-03,  -454.664E-03,0.0248342,0.041458,0.0091934
27027,30.0,-39.0,0.0,   2.69816E-03,  -5.55331E-03,  -465.673E-03,0.0247537,0.0428931,0.00881553
27032,29.0,-39.0,0.0,   2.61999E-03,  -5.77224E-03,  -475.935E-03,0.0247118,0.0442795,0.00844139
27033,28.0,-39.0,0.0,   2.53836E-03,  -5.97919E-03,  -485.511E-03,0.0247007,0.0456171,0.00807277
27038,27.0,-39.0,0.0,   2.45400E-03,  -6.17461E-03,  -494.455E-03,0.0247142,0.046906,0.00771079
27041,26.0,-39.0,0.0,   2.36749E-03,  -6.35897E-03,  -502.813E-03,0.024747,0.0481462,0.00735605
27042,25.0,-39.0,0.0,   2.27930E-03,  -6.53270E-03,  -510.625E-03,0.0247946,0.0493375,0.00700885
27047,24.0,-39.0,0.0,   2.18980E-03,  -6.69622E-03,  -517.929E-03,0.0248537,0.0504799,0.00666921
27048,23.0,-39.0,0.0,   2.09932E-03,  -6.84994E-03,  -524.755E-03,0.0249212,0.0515733,0.00633703
27053,22.0,-39.0,0.0,   2.00811E-03,  -6.99423E-03,  -531.132E-03,0.0249947,0.0526179,0.00601209
27056,21.0,-39.0,0.0,   1.91637E-03,  -7.12946E-03,  -537.085E-03,0.0250723,0.0536136,0.0056941
27057,20.0,-39.0,0.0,   1.82427E-03,  -7.25601E-03,  -542.638E-03,0.0251522,0.0545606,0.00538272
27062,19.0,-39.0,0.0,   1.73196E-03,  -7.37420E-03,  -547.812E-03,0.0252332,0.055459,0.0050776
27063,18.0,-39.0,0.0,   1.63955E-03,  -7.48436E-03,  -552.624E-03,0.0253141,0.056309,0.00477836
27068,17.0,-39.0,0.0,   1.54712E-03,  -7.58679E-03,  -557.093E-03,0.0253939,0.0571108,0.00448463
27071,16.0,-39.0,0.0,   1.45474E-03,  -7.68180E-03,  -561.233E-03,0.0254719,0.0578648,0.00419601
27072,15.0,-39.0,0.0,   1.36248E-03,  -7.76965E-03,  -565.059E-03,0.0255474,0.0585711,0.00391215
27077,14.0,-39.0,0.0,   1.27037E-03,  -7.85061E-03,  -568.584E-03,0.0256198,0.05923,0.00363267
27078,13.0,-39.0,0.0,   1.17844E-03,  -7.92491E-03,  -571.819E-03,0.0256886,0.0598418,0.00335723
27083,12.0,-39.0,0.0,   1.08671E-03,  -7.99280E-03,  -574.775E-03,0.0257536,0.0604068,0.00308547
27086,11.0,-39.0,0.0,   995.193E-06,  -8.05447E-03,  -577.461E-03,0.0258143,0.0609253,0.00281706
27087,10.0,-39.0,0.0,   903.891E-06,  -8.11013E-03,  -579.886E-03,0.0258704,0.0613976,0.00255168
27092,9.0,-39.0,0.0,   812.801E-06,  -8.15995E-03,  -582.058E-03,0.0259218,0.0618239,0.00228902
27093,8.0,-39.0,0.0,   721.914E-06,  -8.20409E-03,  -583.983E-03,0.0259683,0.0622046,0.00202876
27098,7.0,-39.0,0.0,   631.219E-06,  -8.24270E-03,  -585.668E-03,0.0260096,0.0625399,0.00177063
27101,6.0,-39.0,0.0,   540.699E-06,  -8.27590E-03,  -587.118E-03,0.0260456,0.06283,0.00151434
27102,5.0,-39.0,0.0,   450.335E-06,  -8.30380E-03,  -588.337E-03,0.0260763,0.0630751,0.0012596
27107,4.0,-39.0,0.0,   360.103E-06,  -8.32651E-03,  -589.330E-03,0.0261015,0.0632753,0.00100615
27108,3.0,-39.0,0.0,   269.980E-06,  -8.34409E-03,  -590.098E-03,0.0261212,0.063431,0.000753722
27113,2.0,-39.0,0.0,   179.940E-06,  -8.35660E-03,  -590.646E-03,0.0261353,0.063542,0.000502059
27116,1.0,-39.0,0.0,   89.9558E-06,  -8.36409E-03,  -590.974E-03,0.0261437,0.0636086,0.000250903
27117,0.0,-39.0,0.0,   3.47702E-15,  -8.36659E-03,  -591.083E-03,0.0261466,0.0636308,0.0
27122,-1.0,-39.0,0.0,  -89.9558E-06,  -8.36409E-03,  -590.974E-03,0.0261437,0.0636086,-0.000250903
27123,-2.0,-39.0,0.0,  -179.940E-06,  -8.35660E-03,  -590.646E-03,0.0261353,0.063542,-0.000502059
27128,-3.0,-39.0,0.0,  -269.980E-06,  -8.34409E-03,  -590.098E-03,0.0261212,0.063431,-0.000753722
27131,-4.0,-39.0,0.0,  -360.103E-06,  -8.32651E-03,  -589.330E-03,0.0261015,0.0632753,-0.00100615
27132,-5.0,-39.0,0.0,  -450.335E-06,  -8.30380E-03,  -588.337E-03,0.0260763,0.0630751,-0.0012596
27137,-6.0,-39.0,0.0,  -540.699E-06,  -8.27590E-03,  -587.118E-03,0.0260456,0.06283,-0.00151434
27138,-7.0,-39.0,0.0,  -631.219E-06,  -8.24270E-03,  -585.668E-03,0.0260096,0.0625399,-0.00177063
27143,-8.0,-39.0,0.0,  -721.914E-06,  -8.20409E-03,  -583.983E-03,0.0259683,0.0622046,-0.00202876
27146,-9.0,-39.0,0.0,  -812.801E-06,  -8.15995E-03,  -582.058E-03,0.0259218,0.0618239,-0.00228902
27147,-10.0,-39.0,0.0,  -903.891E-06,  -8.11013E-03,  -579.886E-03,0.0258704,0.0613976,-0.00255168
27152,-11.0,-39.0,0.0,  -995.193E-06,  -8.05447E-03,  -577.461E-03,0.0258143,0.0609253,-0.00281706
27153,-12.0,-39.0,0.0,  -1.08671E-03,  -7.99280E-03,  -574.775E-03,0.0257536,0.0604068,-0.00308547
27158,-13.0,-39.0,0.0,  -1.17844E-03,  -7.92491E-03,  -571.819E-03,0.0256886,0.0598418,-0.00335723
27161,-14.0,-39.0,0.0,  -1.27037E-03,  -7.85061E-03,  -568.584E-03,0.0256198,0.05923,-0.00363267
27162,-15.0,-39.0,0.0,  -1.36248E-03,  -7.76965E-03,  -565.059E-03,0.0255474,0.0585711,-0.00391215
27167,-16.0,-39.0,0.0,  -1.45474E-03,  -7.68180E-03,  -561.233E-03,0.0254719,0.0578648,-0.00419601
27168,-17.0,-39.0,0.0,  -1.54712E-03,  -7.58679E-03,  -557.093E-03,0.0253939,0.0571108,-0.00448463
27173,-18.0,-39.0,0.0,  -1.63955E-03,  -7.48436E-03,  -552.624E-03,0.0253141,0.056309,-0.00477836
27176,-19.0,-39.0,0.0,  -1.73196E-03,  -7.37420E-03,  -547.812E-03,0.0252332,0.055459,-0.0050776
27177,-20.0,-39.0,0.0,  -1.82427E-03,  -7.25601E-03,  -542.638E-03,0.0251522,0.0545606,-0.00538272
27182,-21.0,-39.0,0.0,  -1.91637E-03,  -7.12946E-03,  -537.085E-03,0.0250723,0.0536136,-0.0056941
27183,-22.0,-39.0,0.0,  -2.00811E-03,  -6.99423E-03,  -531.132E-03,0.0249947,0.0526179,-0.00601209
27188,-23.0,-39.0,0.0,  -2.09932E-03,  -6.84994E-03,  -524.755E-03,0.0249212,0.0515733,-0.00633703
27191,-24.0,-39.0,0.0,  -2.18980E-03,  -6.69622E-03,  -517.929E-03,0.0248537,0.0504799,-0.00666921
27192,-25.0,-39.0,0.0,  -2.27930E-03,  -6.53270E-03,  -510.625E-03,0.0247946,0.0493375,-0.00700885
27197,-26.0,-39.0,0.0,  -2.36749E-03,  -6.35897E-03,  -502.813E-03,0.024747,0.0481462,-0.00735605
27198,-27.0,-39.0,0.0,  -2.45400E-03,  -6.17461E-03,  -494.455E-03,0.0247142,0.046906,-0.00771079
27203,-28.0,-39.0,0.0,  -2.53836E-03,  -5.97919E-03,  -485.511E-03,0.0247007,0.0456171,-0.00807277
27206,-29.0,-39.0,0.0,  -2.61999E-03,  -5.77224E-03,  -475.935E-03,0.0247118,0.0442795,-0.00844139
27207,-30.0,-39.0,0.0,  -2.69816E-03,  -5.55331E-03,  -465.673E-03,0.0247537,0.0428931,-0.00881553
27212,-31.0,-39.0,0.0,  -2.77197E-03,  -5.32189E-03,  -454.664E-03,0.0248342,0.041458,-0.0091934
27213,-32.0,-39.0,0.0,  -2.84025E-03,  -5.07749E-03,  -442.835E-03,0.0249621,0.0399736,-0.00957223
27218,-33.0,-39.0,0.0,  -2.90155E-03,  -4.81957E-03,  -430.101E-03,0.0251477,0.0384391,-0.00994789
27221,-34.0,-39.0,0.0,  -2.95397E-03,  -4.54763E-03,  -416.363E-03,0.0254022,0.036853,-0.0103144
27222,-35.0,-39.0,0.0,  -2.99504E-03,  -4.26118E-03,  -401.504E-03,0.0257369,0.0352122,-0.0106634
27227,-36.0,-39.0,0.0,  -3.02159E-03,  -3.95982E-03,  -385.382E-03,0.0261615,0.0335123,-0.0109832
27228,-37.0,-39.0,0.0,  -3.02945E-03,  -3.64333E-03,  -367.835E-03,0.0266811,0.0317461,-0.0112588
27233,-38.0,-39.0,0.0,  -3.01324E-03,  -3.31185E-03,  -348.671E-03,0.0272909,0.0299031,-0.0114705
27236,-39.0,-39.0,0.0,  -2.96607E-03,  -2.96607E-03,  -327.672E-03,0.0279686,0.0279686,-0.011595
27237,-40.0,-39.0,0.0,  -2.87928E-03,  -2.60762E-03,  -304.598E-03,0.0286614,0.0259222,-0.0116057
27242,-41.0,-39.0,0.0,  -2.74237E-03,  -2.23944E-03,  -279.199E-03,0.029268,0.0237371,-0.0114758
27243,-42.0,-39.0,0.0,  -2.54340E-03,  -1.86633E-03,  -251.240E-03,0.0296102,0.0213775,-0.0111829
27248,-43.0,-39.0,0.0,  -2.27030E-03,  -1.49544E-03,  -220.544E-03,0.0293896,0.0187937,-0.0107159
27251,-44.0,-39.0,0.0,  -1.91384E-03,  -1.13668E-03,  -187.074E-03,0.0281186,0.0159097,-0.010081
27252,-45.0,-39.0,0.0,  -1.47371E-03,  -802.797E-06,  -151.052E-03,0.0250045,0.0125958,-0.00930679
27257,-46.0,-39.0,0.0,  -968.852E-06,  -509.022E-06,  -113.175E-03,0.0187519,0.00860825,-0.0084262
27258,-47.0,-39.0,0.0,  -452.989E-06,  -271.676E-06,  -74.9483E-03,0.00722557,0.00347642,-0.00743231
27263,-48.0,-39.0,0.0,  -31.0477E-06,  -105.264E-06,  -39.2515E-03,-0.0131148,-0.0037047,-0.00612962
27266,-49.0,-39.0,0.0,   146.934E-06,  -17.0130E-06,  -11.2646E-03,-0.0481098,-0.0146077,-0.00386481
27267,-50.0,-39.0,0.0,   758.369E-42,  -215.549E-42,           -0.,-0.0701774,-0.0210606,-0.000982154
27272,50.0,-40.0,0.0,  -627.150E-42,  -171.432E-42,           -0.,-0.0670736,-0.0201277,0.000912625
27273,49.0,-40.0,0.0,  -122.610E-06,  -11.8980E-06,  -10.5339E-03,-0.0467544,-0.0141522,0.00401325
27278,48.0,-40.0,0.0,   40.8518E-06,  -95.8421E-06,  -36.7971E-03,-0.0141259,-0.00387567,0.00653236
27281,47.0,-40.0,0.0,   422.230E-06,  -259.324E-06,  -70.4033E-03,0.00543702,0.00322303,0.00799813
27282,46.0,-40.0,0.0,   886.568E-06,  -495.053E-06,  -106.394E-03,0.0167948,0.00851077,0.00906151
27287,45.0,-40.0,0.0,   1.33756E-03,  -787.378E-06,  -141.962E-03,0.0230561,0.0127287,0.00993617
27288,44.0,-40.0,0.0,   1.72600E-03,  -1.11833E-03,  -175.625E-03,0.0261926,0.0162618,0.0106495
27293,43.0,-40.0,0.0,   2.03547E-03,  -1.47120E-03,  -206.711E-03,0.0274569,0.0193159,0.0111876
27296,42.0,-40.0,0.0,   2.26767E-03,  -1.83233E-03,  -235.022E-03,0.0276462,0.0220108,0.0115386
27297,41.0,-40.0,0.0,   2.43244E-03,  -2.19152E-03,  -260.628E-03,0.0272655,0.0244278,0.0117099
27302,40.0,-40.0,0.0,   2.54190E-03,  -2.54190E-03,  -283.733E-03,0.0266284,0.0266284,0.0117225
27303,39.0,-40.0,0.0,   2.60762E-03,  -2.87928E-03,  -304.598E-03,0.0259222,0.0286614,0.0116057
27308,38.0,-40.0,0.0,   2.63946E-03,  -3.20146E-03,  -323.489E-03,0.0252512,0.0305648,0.0113896
27311,37.0,-40.0,0.0,   2.64536E-03,  -3.50760E-03,  -340.658E-03,0.0246669,0.0323675,0.0111023
27312,36.0,-40.0,0.0,   2.63147E-03,  -3.79771E-03,  -356.328E-03,0.0241882,0.0340902,0.0107667
27317,35.0,-40.0,0.0,   2.60248E-03,  -4.07225E-03,  -370.690E-03,0.0238156,0.0357471,0.010401
27318,34.0,-40.0,0.0,   2.56192E-03,  -4.33187E-03,  -383.905E-03,0.0235398,0.0373473,0.0100185
27323,33.0,-40.0,0.0,   2.51244E-03,  -4.57734E-03,  -396.108E-03,0.0233479,0.0388965,0.00962875
27326,32.0,-40.0,0.0,   2.45606E-03,  -4.80938E-03,  -407.411E-03,0.0232257,0.0403978,0.00923827
27327,31.0,-40.0,0.0,   2.39430E-03,  -5.02869E-03,  -417.908E-03,0.0231604,0.0418527,0.00885136
27332,30.0,-40.0,0.0,   2.32832E-03,  -5.23591E-03,  -427.676E-03,0.0231404,0.0432618,0.0084707
27333,29.0,-40.0,0.0,   2.25904E-03,  -5.43161E-03,  -436.780E-03,0.0231561,0.0446252,0.0080979
27338,28.0,-40.0,0.0,   2.18715E-03,  -5.61632E-03,  -445.277E-03,0.0231994,0.0459427,0.0077338
27341,27.0,-40.0,0.0,   2.11322E-03,  -5.79056E-03,  -453.215E-03,0.0232638,0.0472138,0.00737876
27342,26.0,-40.0,0.0,   2.03770E-03,  -5.95476E-03,  -460.634E-03,0.023344,0.0484382,0.0070328
27347,25.0,-40.0,0.0,   1.96095E-03,  -6.10937E-03,  -467.572E-03,0.023436,0.0496156,0.00669573
27348,24.0,-40.0,0.0,   1.88325E-03,  -6.25479E-03,  -474.059E-03,0.0235361,0.0507456,0.00636724
27353,23.0,-40.0,0.0,   1.80486E-03,  -6.39140E-03,  -480.124E-03,0.0236417,0.0518281,0.00604694
27356,22.0,-40.0,0.0,   1.72596E-03,  -6.51957E-03,  -485.791E-03,0.0237506,0.0528629,0.00573439
27357,21.0,-40.0,0.0,   1.64671E-03,  -6.63964E-03,  -491.084E-03,0.0238609,0.0538499,0.00542914
27362,20.0,-40.0,0.0,   1.56725E-03,  -6.75194E-03,  -496.022E-03,0.0239711,0.0547891,0.00513073
27363,19.0,-40.0,0.0,   1.48768E-03,  -6.85679E-03,  -500.624E-03,0.0240802,0.0556806,0.00483871
27368,18.0,-40.0,0.0,   1.40807E-03,  -6.95448E-03,  -504.906E-03,0.024187,0.0565245,0.00455263
27371,17.0,-40.0,0.0,   1.32851E-03,  -7.04529E-03,  -508.883E-03,0.0242908,0.0573208,0.00427205
27372,16.0,-40.0,0.0,   1.24904E-03,  -7.12950E-03,  -512.569E-03,0.0243908,0.0580699,0.00399656
27377,15.0,-40.0,0.0,   1.16971E-03,  -7.20734E-03,  -515.975E-03,0.0244866,0.0587718,0.00372577
27378,14.0,-40.0,0.0,   1.09053E-03,  -7.27906E-03,  -519.114E-03,0.0245777,0.0594268,0.00345928
27383,13.0,-40.0,0.0,   1.01154E-03,  -7.34487E-03,  -521.995E-03,0.0246637,0.0600351,0.00319674
27386,12.0,-40.0,0.0,   932.742E-06,  -7.40499E-03,  -524.628E-03,0.0247442,0.0605971,0.00293779
27387,11.0,-40.0,0.0,   854.145E-06,  -7.45960E-03,  -527.022E-03,0.024819,0.0611129,0.00268209
27392,10.0,-40.0,0.0,   775.746E-06,  -7.50887E-03,  -529.183E-03,0.0248879,0.0615828,0.00242932
27393,9.0,-40.0,0.0,   697.542E-06,  -7.55296E-03,  -531.118E-03,0.0249507,0.0620071,0.00217917
27398,8.0,-40.0,0.0,   619.524E-06,  -7.59203E-03,  -532.834E-03,0.0250072,0.062386,0.00193136
27401,7.0,-40.0,0.0,   541.678E-06,  -7.62619E-03,  -534.336E-03,0.0250574,0.0627197,0.00168558
27402,6.0,-40.0,0.0,   463.988E-06,  -7.65557E-03,  -535.629E-03,0.025101,0.0630085,0.00144157
27407,5.0,-40.0,0.0,   386.437E-06,  -7.68026E-03,  -536.716E-03,0.0251381,0.0632525,0.00119906
27408,4.0,-40.0,0.0,   309.003E-06,  -7.70035E-03,  -537.601E-03,0.0251685,0.0634519,0.000957778
27413,3.0,-40.0,0.0,   231.667E-06,  -7.71590E-03,  -538.286E-03,0.0251922,0.0636069,0.000717481
27416,2.0,-40.0,0.0,   154.403E-06,  -7.72697E-03,  -538.774E-03,0.0252091,0.0637175,0.000477916
27417,1.0,-40.0,0.0,   77.1892E-06,  -7.73360E-03,  -539.066E-03,0.0252193,0.0637838,0.000238837
27422,0.0,-40.0,0.0,   4.71464E-15,  -7.73580E-03,  -539.164E-03,0.0252227,0.0638059,-1.81899e-12
27423,-1.0,-40.0,0.0,  -77.1892E-06,  -7.73360E-03,  -539.066E-03,0.0252193,0.0637838,-0.000238837
27428,-2.0,-40.0,0.0,  -154.403E-06,  -7.72697E-03,  -538.774E-03,0.0252091,0.0637175,-0.000477916
27431,-3.0,-40.0,0.0,  -231.667E-06,  -7.71590E-03,  -538.286E-03,0.0251922,0.0636069,-0.000717481
27432,-4.0,-40.0,0.0,  -309.003E-06,  -7.70035E-03,  -537.601E-03,0.0251685,0.0634519,-0.000957778
27437,-5.0,-40.0,0.0,  -386.437E-06,  -7.68026E-03,  -536.716E-03,0.0251381,0.0632525,-0.00119906
27438,-6.0,-40.0,0.0,  -463.988E-06,  -7.65557E-03,  -535.629E-03,0.025101,0.0630085,-0.00144157
27443,-7.0,-40.0,0.0,  -541.678E-06,  -7.62619E-03,  -534.336E-03,0.0250574,0.0627197,-0.00168558
27446,-8.0,-40.0,0.0,  -619.524E-06,  -7.59203E-03,  -532.834E-03,0.0250072,0.062386,-0.00193136
27447,-9.0,-40.0,0.0,  -697.542E-06,  -7.55296E-03,  -531.118E-03,0.0249507,0.0620071,-0.00217918
27452,-10.0,-40.0,0.0,  -775.746E-06,  -7.50887E-03,  -529.183E-03,0.0248879,0.0615828,-0.00242932
27453,-11.0,-40.0,0.0,  -854.145E-06,  -7.45960E-03,  -527.022E-03,0.024819,0.0611129,-0.00268209
27458,-12.0,-40.0,0.0,  -932.742E-06,  -7.40499E-03,  -524.628E-03,0.0247442,0.0605971,-0.00293779
27461,-13.0,-40.0,0.0,  -1.01154E-03,  -7.34487E-03,  -521.995E-03,0.0246636,0.0600351,-0.00319674
27462,-14.0,-40.0,0.0,  -1.09053E-03,  -7.27906E-03,  -519.114E-03,0.0245777,0.0594268,-0.00345928
27467,-15.0,-40.0,0.0,  -1.16971E-03,  -7.20734E-03,  -515.975E-03,0.0244866,0.0587718,-0.00372577
27468,-16.0,-40.0,0.0,  -1.24904E-03,  -7.12950E-03,  -512.569E-03,0.0243908,0.0580699,-0.00399656
27473,-17.0,-40.0,0.0,  -1.32851E-03,  -7.04529E-03,  -508.883E-03,0.0242907,0.0573208,-0.00427205
27476,-18.0,-40.0,0.0,  -1.40807E-03,  -6.95448E-03,  -504.906E-03,0.024187,0.0565245,-0.00455263
27477,-19.0,-40.0,0.0,  -1.48768E-03,  -6.85679E-03,  -500.624E-03,0.0240802,0.0556806,-0.00483871
27482,-20.0,-40.0,0.0,  -1.56725E-03,  -6.75194E-03,  -496.022E-03,0.0239711,0.0547891,-0.00513073
27483,-21.0,-40.0,0.0,  -1.64671E-03,  -6.63964E-03,  -491.084E-03,0.0238609,0.0538499,-0.00542914
27488,-22.0,-40.0,0.0,  -1.72596E-03,  -6.51957E-03,  -485.791E-03,0.0237506,0.0528629,-0.00573439
27491,-23.0,-40.0,0.0,  -1.80486E-03,  -6.39140E-03,  -480.124E-03,0.0236417,0.0518281,-0.00604694
27492,-24.0,-40.0,0.0,  -1.88325E-03,  -6.25479E-03,  -474.059E-03,0.0235361,0.0507456,-0.00636724
27497,-25.0,-40.0,0.0,  -1.96095E-03,  -6.10937E-03,  -467.572E-03,0.023436,0.0496156,-0.00669573
27498,-26.0,-40.0,0.0,  -2.03770E-03,  -5.95476E-03,  -460.634E-03,0.023344,0.0484382,-0.0070328
27503,-27.0,-40.0,0.0,  -2.11322E-03,  -5.79056E-03,  -453.215E-03,0.0232638,0.0472138,-0.00737876
27506,-28.0,-40.0,0.0,  -2.18715E-03,  -5.61632E-03,  -445.277E-03,0.0231994,0.0459427,-0.0077338
27507,-29.0,-40.0,0.0,  -2.25904E-03,  -5.43161E-03,  -436.780E-03,0.0231561,0.0446252,-0.0080979
27512,-30.0,-40.0,0.0,  -2.32832E-03,  -5.23591E-03,  -427.676E-03,0.0231404,0.0432618,-0.0084707
27513,-31.0,-40.0,0.0,  -2.39430E-03,  -5.02869E-03,  -417.908E-03,0.0231604,0.0418527,-0.00885136
27518,-32.0,-40.0,0.0,  -2.45606E-03,  -4.80938E-03,  -407.411E-03,0.0232257,0.0403978,-0.00923827
27521,-33.0,-40.0,0.0,  -2.51244E-03,  -4.57734E-03,  -396.108E-03,0.0233479,0.0388965,-0.00962875
27522,-34.0,-40.0,0.0,  -2.56192E-03,  -4.33187E-03,  -383.905E-03,0.0235398,0.0373473,-0.0100185
27527,-35.0,-40.0,0.0,  -2.60248E-03,  -4.07225E-03,  -370.690E-03,0.0238156,0.0357471,-0.010401
27528,-36.0,-40.0,0.0,  -2.63147E-03,  -3.79771E-03,  -356.328E-03,0.0241882,0.0340902,-0.0107667
27533,-37.0,-40.0,0.0,  -2.64536E-03,  -3.50760E-03,  -340.658E-03,0.0246669,0.0323675,-0.0111023
27536,-38.0,-40.0,0.0,  -2.63946E-03,  -3.20146E-03,  -323.489E-03,0.0252512,0.0305648,-0.0113896
27537,-39.0,-40.0,0.0,  -2.60762E-03,  -2.87928E-03,  -304.598E-03,0.0259222,0.0286614,-0.0116057
27542,-40.0,-40.0,0.0,  -2.54190E-03,  -2.54190E-03,  -283.733E-03,0.0266284,0.0266284,-0.0117225
27543,-41.0,-40.0,0.0,  -2.43244E-03,  -2.19152E-03,  -260.628E-03,0.0272655,0.0244278,-0.0117099
27548,-42.0,-40.0,0.0,  -2.26767E-03,  -1.83233E-03,  -235.022E-03,0.0276462,0.0220108,-0.0115386
27551,-43.0,-40.0,0.0,  -2.03547E-03,  -1.47120E-03,  -206.711E-03,0.0274569,0.0193159,-0.0111876
27552,-44.0,-40.0,0.0,  -1.72600E-03,  -1.11833E-03,  -175.625E-03,0.0261926,0.0162618,-0.0106495
27557,-45.0,-40.0,0.0,  -1.33756E-03,  -787.378E-06,  -141.962E-03,0.0230561,0.0127287,-0.00993618
27558,-46.0,-40.0,0.0,  -886.568E-06,  -495.053E-06,  -106.394E-03,0.0167948,0.00851077,-0.00906151
27563,-47.0,-40.0,0.0,  -422.230E-06,  -259.324E-06,  -70.4033E-03,0.00543702,0.00322303,-0.00799813
27566,-48.0,-40.0,0.0,  -40.8518E-06,  -95.8421E-06,  -36.7971E-03,-0.0141259,-0.00387567,-0.00653236
27567,-49.0,-40.0,0.0,   122.610E-06,  -11.8980E-06,  -10.5339E-03,-0.0467544,-0.0141522,-0.00401324
27572,-50.0,-40.0,0.0,   627.150E-42,  -171.432E-42,           -0.,-0.0670736,-0.0201277,-0.000912625
27573,50.0,-41.0,0.0,  -496.587E-42,  -128.956E-42,           -0.,-0.0635286,-0.0190612,0.000875866
27578,49.0,-41.0,0.0,  -97.9091E-06,  -7.08022E-06,  -9.74210E-03,-0.0449793,-0.0135306,0.0042346
27581,48.0,-41.0,0.0,   50.2911E-06,  -85.8041E-06,  -34.1032E-03,-0.0148207,-0.00387937,0.00705052
27582,47.0,-41.0,0.0,   387.766E-06,  -244.210E-06,  -65.3497E-03,0.00380214,0.00311283,0.0086932
27587,46.0,-41.0,0.0,   795.696E-06,  -474.964E-06,  -98.7893E-03,0.0148479,0.00852783,0.00980773
27588,45.0,-41.0,0.0,   1.18812E-03,  -761.297E-06,  -131.722E-03,0.0210137,0.0129454,0.0106353
27593,44.0,-41.0,0.0,   1.52159E-03,  -1.08369E-03,  -162.722E-03,0.0241067,0.0166648,0.0112364
27596,43.0,-41.0,0.0,   1.78264E-03,  -1.42420E-03,  -191.155E-03,0.0253311,0.0198547,0.011627
27597,42.0,-41.0,0.0,   1.97434E-03,  -1.76857E-03,  -216.861E-03,0.0254814,0.0226276,0.0118187
27602,41.0,-41.0,0.0,   2.10674E-03,  -2.10674E-03,  -239.942E-03,0.0250729,0.0250729,0.0118358
27603,40.0,-41.0,0.0,   2.19152E-03,  -2.43244E-03,  -260.628E-03,0.0244278,0.0272655,0.0117099
27608,39.0,-41.0,0.0,   2.23944E-03,  -2.74237E-03,  -279.199E-03,0.0237371,0.029268,0.0114758
27611,38.0,-41.0,0.0,   2.25939E-03,  -3.03526E-03,  -295.933E-03,0.0231039,0.0311294,0.0111654
27612,37.0,-41.0,0.0,   2.25831E-03,  -3.31111E-03,  -311.085E-03,0.0225751,0.0328862,0.0108055
27617,36.0,-41.0,0.0,   2.24147E-03,  -3.57064E-03,  -324.876E-03,0.0221644,0.034564,0.0104169
27618,35.0,-41.0,0.0,   2.21277E-03,  -3.81482E-03,  -337.493E-03,0.0218671,0.0361794,0.0100144
27623,34.0,-41.0,0.0,   2.17509E-03,  -4.04472E-03,  -349.089E-03,0.0216696,0.0377426,0.00960852
27626,33.0,-41.0,0.0,   2.13055E-03,  -4.26134E-03,  -359.790E-03,0.0215558,0.0392595,0.00920582
27627,32.0,-41.0,0.0,   2.08074E-03,  -4.46558E-03,  -369.699E-03,0.0215093,0.0407329,0.00881041
27632,31.0,-41.0,0.0,   2.02684E-03,  -4.65824E-03,  -378.902E-03,0.021516,0.0421639,0.00842462
27633,30.0,-41.0,0.0,   1.96974E-03,  -4.83999E-03,  -387.467E-03,0.0215635,0.0435524,0.00804958
27638,29.0,-41.0,0.0,   1.91014E-03,  -5.01145E-03,  -395.454E-03,0.021642,0.0448981,0.00768568
27641,28.0,-41.0,0.0,   1.84858E-03,  -5.17314E-03,  -402.911E-03,0.0217434,0.0462002,0.00733285
27642,27.0,-41.0,0.0,   1.78547E-03,  -5.32555E-03,  -409.879E-03,0.0218613,0.047458,0.00699075
27647,26.0,-41.0,0.0,   1.72118E-03,  -5.46910E-03,  -416.396E-03,0.021991,0.0486708,0.00665887
27648,25.0,-41.0,0.0,   1.65596E-03,  -5.60419E-03,  -422.492E-03,0.0221282,0.049838,0.00633667
27653,24.0,-41.0,0.0,   1.59004E-03,  -5.73121E-03,  -428.195E-03,0.0222701,0.0509591,0.00602352
27656,23.0,-41.0,0.0,   1.52361E-03,  -5.85049E-03,  -433.529E-03,0.0224142,0.0520337,0.00571884
27657,22.0,-41.0,0.0,   1.45681E-03,  -5.96237E-03,  -438.516E-03,0.0225584,0.0530615,0.00542204
27662,21.0,-41.0,0.0,   1.38977E-03,  -6.06715E-03,  -443.174E-03,0.0227012,0.0540423,0.00513255
27663,20.0,-41.0,0.0,   1.32259E-03,  -6.16513E-03,  -447.522E-03,0.0228415,0.054976,0.00484983
27668,19.0,-41.0,0.0,   1.25535E-03,  -6.25659E-03,  -451.575E-03,0.0229782,0.0558627,0.00457338
27671,18.0,-41.0,0.0,   1.18811E-03,  -6.34179E-03,  -455.348E-03,0.0231105,0.0567022,0.0043027
27672,17.0,-41.0,0.0,   1.12092E-03,  -6.42098E-03,  -458.853E-03,0.0232377,0.0574947,0.00403735
27677,16.0,-41.0,0.0,   1.05383E-03,  -6.49440E-03,  -462.102E-03,0.0233594,0.0582402,0.0037769
27678,15.0,-41.0,0.0,   986.869E-06,  -6.56226E-03,  -465.105E-03,0.023475,0.0589391,0.00352094
27683,14.0,-41.0,0.0,   920.052E-06,  -6.62477E-03,  -467.874E-03,0.0235842,0.0595914,0.00326909
27686,13.0,-41.0,0.0,   853.396E-06,  -6.68213E-03,  -470.415E-03,0.0236867,0.0601974,0.00302099
27687,12.0,-41.0,0.0,   786.910E-06,  -6.73452E-03,  -472.739E-03,0.0237824,0.0607572,0.0027763
27692,11.0,-41.0,0.0,   720.596E-06,  -6.78210E-03,  -474.851E-03,0.0238708,0.0612711,0.00253468
27693,10.0,-41.0,0.0,   654.454E-06,  -6.82503E-03,  -476.758E-03,0.0239521,0.0617394,0.00229584
27698,9.0,-41.0,0.0,   588.478E-06,  -6.86345E-03,  -478.467E-03,0.0240259,0.0621623,0.00205947
27701,8.0,-41.0,0.0,   522.659E-06,  -6.89748E-03,  -479.982E-03,0.0240921,0.06254,0.00182529
27702,7.0,-41.0,0.0,   456.986E-06,  -6.92724E-03,  -481.308E-03,0.0241508,0.0628726,0.00159304
27707,6.0,-41.0,0.0,   391.444E-06,  -6.95283E-03,  -482.449E-03,0.0242017,0.0631605,0.00136244
27708,5.0,-41.0,0.0,   326.019E-06,  -6.97433E-03,  -483.409E-03,0.0242449,0.0634038,0.00113325
27713,4.0,-41.0,0.0,   260.693E-06,  -6.99183E-03,  -484.191E-03,0.0242804,0.0636027,0.000905224
27716,3.0,-41.0,0.0,   195.448E-06,  -7.00537E-03,  -484.796E-03,0.0243079,0.0637572,0.000678118
27717,2.0,-41.0,0.0,   130.264E-06,  -7.01501E-03,  -485.227E-03,0.0243277,0.0638674,0.000451699
27722,1.0,-41.0,0.0,   65.1218E-06,  -7.02078E-03,  -485.485E-03,0.0243395,0.0639336,0.000225736
27723,0.0,-41.0,0.0,  -5.67455E-15,  -7.02270E-03,  -485.571E-03,0.0243434,0.0639556,-1.81899e-12
27728,-1.0,-41.0,0.0,  -65.1218E-06,  -7.02078E-03,  -485.485E-03,0.0243395,0.0639336,-0.000225736
27729,-2.0,-41.0,0.0,  -130.264E-06,  -7.01501E-03,  -485.227E-03,0.0243277,0.0638674,-0.000451699
27734,-3.0,-41.0,0.0,  -195.448E-06,  -7.00537E-03,  -484.796E-03,0.0243079,0.0637572,-0.000678118
27735,-4.0,-41.0,0.0,  -260.693E-06,  -6.99183E-03,  -484.191E-03,0.0242804,0.0636027,-0.000905224
27740,-5.0,-41.0,0.0,  -326.019E-06,  -6.97433E-03,  -483.409E-03,0.0242449,0.0634038,-0.00113325
27743,-6.0,-41.0,0.0,  -391.444E-06,  -6.95283E-03,  -482.449E-03,0.0242017,0.0631605,-0.00136244
27744,-7.0,-41.0,0.0,  -456.986E-06,  -6.92724E-03,  -481.308E-03,0.0241508,0.0628726,-0.00159304
27749,-8.0,-41.0,0.0,  -522.659E-06,  -6.89748E-03,  -479.982E-03,0.0240921,0.06254,-0.00182529
27750,-9.0,-41.0,0.0,  -588.478E-06,  -6.86345E-03,  -478.467E-03,0.0240259,0.0621623,-0.00205947
27755,-10.0,-41.0,0.0,  -654.454E-06,  -6.82503E-03,  -476.758E-03,0.0239521,0.0617394,-0.00229584
27758,-11.0,-41.0,0.0,  -720.596E-06,  -6.78210E-03,  -474.851E-03,0.0238708,0.0612711,-0.00253468
27759,-12.0,-41.0,0.0,  -786.910E-06,  -6.73452E-03,  -472.739E-03,0.0237824,0.0607572,-0.0027763
27764,-13.0,-41.0,0.0,  -853.396E-06,  -6.68213E-03,  -470.415E-03,0.0236867,0.0601974,-0.00302099
27765,-14.0,-41.0,0.0,  -920.052E-06,  -6.62477E-03,  -467.874E-03,0.0235842,0.0595914,-0.00326909
27770,-15.0,-41.0,0.0,  -986.869E-06,  -6.56226E-03,  -465.105E-03,0.023475,0.0589391,-0.00352094
27773,-16.0,-41.0,0.0,  -1.05383E-03,  -6.49440E-03,  -462.102E-03,0.0233594,0.0582402,-0.0037769
27774,-17.0,-41.0,0.0,  -1.12092E-03,  -6.42098E-03,  -458.853E-03,0.0232377,0.0574947,-0.00403735
27779,-18.0,-41.0,0.0,  -1.18811E-03,  -6.34179E-03,  -455.348E-03,0.0231105,0.0567022,-0.0043027
27780,-19.0,-41.0,0.0,  -1.25535E-03,  -6.25659E-03,  -451.575E-03,0.0229782,0.0558627,-0.00457338
27785,-20.0,-41.0,0.0,  -1.32259E-03,  -6.16513E-03,  -447.522E-03,0.0228415,0.054976,-0.00484983
27788,-21.0,-41.0,0.0,  -1.38977E-03,  -6.06715E-03,  -443.174E-03,0.0227012,0.0540423,-0.00513255
27789,-22.0,-41.0,0.0,  -1.45681E-03,  -5.96237E-03,  -438.516E-03,0.0225584,0.0530615,-0.00542204
27794,-23.0,-41.0,0.0,  -1.52361E-03,  -5.85049E-03,  -433.529E-03,0.0224141,0.0520337,-0.00571884
27795,-24.0,-41.0,0.0,  -1.59004E-03,  -5.73121E-03,  -428.195E-03,0.0222701,0.0509591,-0.00602352
27800,-25.0,-41.0,0.0,  -1.65596E-03,  -5.60419E-03,  -422.492E-03,0.0221282,0.049838,-0.00633667
27803,-26.0,-41.0,0.0,  -1.72118E-03,  -5.46910E-03,  -416.396E-03,0.021991,0.0486708,-0.00665887
27804,-27.0,-41.0,0.0,  -1.78547E-03,  -5.32555E-03,  -409.879E-03,0.0218613,0.047458,-0.00699075
27809,-28.0,-41.0,0.0,  -1.84858E-03,  -5.17314E-03,  -402.911E-03,0.0217434,0.0462002,-0.00733285
27810,-29.0,-41.0,0.0,  -1.91014E-03,  -5.01145E-03,  -395.454E-03,0.021642,0.0448981,-0.00768568
27815,-30.0,-41.0,0.0,  -1.96974E-03,  -4.83999E-03,  -387.467E-03,0.0215635,0.0435524,-0.00804958
27818,-31.0,-41.0,0.0,  -2.02684E-03,  -4.65824E-03,  -378.902E-03,0.021516,0.0421639,-0.00842462
27819,-32.0,-41.0,0.0,  -2.08074E-03,  -4.46558E-03,  -369.699E-03,0.0215093,0.0407329,-0.00881041
27824,-33.0,-41.0,0.0,  -2.13055E-03,  -4.26134E-03,  -359.790E-03,0.0215558,0.0392595,-0.00920582
27825,-34.0,-41.0,0.0,  -2.17509E-03,  -4.04472E-03,  -349.089E-03,0.0216696,0.0377426,-0.00960852
27830,-35.0,-41.0,0.0,  -2.21277E-03,  -3.81482E-03,  -337.493E-03,0.0218671,0.0361794,-0.0100144
27833,-36.0,-41.0,0.0,  -2.24147E-03,  -3.57064E-03,  -324.876E-03,0.0221644,0.034564,-0.0104169
27834,-37.0,-41.0,0.0,  -2.25831E-03,  -3.31111E-03,  -311.085E-03,0.0225751,0.0328862,-0.0108055
27839,-38.0,-41.0,0.0,  -2.25939E-03,  -3.03526E-03,  -295.933E-03,0.0231039,0.0311294,-0.0111654
27840,-39.0,-41.0,0.0,  -2.23944E-03,  -2.74237E-03,  -279.199E-03,0.0237371,0.029268,-0.0114758
27845,-40.0,-41.0,0.0,  -2.19152E-03,  -2.43244E-03,  -260.628E-03,0.0244278,0.0272655,-0.0117099
27848,-41.0,-41.0,0.0,  -2.10674E-03,  -2.10674E-03,  -239.942E-03,0.0250729,0.0250729,-0.0118358
27849,-42.0,-41.0,0.0,  -1.97434E-03,  -1.76857E-03,  -216.861E-03,0.0254814,0.0226276,-0.0118187
27854,-43.0,-41.0,0.0,  -1.78264E-03,  -1.42420E-03,  -191.155E-03,0.0253311,0.0198547,-0.011627
27855,-44.0,-41.0,0.0,  -1.52159E-03,  -1.08369E-03,  -162.722E-03,0.0241067,0.0166648,-0.0112364
27860,-45.0,-41.0,0.0,  -1.18812E-03,  -761.297E-06,  -131.722E-03,0.0210137,0.0129454,-0.0106353
27863,-46.0,-41.0,0.0,  -795.696E-06,  -474.964E-06,  -98.7893E-03,0.0148479,0.00852783,-0.00980773
27864,-47.0,-41.0,0.0,  -387.766E-06,  -244.210E-06,  -65.3497E-03,0.00380214,0.00311283,-0.0086932
27869,-48.0,-41.0,0.0,  -50.2911E-06,  -85.8041E-06,  -34.1032E-03,-0.0148207,-0.00387937,-0.00705052
27870,-49.0,-41.0,0.0,   97.9091E-06,  -7.08022E-06,  -9.74210E-03,-0.0449793,-0.0135306,-0.0042346
27875,-50.0,-41.0,0.0,   496.587E-42,  -128.956E-42,           -0.,-0.0635286,-0.0190612,-0.000875866
27878,50.0,-42.0,0.0,  -370.739E-42,  -89.9928E-42,           -0.,-0.0593794,-0.0178118,0.000891638
27879,49.0,-42.0,0.0,  -73.5273E-06,  -2.97966E-06,  -8.87545E-03,-0.042628,-0.0126923,0.00455872
27884,48.0,-42.0,0.0,   58.1157E-06,  -75.4557E-06,  -31.1157E-03,-0.015082,-0.00368342,0.00771332
27885,47.0,-42.0,0.0,   347.968E-06,  -225.914E-06,  -59.6754E-03,0.00237179,0.00313902,0.00953516
27890,46.0,-42.0,0.0,   694.587E-06,  -446.986E-06,  -90.1853E-03,0.0129013,0.00860368,0.0106651
27893,45.0,-42.0,0.0,   1.02422E-03,  -720.944E-06,  -120.105E-03,0.0188245,0.0131423,0.0113876
27894,44.0,-42.0,0.0,   1.30033E-03,  -1.02708E-03,  -148.098E-03,0.0217864,0.0169753,0.0118125
27899,43.0,-42.0,0.0,   1.51277E-03,  -1.34671E-03,  -173.592E-03,0.0229324,0.0202391,0.0119979
27900,42.0,-42.0,0.0,   1.66561E-03,  -1.66561E-03,  -196.468E-03,0.0230417,0.0230417,0.0119856
27905,41.0,-42.0,0.0,   1.76857E-03,  -1.97434E-03,  -216.861E-03,0.0226276,0.0254814,0.0118187
27908,40.0,-42.0,0.0,   1.83233E-03,  -2.26767E-03,  -235.022E-03,0.0220108,0.0276462,0.0115386
27909,39.0,-42.0,0.0,   1.86633E-03,  -2.54340E-03,  -251.240E-03,0.0213775,0.0296102,0.0111829
27914,38.0,-42.0,0.0,   1.87816E-03,  -2.80129E-03,  -265.793E-03,0.0208237,0.0314309,0.0107819
27915,37.0,-42.0,0.0,   1.87358E-03,  -3.04217E-03,  -278.933E-03,0.0203888,0.0331498,0.0103585
27920,36.0,-42.0,0.0,   1.85684E-03,  -3.26734E-03,  -290.869E-03,0.020079,0.0347948,0.00992868
27923,35.0,-42.0,0.0,   1.83103E-03,  -3.47820E-03,  -301.777E-03,0.0198841,0.0363832,0.00950253
27924,34.0,-42.0,0.0,   1.79838E-03,  -3.67605E-03,  -311.798E-03,0.0197865,0.037925,0.00908611
27929,33.0,-42.0,0.0,   1.76052E-03,  -3.86204E-03,  -321.047E-03,0.0197675,0.039425,0.00868261
27930,32.0,-42.0,0.0,   1.71865E-03,  -4.03713E-03,  -329.613E-03,0.0198096,0.0408853,0.00829335
27935,31.0,-42.0,0.0,   1.67365E-03,  -4.20212E-03,  -337.573E-03,0.0198977,0.0423061,0.00791857
27938,30.0,-42.0,0.0,   1.62620E-03,  -4.35767E-03,  -344.986E-03,0.0200198,0.0436868,0.00755784
27939,29.0,-42.0,0.0,   1.57681E-03,  -4.50435E-03,  -351.903E-03,0.0201662,0.0450263,0.00721045
27944,28.0,-42.0,0.0,   1.52589E-03,  -4.64264E-03,  -358.365E-03,0.0203293,0.0463236,0.00687552
27945,27.0,-42.0,0.0,   1.47377E-03,  -4.77297E-03,  -364.409E-03,0.0205035,0.0475775,0.00655212
27950,26.0,-42.0,0.0,   1.42070E-03,  -4.89572E-03,  -370.064E-03,0.0206841,0.0487872,0.00623938
27953,25.0,-42.0,0.0,   1.36690E-03,  -5.01123E-03,  -375.357E-03,0.0208679,0.0499518,0.00593644
27954,24.0,-42.0,0.0,   1.31254E-03,  -5.11983E-03,  -380.311E-03,0.0210522,0.0510708,0.00564252
27959,23.0,-42.0,0.0,   1.25777E-03,  -5.22182E-03,  -384.947E-03,0.021235,0.0521437,0.00535688
27960,22.0,-42.0,0.0,   1.20269E-03,  -5.31748E-03,  -389.284E-03,0.0214147,0.05317,0.00507885
27965,21.0,-42.0,0.0,   1.14742E-03,  -5.40707E-03,  -393.337E-03,0.02159,0.0541497,0.00480783
27968,20.0,-42.0,0.0,   1.09203E-03,  -5.49085E-03,  -397.122E-03,0.0217601,0.0550824,0.00454323
27969,19.0,-42.0,0.0,   1.03658E-03,  -5.56905E-03,  -400.651E-03,0.0219241,0.0559681,0.00428455
27974,18.0,-42.0,0.0,   981.122E-06,  -5.64190E-03,  -403.937E-03,0.0220815,0.0568069,0.00403128
27975,17.0,-42.0,0.0,   925.706E-06,  -5.70962E-03,  -406.991E-03,0.0222318,0.0575988,0.00378299
27980,16.0,-42.0,0.0,   870.361E-06,  -5.77239E-03,  -409.823E-03,0.0223746,0.0583438,0.00353926
27983,15.0,-42.0,0.0,   815.111E-06,  -5.83041E-03,  -412.442E-03,0.0225096,0.0590422,0.00329969
27984,14.0,-42.0,0.0,   759.973E-06,  -5.88386E-03,  -414.856E-03,0.0226365,0.0596942,0.00306394
27989,13.0,-42.0,0.0,   704.960E-06,  -5.93290E-03,  -417.073E-03,0.0227552,0.0602998,0.00283164
27990,12.0,-42.0,0.0,   650.078E-06,  -5.97769E-03,  -419.100E-03,0.0228655,0.0608594,0.00260249
27995,11.0,-42.0,0.0,   595.330E-06,  -6.01837E-03,  -420.943E-03,0.0229673,0.0613731,0.00237618
27998,10.0,-42.0,0.0,   540.716E-06,  -6.05507E-03,  -422.608E-03,0.0230604,0.0618412,0.00215243
27999,9.0,-42.0,0.0,   486.230E-06,  -6.08792E-03,  -424.100E-03,0.0231449,0.062264,0.00193095
28004,8.0,-42.0,0.0,   431.867E-06,  -6.11701E-03,  -425.422E-03,0.0232206,0.0626415,0.00171148
28005,7.0,-42.0,0.0,   377.618E-06,  -6.14245E-03,  -426.580E-03,0.0232875,0.0629741,0.00149379
28010,6.0,-42.0,0.0,   323.472E-06,  -6.16432E-03,  -427.577E-03,0.0233455,0.063262,0.00127761
28013,5.0,-42.0,0.0,   269.416E-06,  -6.18271E-03,  -428.415E-03,0.0233947,0.0635052,0.00106274
28014,4.0,-42.0,0.0,   215.438E-06,  -6.19766E-03,  -429.098E-03,0.023435,0.063704,0.000848923
28019,3.0,-42.0,0.0,   161.522E-06,  -6.20924E-03,  -429.627E-03,0.0234663,0.0638585,0.000635958
28020,2.0,-42.0,0.0,   107.655E-06,  -6.21748E-03,  -430.003E-03,0.0234887,0.0639687,0.000423623
28025,1.0,-42.0,0.0,   53.8192E-06,  -6.22241E-03,  -430.229E-03,0.0235021,0.0640349,0.000211707
28028,0.0,-42.0,0.0,   6.95115E-15,  -6.22406E-03,  -430.304E-03,0.0235066,0.0640569,-3.63798e-12
28029,-1.0,-42.0,0.0,  -53.8192E-06,  -6.22241E-03,  -430.229E-03,0.0235021,0.0640349,-0.000211707
28034,-2.0,-42.0,0.0,  -107.655E-06,  -6.21748E-03,  -430.003E-03,0.0234887,0.0639687,-0.000423623
28035,-3.0,-42.0,0.0,  -161.522E-06,  -6.20924E-03,  -429.627E-03,0.0234663,0.0638585,-0.000635958
28040,-4.0,-42.0,0.0,  -215.438E-06,  -6.19766E-03,  -429.098E-03,0.023435,0.063704,-0.000848923
28043,-5.0,-42.0,0.0,  -269.416E-06,  -6.18271E-03,  -428.415E-03,0.0233947,0.0635052,-0.00106274
28044,-6.0,-42.0,0.0,  -323.472E-06,  -6.16432E-03,  -427.577E-03,0.0233456,0.063262,-0.00127761
28049,-7.0,-42.0,0.0,  -377.618E-06,  -6.14245E-03,  -426.580E-03,0.0232875,0.0629741,-0.00149379
28050,-8.0,-42.0,0.0,  -431.867E-06,  -6.11701E-03,  -425.422E-03,0.0232206,0.0626415,-0.00171148
28055,-9.0,-42.0,0.0,  -486.230E-06,  -6.08792E-03,  -424.100E-03,0.0231449,0.062264,-0.00193095
28058,-10.0,-42.0,0.0,  -540.716E-06,  -6.05507E-03,  -422.608E-03,0.0230604,0.0618412,-0.00215243
28059,-11.0,-42.0,0.0,  -595.330E-06,  -6.01837E-03,  -420.943E-03,0.0229673,0.0613731,-0.00237618
28064,-12.0,-42.0,0.0,  -650.078E-06,  -5.97769E-03,  -419.100E-03,0.0228655,0.0608594,-0.00260249
28065,-13.0,-42.0,0.0,  -704.960E-06,  -5.93290E-03,  -417.073E-03,0.0227552,0.0602998,-0.00283164
28070,-14.0,-42.0,0.0,  -759.973E-06,  -5.88386E-03,  -414.856E-03,0.0226365,0.0596942,-0.00306394
28073,-15.0,-42.0,0.0,  -815.111E-06,  -5.83041E-03,  -412.442E-03,0.0225096,0.0590422,-0.00329969
28074,-16.0,-42.0,0.0,  -870.361E-06,  -5.77239E-03,  -409.823E-03,0.0223746,0.0583438,-0.00353926
28079,-17.0,-42.0,0.0,  -925.706E-06,  -5.70962E-03,  -406.991E-03,0.0222318,0.0575988,-0.00378299
28080,-18.0,-42.0,0.0,  -981.122E-06,  -5.64190E-03,  -403.937E-03,0.0220815,0.0568069,-0.00403128
28085,-19.0,-42.0,0.0,  -1.03658E-03,  -5.56905E-03,  -400.651E-03,0.0219241,0.0559681,-0.00428455
28088,-20.0,-42.0,0.0,  -1.09203E-03,  -5.49085E-03,  -397.122E-03,0.0217601,0.0550824,-0.00454323
28089,-21.0,-42.0,0.0,  -1.14742E-03,  -5.40707E-03,  -393.337E-03,0.02159,0.0541497,-0.00480783
28094,-22.0,-42.0,0.0,  -1.20269E-03,  -5.31748E-03,  -389.284E-03,0.0214147,0.05317,-0.00507885
28095,-23.0,-42.0,0.0,  -1.25777E-03,  -5.22182E-03,  -384.947E-03,0.021235,0.0521437,-0.00535688
28100,-24.0,-42.0,0.0,  -1.31254E-03,  -5.11983E-03,  -380.311E-03,0.0210522,0.0510708,-0.00564252
28103,-25.0,-42.0,0.0,  -1.36690E-03,  -5.01123E-03,  -375.357E-03,0.0208679,0.0499518,-0.00593644
28104,-26.0,-42.0,0.0,  -1.42070E-03,  -4.89572E-03,  -370.064E-03,0.0206841,0.0487872,-0.00623938
28109,-27.0,-42.0,0.0,  -1.47377E-03,  -4.77297E-03,  -364.409E-03,0.0205035,0.0475775,-0.00655212
28110,-28.0,-42.0,0.0,  -1.52589E-03,  -4.64264E-03,  -358.365E-03,0.0203293,0.0463236,-0.00687552
28115,-29.0,-42.0,0.0,  -1.57681E-03,  -4.50435E-03,  -351.903E-03,0.0201662,0.0450263,-0.00721045
28118,-30.0,-42.0,0.0,  -1.62620E-03,  -4.35767E-03,  -344.986E-03,0.0200198,0.0436868,-0.00755784
28119,-31.0,-42.0,0.0,  -1.67365E-03,  -4.20212E-03,  -337.573E-03,0.0198977,0.0423061,-0.00791857
28124,-32.0,-42.0,0.0,  -1.71865E-03,  -4.03713E-03,  -329.613E-03,0.0198096,0.0408853,-0.00829335
28125,-33.0,-42.0,0.0,  -1.76052E-03,  -3.86204E-03,  -321.047E-03,0.0197675,0.039425,-0.00868261
28130,-34.0,-42.0,0.0,  -1.79838E-03,  -3.67605E-03,  -311.798E-03,0.0197865,0.037925,-0.00908611
28133,-35.0,-42.0,0.0,  -1.83103E-03,  -3.47820E-03,  -301.777E-03,0.0198841,0.0363832,-0.00950253
28134,-36.0,-42.0,0.0,  -1.85684E-03,  -3.26734E-03,  -290.869E-03,0.020079,0.0347948,-0.00992868
28139,-37.0,-42.0,0.0,  -1.87358E-03,  -3.04217E-03,  -278.933E-03,0.0203888,0.0331498,-0.0103585
28140,-38.0,-42.0,0.0,  -1.87816E-03,  -2.80129E-03,  -265.793E-03,0.0208237,0.0314309,-0.0107819
28145,-39.0,-42.0,0.0,  -1.86633E-03,  -2.54340E-03,  -251.240E-03,0.0213775,0.0296102,-0.0111829
28148,-40.0,-42.0,0.0,  -1.83233E-03,  -2.26767E-03,  -235.022E-03,0.0220108,0.0276462,-0.0115386
28149,-41.0,-42.0,0.0,  -1.76857E-03,  -1.97434E-03,  -216.861E-03,0.0226276,0.0254814,-0.0118187
28154,-42.0,-42.0,0.0,  -1.66561E-03,  -1.66561E-03,  -196.468E-03,0.0230417,0.0230417,-0.0119856
28155,-43.0,-42.0,0.0,  -1.51277E-03,  -1.34671E-03,  -173.592E-03,0.0229324,0.0202391,-0.0119979
28160,-44.0,-42.0,0.0,  -1.30033E-03,  -1.02708E-03,  -148.098E-03,0.0217864,0.0169753,-0.0118125
28163,-45.0,-42.0,0.0,  -1.02422E-03,  -720.944E-06,  -120.105E-03,0.0188245,0.0131423,-0.0113876
28164,-46.0,-42.0,0.0,  -694.587E-06,  -446.986E-06,  -90.1853E-03,0.0129013,0.00860368,-0.0106651
28169,-47.0,-42.0,0.0,  -347.968E-06,  -225.914E-06,  -59.6754E-03,0.00237179,0.00313902,-0.00953516
28170,-48.0,-42.0,0.0,  -58.1157E-06,  -75.4557E-06,  -31.1157E-03,-0.015082,-0.00368342,-0.00771332
28175,-49.0,-42.0,0.0,   73.5273E-06,  -2.97966E-06,  -8.87545E-03,-0.042628,-0.0126923,-0.00455872
28178,-50.0,-42.0,0.0,   370.739E-42,  -89.9928E-42,           -0.,-0.0593794,-0.0178118,-0.000891638
28179,50.0,-43.0,0.0,  -254.969E-42,  -56.6349E-42,           -0.,-0.0544124,-0.0163154,0.000980242
28184,49.0,-43.0,0.0,  -50.4870E-06,  -26.0789E-09,  -7.91681E-03,-0.0395106,-0.0115899,0.00501151
28185,48.0,-43.0,0.0,   62.6991E-06,  -65.0630E-06,  -27.7714E-03,-0.0147841,-0.00328345,0.00853575
28190,47.0,-43.0,0.0,   301.268E-06,  -203.796E-06,  -53.2562E-03,0.00118852,0.00323637,0.0105173
28193,46.0,-43.0,0.0,   582.444E-06,  -408.797E-06,  -80.3998E-03,0.010927,0.00859399,0.0116057
28194,45.0,-43.0,0.0,   846.418E-06,  -661.777E-06,  -106.883E-03,0.0164165,0.013104,0.0121503
28199,44.0,-43.0,0.0,   1.06446E-03,  -941.580E-06,  -131.502E-03,0.0191387,0.0169236,0.0123286
28200,43.0,-43.0,0.0,   1.22971E-03,  -1.22971E-03,  -153.760E-03,0.0201648,0.0201648,0.0122523
28205,42.0,-43.0,0.0,   1.34671E-03,  -1.51277E-03,  -173.592E-03,0.0202391,0.0229324,0.0119979
28208,41.0,-43.0,0.0,   1.42420E-03,  -1.78264E-03,  -191.155E-03,0.0198547,0.0253311,0.011627
28209,40.0,-43.0,0.0,   1.47120E-03,  -2.03547E-03,  -206.711E-03,0.0193159,0.0274569,0.0111876
28214,39.0,-43.0,0.0,   1.49544E-03,  -2.27030E-03,  -220.544E-03,0.0187937,0.0293896,0.0107159
28215,38.0,-43.0,0.0,   1.50292E-03,  -2.48786E-03,  -232.923E-03,0.0183701,0.0311894,0.0102366
28220,37.0,-43.0,0.0,   1.49809E-03,  -2.68966E-03,  -244.080E-03,0.0180733,0.0328978,0.00976543
28223,36.0,-43.0,0.0,   1.48416E-03,  -2.87740E-03,  -254.208E-03,0.0179012,0.0345412,0.00931092
28224,35.0,-43.0,0.0,   1.46342E-03,  -3.05268E-03,  -263.464E-03,0.017838,0.036135,0.00887702
28229,34.0,-43.0,0.0,   1.43752E-03,  -3.21688E-03,  -271.972E-03,0.0178631,0.0376868,0.00846468
28230,33.0,-43.0,0.0,   1.40763E-03,  -3.37113E-03,  -279.829E-03,0.0179562,0.0392,0.00807326
28235,32.0,-43.0,0.0,   1.37463E-03,  -3.51632E-03,  -287.115E-03,0.0180998,0.0406751,0.00770128
28238,31.0,-43.0,0.0,   1.33918E-03,  -3.65318E-03,  -293.892E-03,0.0182792,0.0421113,0.007347
28239,30.0,-43.0,0.0,   1.30176E-03,  -3.78227E-03,  -300.210E-03,0.0184831,0.0435073,0.00700865
28244,29.0,-43.0,0.0,   1.26276E-03,  -3.90407E-03,  -306.110E-03,0.0187029,0.0448617,0.00668457
28245,28.0,-43.0,0.0,   1.22250E-03,  -4.01897E-03,  -311.628E-03,0.0189319,0.0461731,0.00637329
28250,27.0,-43.0,0.0,   1.18122E-03,  -4.12732E-03,  -316.793E-03,0.0191652,0.0474403,0.00607351
28253,26.0,-43.0,0.0,   1.13914E-03,  -4.22942E-03,  -321.630E-03,0.0193992,0.0486624,0.00578407
28254,25.0,-43.0,0.0,   1.09640E-03,  -4.32556E-03,  -326.161E-03,0.0196312,0.0498384,0.005504
28259,24.0,-43.0,0.0,   1.05317E-03,  -4.41598E-03,  -330.405E-03,0.0198593,0.050968,0.0052324
28260,23.0,-43.0,0.0,   1.00955E-03,  -4.50094E-03,  -334.379E-03,0.0200818,0.0520505,0.00496852
28265,22.0,-43.0,0.0,   965.646E-06,  -4.58065E-03,  -338.098E-03,0.0202976,0.0530857,0.00471165
28268,21.0,-43.0,0.0,   921.535E-06,  -4.65533E-03,  -341.575E-03,0.020506,0.0540734,0.0044612
28269,20.0,-43.0,0.0,   877.284E-06,  -4.72518E-03,  -344.824E-03,0.0207063,0.0550135,0.00421661
28274,19.0,-43.0,0.0,   832.951E-06,  -4.79040E-03,  -347.855E-03,0.020898,0.055906,0.00397738
28275,18.0,-43.0,0.0,   788.579E-06,  -4.85117E-03,  -350.679E-03,0.0210807,0.0567509,0.00374306
28280,17.0,-43.0,0.0,   744.205E-06,  -4.90767E-03,  -353.304E-03,0.0212542,0.0575484,0.00351323
28283,16.0,-43.0,0.0,   699.857E-06,  -4.96005E-03,  -355.738E-03,0.0214182,0.0582986,0.00328751
28284,15.0,-43.0,0.0,   655.558E-06,  -5.00848E-03,  -357.991E-03,0.0215726,0.0590017,0.00306554
28289,14.0,-43.0,0.0,   611.324E-06,  -5.05309E-03,  -360.068E-03,0.0217172,0.0596578,0.00284699
28290,13.0,-43.0,0.0,   567.167E-06,  -5.09404E-03,  -361.976E-03,0.0218521,0.0602673,0.00263156
28295,12.0,-43.0,0.0,   523.094E-06,  -5.13143E-03,  -363.720E-03,0.021977,0.0608303,0.00241895
28298,11.0,-43.0,0.0,   479.110E-06,  -5.16540E-03,  -365.307E-03,0.022092,0.0613471,0.0022089
28299,10.0,-43.0,0.0,   435.214E-06,  -5.19604E-03,  -366.741E-03,0.0221971,0.061818,0.00200113
28304,9.0,-43.0,0.0,   391.406E-06,  -5.22347E-03,  -368.025E-03,0.0222922,0.0622431,0.00179542
28305,8.0,-43.0,0.0,   347.682E-06,  -5.24776E-03,  -369.165E-03,0.0223772,0.0626228,0.00159151
28310,7.0,-43.0,0.0,   304.037E-06,  -5.26901E-03,  -370.162E-03,0.0224523,0.0629573,0.00138919
28313,6.0,-43.0,0.0,   260.462E-06,  -5.28727E-03,  -371.021E-03,0.0225174,0.0632467,0.00118824
28314,5.0,-43.0,0.0,   216.951E-06,  -5.30263E-03,  -371.743E-03,0.0225724,0.0634913,0.000988455
28319,4.0,-43.0,0.0,   173.494E-06,  -5.31512E-03,  -372.331E-03,0.0226175,0.0636912,0.000789626
28320,3.0,-43.0,0.0,   130.081E-06,  -5.32479E-03,  -372.787E-03,0.0226525,0.0638465,0.000591559
28325,2.0,-43.0,0.0,   86.7020E-06,  -5.33167E-03,  -373.112E-03,0.0226775,0.0639574,0.000394059
28328,1.0,-43.0,0.0,   43.3453E-06,  -5.33579E-03,  -373.306E-03,0.0226925,0.0640239,0.000196936
28329,0.0,-43.0,0.0,   742.686E-18,  -5.33716E-03,  -373.371E-03,0.0226975,0.064046,1.81899e-12
28334,-1.0,-43.0,0.0,  -43.3453E-06,  -5.33579E-03,  -373.306E-03,0.0226925,0.0640239,-0.000196936
28335,-2.0,-43.0,0.0,  -86.7020E-06,  -5.33167E-03,  -373.112E-03,0.0226775,0.0639574,-0.000394059
28340,-3.0,-43.0,0.0,  -130.081E-06,  -5.32479E-03,  -372.787E-03,0.0226525,0.0638465,-0.000591559
28343,-4.0,-43.0,0.0,  -173.494E-06,  -5.31512E-03,  -372.331E-03,0.0226175,0.0636912,-0.000789626
28344,-5.0,-43.0,0.0,  -216.951E-06,  -5.30263E-03,  -371.743E-03,0.0225724,0.0634913,-0.000988455
28349,-6.0,-43.0,0.0,  -260.462E-06,  -5.28727E-03,  -371.021E-03,0.0225174,0.0632467,-0.00118824
28350,-7.0,-43.0,0.0,  -304.037E-06,  -5.26901E-03,  -370.162E-03,0.0224523,0.0629573,-0.00138919
28355,-8.0,-43.0,0.0,  -347.682E-06,  -5.24776E-03,  -369.165E-03,0.0223772,0.0626228,-0.00159151
28358,-9.0,-43.0,0.0,  -391.406E-06,  -5.22347E-03,  -368.025E-03,0.0222922,0.0622431,-0.00179542
28359,-10.0,-43.0,0.0,  -435.214E-06,  -5.19604E-03,  -366.741E-03,0.0221971,0.061818,-0.00200113
28364,-11.0,-43.0,0.0,  -479.110E-06,  -5.16540E-03,  -365.307E-03,0.022092,0.0613471,-0.0022089
28365,-12.0,-43.0,0.0,  -523.094E-06,  -5.13143E-03,  -363.720E-03,0.021977,0.0608303,-0.00241895
28370,-13.0,-43.0,0.0,  -567.167E-06,  -5.09404E-03,  -361.976E-03,0.0218521,0.0602673,-0.00263156
28373,-14.0,-43.0,0.0,  -611.324E-06,  -5.05309E-03,  -360.068E-03,0.0217172,0.0596578,-0.00284699
28374,-15.0,-43.0,0.0,  -655.558E-06,  -5.00848E-03,  -357.991E-03,0.0215726,0.0590017,-0.00306554
28379,-16.0,-43.0,0.0,  -699.857E-06,  -4.96005E-03,  -355.738E-03,0.0214182,0.0582986,-0.00328751
28380,-17.0,-43.0,0.0,  -744.205E-06,  -4.90767E-03,  -353.304E-03,0.0212542,0.0575484,-0.00351323
28385,-18.0,-43.0,0.0,  -788.579E-06,  -4.85117E-03,  -350.679E-03,0.0210807,0.0567509,-0.00374306
28388,-19.0,-43.0,0.0,  -832.951E-06,  -4.79040E-03,  -347.855E-03,0.020898,0.055906,-0.00397738
28389,-20.0,-43.0,0.0,  -877.284E-06,  -4.72518E-03,  -344.824E-03,0.0207063,0.0550135,-0.00421661
28394,-21.0,-43.0,0.0,  -921.535E-06,  -4.65533E-03,  -341.575E-03,0.020506,0.0540734,-0.0044612
28395,-22.0,-43.0,0.0,  -965.646E-06,  -4.58065E-03,  -338.098E-03,0.0202976,0.0530857,-0.00471165
28400,-23.0,-43.0,0.0,  -1.00955E-03,  -4.50094E-03,  -334.379E-03,0.0200818,0.0520505,-0.00496852
28403,-24.0,-43.0,0.0,  -1.05317E-03,  -4.41598E-03,  -330.405E-03,0.0198593,0.050968,-0.0052324
28404,-25.0,-43.0,0.0,  -1.09640E-03,  -4.32556E-03,  -326.161E-03,0.0196312,0.0498384,-0.005504
28409,-26.0,-43.0,0.0,  -1.13914E-03,  -4.22942E-03,  -321.630E-03,0.0193992,0.0486624,-0.00578407
28410,-27.0,-43.0,0.0,  -1.18122E-03,  -4.12732E-03,  -316.793E-03,0.0191652,0.0474403,-0.00607351
28415,-28.0,-43.0,0.0,  -1.22250E-03,  -4.01897E-03,  -311.628E-03,0.0189319,0.0461731,-0.00637329
28418,-29.0,-43.0,0.0,  -1.26276E-03,  -3.90407E-03,  -306.110E-03,0.0187029,0.0448617,-0.00668457
28419,-30.0,-43.0,0.0,  -1.30176E-03,  -3.78227E-03,  -300.210E-03,0.0184831,0.0435073,-0.00700865
28424,-31.0,-43.0,0.0,  -1.33918E-03,  -3.65318E-03,  -293.892E-03,0.0182792,0.0421113,-0.007347
28425,-32.0,-43.0,0.0,  -1.37463E-03,  -3.51632E-03,  -287.115E-03,0.0180998,0.0406751,-0.00770128
28430,-33.0,-43.0,0.0,  -1.40763E-03,  -3.37113E-03,  -279.829E-03,0.0179562,0.0392,-0.00807326
28433,-34.0,-43.0,0.0,  -1.43752E-03,  -3.21688E-03,  -271.972E-03,0.0178631,0.0376868,-0.00846468
28434,-35.0,-43.0,0.0,  -1.46342E-03,  -3.05268E-03,  -263.464E-03,0.017838,0.036135,-0.00887702
28439,-36.0,-43.0,0.0,  -1.48416E-03,  -2.87740E-03,  -254.208E-03,0.0179012,0.0345413,-0.00931092
28440,-37.0,-43.0,0.0,  -1.49809E-03,  -2.68966E-03,  -244.080E-03,0.0180733,0.0328978,-0.00976543
28445,-38.0,-43.0,0.0,  -1.50292E-03,  -2.48786E-03,  -232.923E-03,0.0183701,0.0311894,-0.0102366
28448,-39.0,-43.0,0.0,  -1.49544E-03,  -2.27030E-03,  -220.544E-03,0.0187937,0.0293896,-0.0107159
28449,-40.0,-43.0,0.0,  -1.47120E-03,  -2.03547E-03,  -206.711E-03,0.0193159,0.0274569,-0.0111876
28454,-41.0,-43.0,0.0,  -1.42420E-03,  -1.78264E-03,  -191.155E-03,0.0198547,0.0253311,-0.011627
28455,-42.0,-43.0,0.0,  -1.34671E-03,  -1.51277E-03,  -173.592E-03,0.0202391,0.0229324,-0.0119979
28460,-43.0,-43.0,0.0,  -1.22971E-03,  -1.22971E-03,  -153.760E-03,0.0201648,0.0201648,-0.0122523
28463,-44.0,-43.0,0.0,  -1.06446E-03,  -941.580E-06,  -131.502E-03,0.0191387,0.0169236,-0.0123286
28464,-45.0,-43.0,0.0,  -846.418E-06,  -661.777E-06,  -106.883E-03,0.0164165,0.013104,-0.0121503
28469,-46.0,-43.0,0.0,  -582.444E-06,  -408.797E-06,  -80.3998E-03,0.010927,0.00859399,-0.0116057
28470,-47.0,-43.0,0.0,  -301.268E-06,  -203.796E-06,  -53.2562E-03,0.00118852,0.00323637,-0.0105173
28475,-48.0,-43.0,0.0,  -62.6991E-06,  -65.0630E-06,  -27.7714E-03,-0.0147841,-0.00328345,-0.00853575
28478,-49.0,-43.0,0.0,   50.4870E-06,  -26.0789E-09,  -7.91681E-03,-0.0395106,-0.0115899,-0.00501151
28479,-50.0,-43.0,0.0,   254.969E-42,  -56.6349E-42,           -0.,-0.0544124,-0.0163154,-0.000980242
28484,50.0,-44.0,0.0,  -155.541E-42,  -30.8033E-42,           -0.,-0.0483731,-0.0144963,0.00115313
28485,49.0,-44.0,0.0,  -30.1148E-06,   1.45860E-06,  -6.84755E-03,-0.0354175,-0.0101924,0.00559816
28490,48.0,-44.0,0.0,   62.2980E-06,  -54.7382E-06,  -24.0070E-03,-0.0138174,-0.00273458,0.00949046
28493,47.0,-44.0,0.0,   246.879E-06,  -176.976E-06,  -45.9790E-03,0.000268156,0.00323609,0.011579
28494,46.0,-44.0,0.0,   460.525E-06,  -357.736E-06,  -69.2803E-03,0.00887677,0.00821789,0.0125489
28499,45.0,-44.0,0.0,   658.481E-06,  -578.914E-06,  -91.8839E-03,0.0137024,0.0124521,0.0128383
28500,44.0,-44.0,0.0,   820.157E-06,  -820.157E-06,  -112.757E-03,0.0160603,0.0160603,0.0127078
28505,43.0,-44.0,0.0,   941.580E-06,  -1.06446E-03,  -131.502E-03,0.0169236,0.0191387,0.0123286
28508,42.0,-44.0,0.0,   1.02708E-03,  -1.30033E-03,  -148.098E-03,0.0169753,0.0217864,0.0118125
28509,41.0,-44.0,0.0,   1.08369E-03,  -1.52159E-03,  -162.722E-03,0.0166648,0.0241067,0.0112364
28514,40.0,-44.0,0.0,   1.11833E-03,  -1.72600E-03,  -175.625E-03,0.0162618,0.0261926,0.0106495
28515,39.0,-44.0,0.0,   1.13668E-03,  -1.91384E-03,  -187.074E-03,0.0159097,0.0281186,0.010081
28520,38.0,-44.0,0.0,   1.14304E-03,  -2.08658E-03,  -197.309E-03,0.0156698,0.0299377,0.00954571
28523,37.0,-44.0,0.0,   1.14056E-03,  -2.24609E-03,  -206.535E-03,0.015556,0.0316842,0.00904876
28524,36.0,-44.0,0.0,   1.13143E-03,  -2.39419E-03,  -214.918E-03,0.0155575,0.0333779,0.00858982
28529,35.0,-44.0,0.0,   1.11723E-03,  -2.53245E-03,  -222.590E-03,0.015654,0.0350286,0.00816572
28530,34.0,-44.0,0.0,   1.09910E-03,  -2.66209E-03,  -229.653E-03,0.0158232,0.0366402,0.0077722
28535,33.0,-44.0,0.0,   1.07785E-03,  -2.78409E-03,  -236.189E-03,0.0160449,0.0382132,0.00740494
28538,32.0,-44.0,0.0,   1.05409E-03,  -2.89915E-03,  -242.259E-03,0.0163025,0.0397463,0.00706002
28539,31.0,-44.0,0.0,   1.02830E-03,  -3.00784E-03,  -247.914E-03,0.0165829,0.0412377,0.00673409
28544,30.0,-44.0,0.0,   1.00083E-03,  -3.11057E-03,  -253.194E-03,0.0168764,0.0426856,0.0064244
28545,29.0,-44.0,0.0,   971.999E-06,  -3.20768E-03,  -258.132E-03,0.0171757,0.0440882,0.00612869
28550,28.0,-44.0,0.0,   942.033E-06,  -3.29946E-03,  -262.756E-03,0.0174756,0.0454443,0.00584514
28553,27.0,-44.0,0.0,   911.138E-06,  -3.38614E-03,  -267.088E-03,0.0177725,0.0467528,0.00557226
28554,26.0,-44.0,0.0,   879.481E-06,  -3.46793E-03,  -271.150E-03,0.0180636,0.0480127,0.00530884
28559,25.0,-44.0,0.0,   847.204E-06,  -3.54504E-03,  -274.958E-03,0.0183471,0.0492237,0.00505385
28560,24.0,-44.0,0.0,   814.427E-06,  -3.61765E-03,  -278.527E-03,0.0186217,0.0503851,0.00480643
28565,23.0,-44.0,0.0,   781.252E-06,  -3.68594E-03,  -281.872E-03,0.0188866,0.051497,0.00456585
28568,22.0,-44.0,0.0,   747.764E-06,  -3.75007E-03,  -285.005E-03,0.019141,0.0525591,0.00433146
28569,21.0,-44.0,0.0,   714.034E-06,  -3.81020E-03,  -287.936E-03,0.0193845,0.0535714,0.00410272
28574,20.0,-44.0,0.0,   680.125E-06,  -3.86648E-03,  -290.676E-03,0.0196169,0.0545341,0.00387913
28575,19.0,-44.0,0.0,   646.084E-06,  -3.91906E-03,  -293.233E-03,0.0198379,0.0554472,0.00366024
28580,18.0,-44.0,0.0,   611.955E-06,  -3.96808E-03,  -295.616E-03,0.0200475,0.056311,0.00344565
28583,17.0,-44.0,0.0,   577.771E-06,  -4.01367E-03,  -297.833E-03,0.0202456,0.0571257,0.003235
28584,16.0,-44.0,0.0,   543.560E-06,  -4.05597E-03,  -299.890E-03,0.0204321,0.0578916,0.00302795
28589,15.0,-44.0,0.0,   509.343E-06,  -4.09508E-03,  -301.793E-03,0.020607,0.0586089,0.00282419
28590,14.0,-44.0,0.0,   475.137E-06,  -4.13113E-03,  -303.549E-03,0.0207705,0.0592781,0.00262343
28595,13.0,-44.0,0.0,   440.955E-06,  -4.16422E-03,  -305.162E-03,0.0209224,0.0598993,0.00242541
28598,12.0,-44.0,0.0,   406.806E-06,  -4.19445E-03,  -306.638E-03,0.0210628,0.0604729,0.00222987
28599,11.0,-44.0,0.0,   372.697E-06,  -4.22191E-03,  -307.980E-03,0.0211919,0.0609993,0.00203658
28604,10.0,-44.0,0.0,   338.631E-06,  -4.24669E-03,  -309.193E-03,0.0213095,0.0614787,0.0018453
28605,9.0,-44.0,0.0,   304.610E-06,  -4.26887E-03,  -310.281E-03,0.0214158,0.0619115,0.00165583
28610,8.0,-44.0,0.0,   270.633E-06,  -4.28853E-03,  -311.245E-03,0.0215107,0.0622978,0.00146795
28613,7.0,-44.0,0.0,   236.699E-06,  -4.30572E-03,  -312.090E-03,0.0215944,0.0626381,0.00128147
28614,6.0,-44.0,0.0,   202.805E-06,  -4.32050E-03,  -312.817E-03,0.0216669,0.0629325,0.0010962
28619,5.0,-44.0,0.0,   168.946E-06,  -4.33292E-03,  -313.428E-03,0.0217282,0.0631812,0.000911957
28620,4.0,-44.0,0.0,   135.119E-06,  -4.34303E-03,  -313.926E-03,0.0217783,0.0633844,0.00072856
28625,3.0,-44.0,0.0,   101.316E-06,  -4.35085E-03,  -314.312E-03,0.0218172,0.0635423,0.000545836
28628,2.0,-44.0,0.0,   67.5331E-06,  -4.35642E-03,  -314.587E-03,0.021845,0.063655,0.000363614
28629,1.0,-44.0,0.0,   33.7632E-06,  -4.35976E-03,  -314.752E-03,0.0218617,0.0637226,0.000181724
28634,0.0,-44.0,0.0,   2.80698E-15,  -4.36087E-03,  -314.807E-03,0.0218672,0.0637451,1.81899e-12
28635,-1.0,-44.0,0.0,  -33.7632E-06,  -4.35976E-03,  -314.752E-03,0.0218617,0.0637226,-0.000181724
28640,-2.0,-44.0,0.0,  -67.5331E-06,  -4.35642E-03,  -314.587E-03,0.021845,0.063655,-0.000363614
28643,-3.0,-44.0,0.0,  -101.316E-06,  -4.35085E-03,  -314.312E-03,0.0218172,0.0635423,-0.000545836
28644,-4.0,-44.0,0.0,  -135.119E-06,  -4.34303E-03,  -313.926E-03,0.0217783,0.0633844,-0.00072856
28649,-5.0,-44.0,0.0,  -168.946E-06,  -4.33292E-03,  -313.428E-03,0.0217282,0.0631812,-0.000911957
28650,-6.0,-44.0,0.0,  -202.805E-06,  -4.32050E-03,  -312.817E-03,0.0216669,0.0629325,-0.0010962
28655,-7.0,-44.0,0.0,  -236.699E-06,  -4.30572E-03,  -312.090E-03,0.0215944,0.0626381,-0.00128147
28658,-8.0,-44.0,0.0,  -270.633E-06,  -4.28853E-03,  -311.245E-03,0.0215107,0.0622978,-0.00146795
28659,-9.0,-44.0,0.0,  -304.610E-06,  -4.26887E-03,  -310.281E-03,0.0214158,0.0619115,-0.00165583
28664,-10.0,-44.0,0.0,  -338.631E-06,  -4.24669E-03,  -309.193E-03,0.0213095,0.0614787,-0.0018453
28665,-11.0,-44.0,0.0,  -372.697E-06,  -4.22191E-03,  -307.980E-03,0.0211919,0.0609993,-0.00203658
28670,-12.0,-44.0,0.0,  -406.806E-06,  -4.19445E-03,  -306.638E-03,0.0210628,0.0604729,-0.00222987
28673,-13.0,-44.0,0.0,  -440.955E-06,  -4.16422E-03,  -305.162E-03,0.0209224,0.0598993,-0.00242541
28674,-14.0,-44.0,0.0,  -475.137E-06,  -4.13113E-03,  -303.549E-03,0.0207705,0.0592781,-0.00262343
28679,-15.0,-44.0,0.0,  -509.343E-06,  -4.09508E-03,  -301.793E-03,0.020607,0.0586089,-0.00282419
28680,-16.0,-44.0,0.0,  -543.560E-06,  -4.05597E-03,  -299.890E-03,0.0204321,0.0578916,-0.00302795
28685,-17.0,-44.0,0.0,  -577.771E-06,  -4.01367E-03,  -297.833E-03,0.0202456,0.0571257,-0.003235
28686,-18.0,-44.0,0.0,  -611.955E-06,  -3.96808E-03,  -295.616E-03,0.0200475,0.056311,-0.00344565
28691,-19.0,-44.0,0.0,  -646.084E-06,  -3.91906E-03,  -293.233E-03,0.0198379,0.0554472,-0.00366024
28692,-20.0,-44.0,0.0,  -680.125E-06,  -3.86648E-03,  -290.676E-03,0.0196169,0.0545341,-0.00387913
28697,-21.0,-44.0,0.0,  -714.034E-06,  -3.81020E-03,  -287.936E-03,0.0193845,0.0535714,-0.00410272
28700,-22.0,-44.0,0.0,  -747.764E-06,  -3.75007E-03,  -285.005E-03,0.019141,0.0525591,-0.00433146
28701,-23.0,-44.0,0.0,  -781.252E-06,  -3.68594E-03,  -281.872E-03,0.0188866,0.051497,-0.00456585
28706,-24.0,-44.0,0.0,  -814.427E-06,  -3.61765E-03,  -278.527E-03,0.0186217,0.0503851,-0.00480643
28707,-25.0,-44.0,0.0,  -847.204E-06,  -3.54504E-03,  -274.958E-03,0.0183471,0.0492237,-0.00505385
28712,-26.0,-44.0,0.0,  -879.481E-06,  -3.46793E-03,  -271.150E-03,0.0180636,0.0480127,-0.00530884
28715,-27.0,-44.0,0.0,  -911.138E-06,  -3.38614E-03,  -267.088E-03,0.0177725,0.0467528,-0.00557226
28716,-28.0,-44.0,0.0,  -942.033E-06,  -3.29946E-03,  -262.756E-03,0.0174756,0.0454443,-0.00584514
28721,-29.0,-44.0,0.0,  -971.999E-06,  -3.20768E-03,  -258.132E-03,0.0171757,0.0440882,-0.00612869
28722,-30.0,-44.0,0.0,  -1.00083E-03,  -3.11057E-03,  -253.194E-03,0.0168764,0.0426856,-0.0064244
28727,-31.0,-44.0,0.0,  -1.02830E-03,  -3.00784E-03,  -247.914E-03,0.0165829,0.0412377,-0.00673409
28730,-32.0,-44.0,0.0,  -1.05409E-03,  -2.89915E-03,  -242.259E-03,0.0163025,0.0397463,-0.00706002
28731,-33.0,-44.0,0.0,  -1.07785E-03,  -2.78409E-03,  -236.189E-03,0.0160449,0.0382132,-0.00740494
28736,-34.0,-44.0,0.0,  -1.09910E-03,  -2.66209E-03,  -229.653E-03,0.0158232,0.0366402,-0.0077722
28737,-35.0,-44.0,0.0,  -1.11723E-03,  -2.53245E-03,  -222.590E-03,0.015654,0.0350286,-0.00816572
28742,-36.0,-44.0,0.0,  -1.13143E-03,  -2.39419E-03,  -214.918E-03,0.0155575,0.0333779,-0.00858982
28745,-37.0,-44.0,0.0,  -1.14056E-03,  -2.24609E-03,  -206.535E-03,0.015556,0.0316842,-0.00904876
28746,-38.0,-44.0,0.0,  -1.14304E-03,  -2.08658E-03,  -197.309E-03,0.0156698,0.0299377,-0.00954571
28751,-39.0,-44.0,0.0,  -1.13668E-03,  -1.91384E-03,  -187.074E-03,0.0159097,0.0281186,-0.010081
28752,-40.0,-44.0,0.0,  -1.11833E-03,  -1.72600E-03,  -175.625E-03,0.0162618,0.0261926,-0.0106495
28757,-41.0,-44.0,0.0,  -1.08369E-03,  -1.52159E-03,  -162.722E-03,0.0166648,0.0241067,-0.0112364
28760,-42.0,-44.0,0.0,  -1.02708E-03,  -1.30033E-03,  -148.098E-03,0.0169753,0.0217864,-0.0118125
28761,-43.0,-44.0,0.0,  -941.580E-06,  -1.06446E-03,  -131.502E-03,0.0169236,0.0191387,-0.0123286
28766,-44.0,-44.0,0.0,  -820.157E-06,  -820.157E-06,  -112.757E-03,0.0160603,0.0160603,-0.0127078
28767,-45.0,-44.0,0.0,  -658.481E-06,  -578.914E-06,  -91.8839E-03,0.0137024,0.0124521,-0.0128383
28772,-46.0,-44.0,0.0,  -460.525E-06,  -357.736E-06,  -69.2803E-03,0.00887677,0.00821789,-0.0125489
28775,-47.0,-44.0,0.0,  -246.879E-06,  -176.976E-06,  -45.9790E-03,0.000268156,0.00323609,-0.011579
28776,-48.0,-44.0,0.0,  -62.2980E-06,  -54.7382E-06,  -24.0070E-03,-0.0138174,-0.00273458,-0.00949046
28781,-49.0,-44.0,0.0,   30.1148E-06,   1.45860E-06,  -6.84755E-03,-0.0354175,-0.0101924,-0.00559816
28782,-50.0,-44.0,0.0,   155.541E-42,  -30.8033E-42,           -0.,-0.0483731,-0.0144963,-0.00115313
28787,50.0,-45.0,0.0,  -78.5372E-42,  -13.6136E-42,           -0.,-0.0410204,-0.0122837,0.00140243
28790,49.0,-45.0,0.0,  -13.8789E-06,   1.42541E-06,  -5.65269E-03,-0.0301861,-0.00851659,0.00627409
28791,48.0,-45.0,0.0,   55.6359E-06,  -44.3398E-06,  -19.7804E-03,-0.0121409,-0.00220223,0.0104697
28796,47.0,-45.0,0.0,   185.923E-06,  -144.567E-06,  -37.7884E-03,-0.000417215,0.00281853,0.01257
28797,46.0,-45.0,0.0,   333.611E-06,  -291.676E-06,  -56.7791E-03,0.00668073,0.0070035,0.0133353
28802,45.0,-45.0,0.0,   468.924E-06,  -468.924E-06,  -75.0861E-03,0.0105933,0.0105933,0.0133097
28805,44.0,-45.0,0.0,   578.914E-06,  -658.481E-06,  -91.8839E-03,0.0124521,0.0137024,0.0128383
28806,43.0,-45.0,0.0,   661.777E-06,  -846.418E-06,  -106.883E-03,0.013104,0.0164165,0.0121503
28811,42.0,-45.0,0.0,   720.944E-06,  -1.02422E-03,  -120.105E-03,0.0131423,0.0188245,0.0113876
28812,41.0,-45.0,0.0,   761.297E-06,  -1.18812E-03,  -131.722E-03,0.0129454,0.0210137,0.0106353
28817,40.0,-45.0,0.0,   787.378E-06,  -1.33756E-03,  -141.962E-03,0.0127287,0.0230561,0.00993618
28820,39.0,-45.0,0.0,   802.797E-06,  -1.47371E-03,  -151.052E-03,0.0125958,0.0250045,0.00930679
28821,38.0,-45.0,0.0,   810.220E-06,  -1.59843E-03,  -159.193E-03,0.0125818,0.0268914,0.00874801
28826,37.0,-45.0,0.0,   811.552E-06,  -1.71357E-03,  -166.550E-03,0.0126848,0.0287344,0.00825303
28827,36.0,-45.0,0.0,   808.144E-06,  -1.82076E-03,  -173.255E-03,0.0128859,0.0305404,0.00781207
28832,35.0,-45.0,0.0,   800.965E-06,  -1.92124E-03,  -179.411E-03,0.0131617,0.0323104,0.00741523
28835,34.0,-45.0,0.0,   790.723E-06,  -2.01595E-03,  -185.096E-03,0.0134899,0.0340421,0.00705375
28836,33.0,-45.0,0.0,   777.957E-06,  -2.10554E-03,  -190.370E-03,0.0138517,0.0357324,0.00672047
28841,32.0,-45.0,0.0,   763.085E-06,  -2.19049E-03,  -195.282E-03,0.0142327,0.0373778,0.00640976
28842,31.0,-45.0,0.0,   746.444E-06,  -2.27111E-03,  -199.868E-03,0.014622,0.0389755,0.00611732
28847,30.0,-45.0,0.0,   728.309E-06,  -2.34764E-03,  -204.159E-03,0.015012,0.0405231,0.0058399
28850,29.0,-45.0,0.0,   708.914E-06,  -2.42028E-03,  -208.179E-03,0.0153973,0.0420189,0.00557504
28851,28.0,-45.0,0.0,   688.455E-06,  -2.48916E-03,  -211.949E-03,0.0157741,0.0434618,0.00532087
28856,27.0,-45.0,0.0,   667.100E-06,  -2.55442E-03,  -215.487E-03,0.0161402,0.0448509,0.00507595
28857,26.0,-45.0,0.0,   644.994E-06,  -2.61617E-03,  -218.808E-03,0.0164938,0.0461857,0.00483913
28862,25.0,-45.0,0.0,   622.261E-06,  -2.67452E-03,  -221.925E-03,0.0168341,0.047466,0.0046095
28865,24.0,-45.0,0.0,   599.007E-06,  -2.72959E-03,  -224.850E-03,0.0171603,0.0486919,0.00438631
28866,23.0,-45.0,0.0,   575.324E-06,  -2.78148E-03,  -227.594E-03,0.0174723,0.0498633,0.00416892
28871,22.0,-45.0,0.0,   551.290E-06,  -2.83029E-03,  -230.165E-03,0.0177699,0.0509805,0.0039568
28872,21.0,-45.0,0.0,   526.970E-06,  -2.87612E-03,  -232.573E-03,0.0180529,0.0520439,0.00374948
28877,20.0,-45.0,0.0,   502.422E-06,  -2.91908E-03,  -234.825E-03,0.0183216,0.0530537,0.00354655
28880,19.0,-45.0,0.0,   477.692E-06,  -2.95927E-03,  -236.928E-03,0.018576,0.0540103,0.00334764
28881,18.0,-45.0,0.0,   452.821E-06,  -2.99677E-03,  -238.890E-03,0.0188162,0.0549142,0.00315242
28886,17.0,-45.0,0.0,   427.841E-06,  -3.03169E-03,  -240.715E-03,0.0190424,0.0557659,0.00296058
28887,16.0,-45.0,0.0,   402.779E-06,  -3.06411E-03,  -242.409E-03,0.0192547,0.0565657,0.00277185
28892,15.0,-45.0,0.0,   377.658E-06,  -3.09411E-03,  -243.978E-03,0.0194533,0.0573142,0.00258596
28895,14.0,-45.0,0.0,   352.496E-06,  -3.12178E-03,  -245.425E-03,0.0196384,0.0580117,0.00240267
28896,13.0,-45.0,0.0,   327.307E-06,  -3.14720E-03,  -246.756E-03,0.01981,0.0586589,0.00222176
28901,12.0,-45.0,0.0,   302.103E-06,  -3.17043E-03,  -247.973E-03,0.0199684,0.0592561,0.00204301
28902,11.0,-45.0,0.0,   276.892E-06,  -3.19154E-03,  -249.081E-03,0.0201136,0.0598037,0.00186621
28907,10.0,-45.0,0.0,   251.681E-06,  -3.21061E-03,  -250.082E-03,0.0202458,0.0603022,0.00169118
28910,9.0,-45.0,0.0,   226.474E-06,  -3.22767E-03,  -250.980E-03,0.0203651,0.060752,0.00151772
28911,8.0,-45.0,0.0,   201.275E-06,  -3.24280E-03,  -251.776E-03,0.0204715,0.0611534,0.00134566
28916,7.0,-45.0,0.0,   176.085E-06,  -3.25604E-03,  -252.474E-03,0.0205653,0.0615067,0.00117483
28917,6.0,-45.0,0.0,   150.906E-06,  -3.26742E-03,  -253.075E-03,0.0206463,0.0618123,0.00100506
28922,5.0,-45.0,0.0,   125.737E-06,  -3.27699E-03,  -253.580E-03,0.0207148,0.0620705,0.000836196
28925,4.0,-45.0,0.0,   100.577E-06,  -3.28478E-03,  -253.992E-03,0.0207708,0.0622813,0.000668072
28926,3.0,-45.0,0.0,   75.4251E-06,  -3.29081E-03,  -254.311E-03,0.0208142,0.0624452,0.00050054
28931,2.0,-45.0,0.0,   50.2797E-06,  -3.29510E-03,  -254.538E-03,0.0208453,0.0625621,0.000333449
28932,1.0,-45.0,0.0,   25.1387E-06,  -3.29767E-03,  -254.674E-03,0.0208639,0.0626322,0.000166652
28937,0.0,-45.0,0.0,   4.70335E-15,  -3.29852E-03,  -254.719E-03,0.0208701,0.0626555,0.0
28940,-1.0,-45.0,0.0,  -25.1387E-06,  -3.29767E-03,  -254.674E-03,0.0208639,0.0626322,-0.000166652
28941,-2.0,-45.0,0.0,  -50.2797E-06,  -3.29510E-03,  -254.538E-03,0.0208453,0.0625621,-0.000333449
28946,-3.0,-45.0,0.0,  -75.4251E-06,  -3.29081E-03,  -254.311E-03,0.0208142,0.0624452,-0.00050054
28947,-4.0,-45.0,0.0,  -100.577E-06,  -3.28478E-03,  -253.992E-03,0.0207708,0.0622813,-0.000668072
28952,-5.0,-45.0,0.0,  -125.737E-06,  -3.27699E-03,  -253.580E-03,0.0207148,0.0620705,-0.000836196
28955,-6.0,-45.0,0.0,  -150.906E-06,  -3.26742E-03,  -253.075E-03,0.0206463,0.0618123,-0.00100506
28956,-7.0,-45.0,0.0,  -176.085E-06,  -3.25604E-03,  -252.474E-03,0.0205653,0.0615067,-0.00117483
28961,-8.0,-45.0,0.0,  -201.275E-06,  -3.24280E-03,  -251.776E-03,0.0204715,0.0611534,-0.00134566
28962,-9.0,-45.0,0.0,  -226.474E-06,  -3.22767E-03,  -250.980E-03,0.0203651,0.060752,-0.00151772
28967,-10.0,-45.0,0.0,  -251.681E-06,  -3.21061E-03,  -250.082E-03,0.0202458,0.0603022,-0.00169118
28970,-11.0,-45.0,0.0,  -276.892E-06,  -3.19154E-03,  -249.081E-03,0.0201136,0.0598037,-0.00186621
28971,-12.0,-45.0,0.0,  -302.103E-06,  -3.17043E-03,  -247.973E-03,0.0199684,0.0592561,-0.00204301
28976,-13.0,-45.0,0.0,  -327.307E-06,  -3.14720E-03,  -246.756E-03,0.01981,0.0586589,-0.00222176
28977,-14.0,-45.0,0.0,  -352.496E-06,  -3.12178E-03,  -245.425E-03,0.0196384,0.0580117,-0.00240267
28982,-15.0,-45.0,0.0,  -377.658E-06,  -3.09411E-03,  -243.978E-03,0.0194533,0.0573142,-0.00258596
28985,-16.0,-45.0,0.0,  -402.779E-06,  -3.06411E-03,  -242.409E-03,0.0192547,0.0565657,-0.00277185
28986,-17.0,-45.0,0.0,  -427.841E-06,  -3.03169E-03,  -240.715E-03,0.0190424,0.0557659,-0.00296058
28991,-18.0,-45.0,0.0,  -452.821E-06,  -2.99677E-03,  -238.890E-03,0.0188162,0.0549142,-0.00315242
28992,-19.0,-45.0,0.0,  -477.692E-06,  -2.95927E-03,  -236.928E-03,0.018576,0.0540103,-0.00334764
28997,-20.0,-45.0,0.0,  -502.422E-06,  -2.91908E-03,  -234.825E-03,0.0183216,0.0530537,-0.00354655
29000,-21.0,-45.0,0.0,  -526.970E-06,  -2.87612E-03,  -232.573E-03,0.0180529,0.0520439,-0.00374948
29001,-22.0,-45.0,0.0,  -551.290E-06,  -2.83029E-03,  -230.165E-03,0.0177699,0.0509805,-0.0039568
29006,-23.0,-45.0,0.0,  -575.324E-06,  -2.78148E-03,  -227.594E-03,0.0174723,0.0498633,-0.00416892
29007,-24.0,-45.0,0.0,  -599.007E-06,  -2.72959E-03,  -224.850E-03,0.0171603,0.0486919,-0.00438631
29012,-25.0,-45.0,0.0,  -622.261E-06,  -2.67452E-03,  -221.925E-03,0.0168341,0.047466,-0.0046095
29015,-26.0,-45.0,0.0,  -644.994E-06,  -2.61617E-03,  -218.808E-03,0.0164938,0.0461857,-0.00483913
29016,-27.0,-45.0,0.0,  -667.100E-06,  -2.55442E-03,  -215.487E-03,0.0161402,0.0448509,-0.00507595
29021,-28.0,-45.0,0.0,  -688.455E-06,  -2.48916E-03,  -211.949E-03,0.0157741,0.0434618,-0.00532087
29022,-29.0,-45.0,0.0,  -708.914E-06,  -2.42028E-03,  -208.179E-03,0.0153973,0.0420189,-0.00557504
29027,-30.0,-45.0,0.0,  -728.309E-06,  -2.34764E-03,  -204.159E-03,0.015012,0.0405231,-0.0058399
29030,-31.0,-45.0,0.0,  -746.444E-06,  -2.27111E-03,  -199.868E-03,0.014622,0.0389755,-0.00611732
29031,-32.0,-45.0,0.0,  -763.085E-06,  -2.19049E-03,  -195.282E-03,0.0142327,0.0373778,-0.00640976
29036,-33.0,-45.0,0.0,  -777.957E-06,  -2.10554E-03,  -190.370E-03,0.0138517,0.0357324,-0.00672047
29037,-34.0,-45.0,0.0,  -790.723E-06,  -2.01595E-03,  -185.096E-03,0.0134899,0.0340421,-0.00705375
29042,-35.0,-45.0,0.0,  -800.965E-06,  -1.92124E-03,  -179.411E-03,0.0131617,0.0323104,-0.00741523
29045,-36.0,-45.0,0.0,  -808.144E-06,  -1.82076E-03,  -173.255E-03,0.0128859,0.0305404,-0.00781207
29046,-37.0,-45.0,0.0,  -811.552E-06,  -1.71357E-03,  -166.550E-03,0.0126848,0.0287344,-0.00825303
29051,-38.0,-45.0,0.0,  -810.220E-06,  -1.59843E-03,  -159.193E-03,0.0125818,0.0268914,-0.00874801
29052,-39.0,-45.0,0.0,  -802.797E-06,  -1.47371E-03,  -151.052E-03,0.0125958,0.0250045,-0.00930679
29057,-40.0,-45.0,0.0,  -787.378E-06,  -1.33756E-03,  -141.962E-03,0.0127287,0.0230561,-0.00993618
29060,-41.0,-45.0,0.0,  -761.297E-06,  -1.18812E-03,  -131.722E-03,0.0129454,0.0210137,-0.0106353
29061,-42.0,-45.0,0.0,  -720.944E-06,  -1.02422E-03,  -120.105E-03,0.0131423,0.0188245,-0.0113876
29066,-43.0,-45.0,0.0,  -661.777E-06,  -846.418E-06,  -106.883E-03,0.013104,0.0164165,-0.0121503
29067,-44.0,-45.0,0.0,  -578.914E-06,  -658.481E-06,  -91.8839E-03,0.0124521,0.0137024,-0.0128383
29072,-45.0,-45.0,0.0,  -468.924E-06,  -468.924E-06,  -75.0861E-03,0.0105933,0.0105933,-0.0133097
29075,-46.0,-45.0,0.0,  -333.611E-06,  -291.676E-06,  -56.7791E-03,0.00668073,0.0070035,-0.0133353
29076,-47.0,-45.0,0.0,  -185.923E-06,  -144.567E-06,  -37.7884E-03,-0.000417215,0.00281853,-0.01257
29081,-48.0,-45.0,0.0,  -55.6359E-06,  -44.3398E-06,  -19.7804E-03,-0.0121409,-0.00220223,-0.0104697
29082,-49.0,-45.0,0.0,   13.8789E-06,   1.42541E-06,  -5.65269E-03,-0.0301861,-0.00851659,-0.00627409
29087,-50.0,-45.0,0.0,   78.5372E-42,  -13.6136E-42,           -0.,-0.0410204,-0.0122837,-0.00140243
29090,50.0,-46.0,0.0,  -27.8760E-42,  -4.63690E-42,           -0.,-0.0322296,-0.00964324,0.00168171
29091,49.0,-46.0,0.0,  -3.00263E-06,   258.002E-09,  -4.33217E-03,-0.0237875,-0.00667153,0.00689407
29096,48.0,-46.0,0.0,   42.8306E-06,  -33.5177E-06,  -15.1144E-03,-0.00984241,-0.00200003,0.0112219
29097,47.0,-46.0,0.0,   122.627E-06,  -106.435E-06,  -28.7706E-03,-0.000977981,0.00145094,0.0131947
29102,46.0,-46.0,0.0,   211.093E-06,  -211.093E-06,  -43.0773E-03,0.00424688,0.00424688,0.0136884
29105,45.0,-46.0,0.0,   291.676E-06,  -333.611E-06,  -56.7791E-03,0.0070035,0.00668073,0.0133353
29106,44.0,-46.0,0.0,   357.736E-06,  -460.525E-06,  -69.2803E-03,0.00821789,0.00887677,0.0125489
29111,43.0,-46.0,0.0,   408.797E-06,  -582.444E-06,  -80.3998E-03,0.00859399,0.010927,0.0116057
29112,42.0,-46.0,0.0,   446.986E-06,  -694.587E-06,  -90.1853E-03,0.00860368,0.0129013,0.0106651
29117,41.0,-46.0,0.0,   474.964E-06,  -795.696E-06,  -98.7893E-03,0.00852783,0.0148479,0.00980773
29120,40.0,-46.0,0.0,   495.053E-06,  -886.568E-06,  -106.394E-03,0.00851077,0.0167949,0.00906151
29121,39.0,-46.0,0.0,   509.022E-06,  -968.852E-06,  -113.175E-03,0.00860825,0.0187519,0.0084262
29126,38.0,-46.0,0.0,   518.143E-06,  -1.04431E-03,  -119.279E-03,0.00882622,0.0207167,0.00788763
29127,37.0,-46.0,0.0,   523.322E-06,  -1.11445E-03,  -124.825E-03,0.00914715,0.0226798,0.00742767
29132,36.0,-46.0,0.0,   525.216E-06,  -1.18040E-03,  -129.908E-03,0.00954566,0.0246294,0.00702876
29135,35.0,-46.0,0.0,   524.324E-06,  -1.24297E-03,  -134.598E-03,0.00999684,0.0265539,0.00667615
29136,34.0,-46.0,0.0,   521.038E-06,  -1.30265E-03,  -138.950E-03,0.0104796,0.0284431,0.0063583
29141,33.0,-46.0,0.0,   515.681E-06,  -1.35977E-03,  -143.003E-03,0.0109778,0.0302892,0.00606661
29142,32.0,-46.0,0.0,   508.528E-06,  -1.41451E-03,  -146.792E-03,0.0114794,0.0320859,0.00579485
29147,31.0,-46.0,0.0,   499.818E-06,  -1.46695E-03,  -150.340E-03,0.0119761,0.0338291,0.0055386
29150,30.0,-46.0,0.0,   489.761E-06,  -1.51717E-03,  -153.669E-03,0.0124623,0.0355156,0.0052947
29151,29.0,-46.0,0.0,   478.540E-06,  -1.56518E-03,  -156.796E-03,0.0129345,0.0371436,0.00506093
29156,28.0,-46.0,0.0,   466.318E-06,  -1.61102E-03,  -159.734E-03,0.0133903,0.0387118,0.00483566
29157,27.0,-46.0,0.0,   453.238E-06,  -1.65470E-03,  -162.497E-03,0.0138285,0.0402196,0.0046177
29162,26.0,-46.0,0.0,   439.426E-06,  -1.69624E-03,  -165.094E-03,0.0142484,0.0416665,0.00440617
29165,25.0,-46.0,0.0,   424.990E-06,  -1.73568E-03,  -167.536E-03,0.0146496,0.0430527,0.00420035
29166,24.0,-46.0,0.0,   410.025E-06,  -1.77305E-03,  -169.830E-03,0.0150323,0.0443784,0.0039997
29171,23.0,-46.0,0.0,   394.613E-06,  -1.80840E-03,  -171.985E-03,0.0153964,0.0456437,0.00380374
29172,22.0,-46.0,0.0,   378.825E-06,  -1.84175E-03,  -174.007E-03,0.0157423,0.0468493,0.00361208
29177,21.0,-46.0,0.0,   362.721E-06,  -1.87317E-03,  -175.902E-03,0.0160703,0.0479955,0.00342438
29180,20.0,-46.0,0.0,   346.354E-06,  -1.90269E-03,  -177.676E-03,0.0163807,0.049083,0.00324032
29181,19.0,-46.0,0.0,   329.767E-06,  -1.93037E-03,  -179.335E-03,0.0166738,0.0501123,0.00305964
29186,18.0,-46.0,0.0,   312.998E-06,  -1.95626E-03,  -180.883E-03,0.0169499,0.051084,0.00288207
29187,17.0,-46.0,0.0,   296.079E-06,  -1.98041E-03,  -182.324E-03,0.0172094,0.0519989,0.00270739
29192,16.0,-46.0,0.0,   279.035E-06,  -2.00287E-03,  -183.663E-03,0.0174524,0.0528574,0.00253537
29195,15.0,-46.0,0.0,   261.890E-06,  -2.02369E-03,  -184.903E-03,0.0176795,0.0536602,0.00236581
29196,14.0,-46.0,0.0,   244.662E-06,  -2.04291E-03,  -186.049E-03,0.0178907,0.054408,0.0021985
29201,13.0,-46.0,0.0,   227.366E-06,  -2.06059E-03,  -187.102E-03,0.0180863,0.0551013,0.00203327
29202,12.0,-46.0,0.0,   210.015E-06,  -2.07677E-03,  -188.066E-03,0.0182665,0.0557408,0.00186992
29207,11.0,-46.0,0.0,   192.620E-06,  -2.09149E-03,  -188.944E-03,0.0184317,0.0563269,0.0017083
29210,10.0,-46.0,0.0,   175.189E-06,  -2.10480E-03,  -189.737E-03,0.0185818,0.0568601,0.00154823
29211,9.0,-46.0,0.0,   157.730E-06,  -2.11672E-03,  -190.449E-03,0.0187172,0.0573411,0.00138955
29216,8.0,-46.0,0.0,   140.248E-06,  -2.12729E-03,  -191.081E-03,0.0188379,0.0577701,0.00123211
29217,7.0,-46.0,0.0,   122.748E-06,  -2.13654E-03,  -191.634E-03,0.0189441,0.0581477,0.00107576
29222,6.0,-46.0,0.0,   105.234E-06,  -2.14450E-03,  -192.111E-03,0.0190359,0.0584741,0.000920353
29225,5.0,-46.0,0.0,   87.7097E-06,  -2.15120E-03,  -192.512E-03,0.0191134,0.0587498,0.00076575
29226,4.0,-46.0,0.0,   70.1767E-06,  -2.15665E-03,  -192.839E-03,0.0191767,0.058975,0.00061181
29231,3.0,-46.0,0.0,   52.6375E-06,  -2.16087E-03,  -193.092E-03,0.0192259,0.0591499,0.000458399
29232,2.0,-46.0,0.0,   35.0939E-06,  -2.16388E-03,  -193.272E-03,0.019261,0.0592747,0.000305381
29237,1.0,-46.0,0.0,   17.5476E-06,  -2.16568E-03,  -193.380E-03,0.019282,0.0593495,0.000152625
29240,0.0,-46.0,0.0,   4.34886E-15,  -2.16628E-03,  -193.416E-03,0.019289,0.0593744,-9.09495e-13
29241,-1.0,-46.0,0.0,  -17.5476E-06,  -2.16568E-03,  -193.380E-03,0.019282,0.0593495,-0.000152625
29246,-2.0,-46.0,0.0,  -35.0939E-06,  -2.16388E-03,  -193.272E-03,0.019261,0.0592747,-0.000305381
29247,-3.0,-46.0,0.0,  -52.6375E-06,  -2.16087E-03,  -193.092E-03,0.0192259,0.0591499,-0.000458399
29252,-4.0,-46.0,0.0,  -70.1767E-06,  -2.15665E-03,  -192.839E-03,0.0191767,0.058975,-0.00061181
29255,-5.0,-46.0,0.0,  -87.7097E-06,  -2.15120E-03,  -192.512E-03,0.0191134,0.0587498,-0.00076575
29256,-6.0,-46.0,0.0,  -105.234E-06,  -2.14450E-03,  -192.111E-03,0.0190359,0.0584741,-0.000920353
29261,-7.0,-46.0,0.0,  -122.748E-06,  -2.13654E-03,  -191.634E-03,0.0189441,0.0581477,-0.00107576
29262,-8.0,-46.0,0.0,  -140.248E-06,  -2.12729E-03,  -191.081E-03,0.0188379,0.0577701,-0.00123211
29267,-9.0,-46.0,0.0,  -157.730E-06,  -2.11672E-03,  -190.449E-03,0.0187172,0.0573411,-0.00138955
29270,-10.0,-46.0,0.0,  -175.189E-06,  -2.10480E-03,  -189.737E-03,0.0185818,0.0568601,-0.00154823
29271,-11.0,-46.0,0.0,  -192.620E-06,  -2.09149E-03,  -188.944E-03,0.0184317,0.0563269,-0.0017083
29276,-12.0,-46.0,0.0,  -210.015E-06,  -2.07677E-03,  -188.066E-03,0.0182665,0.0557408,-0.00186992
29277,-13.0,-46.0,0.0,  -227.366E-06,  -2.06059E-03,  -187.102E-03,0.0180863,0.0551013,-0.00203327
29282,-14.0,-46.0,0.0,  -244.662E-06,  -2.04291E-03,  -186.049E-03,0.0178907,0.054408,-0.0021985
29285,-15.0,-46.0,0.0,  -261.890E-06,  -2.02369E-03,  -184.903E-03,0.0176795,0.0536602,-0.00236581
29286,-16.0,-46.0,0.0,  -279.035E-06,  -2.00287E-03,  -183.663E-03,0.0174524,0.0528574,-0.00253537
29291,-17.0,-46.0,0.0,  -296.079E-06,  -1.98041E-03,  -182.324E-03,0.0172094,0.0519988,-0.00270739
29292,-18.0,-46.0,0.0,  -312.998E-06,  -1.95626E-03,  -180.883E-03,0.0169499,0.051084,-0.00288207
29297,-19.0,-46.0,0.0,  -329.767E-06,  -1.93037E-03,  -179.335E-03,0.0166738,0.0501123,-0.00305964
29300,-20.0,-46.0,0.0,  -346.354E-06,  -1.90269E-03,  -177.676E-03,0.0163807,0.049083,-0.00324032
29301,-21.0,-46.0,0.0,  -362.721E-06,  -1.87317E-03,  -175.902E-03,0.0160703,0.0479955,-0.00342438
29306,-22.0,-46.0,0.0,  -378.825E-06,  -1.84175E-03,  -174.007E-03,0.0157423,0.0468493,-0.00361208
29307,-23.0,-46.0,0.0,  -394.613E-06,  -1.80840E-03,  -171.985E-03,0.0153964,0.0456437,-0.00380374
29312,-24.0,-46.0,0.0,  -410.025E-06,  -1.77305E-03,  -169.830E-03,0.0150323,0.0443784,-0.0039997
29315,-25.0,-46.0,0.0,  -424.990E-06,  -1.73568E-03,  -167.536E-03,0.0146496,0.0430527,-0.00420035
29316,-26.0,-46.0,0.0,  -439.426E-06,  -1.69624E-03,  -165.094E-03,0.0142484,0.0416665,-0.00440617
29321,-27.0,-46.0,0.0,  -453.238E-06,  -1.65470E-03,  -162.497E-03,0.0138285,0.0402196,-0.0046177
29322,-28.0,-46.0,0.0,  -466.318E-06,  -1.61102E-03,  -159.734E-03,0.0133903,0.0387118,-0.00483566
29327,-29.0,-46.0,0.0,  -478.540E-06,  -1.56518E-03,  -156.796E-03,0.0129345,0.0371436,-0.00506093
29330,-30.0,-46.0,0.0,  -489.761E-06,  -1.51717E-03,  -153.669E-03,0.0124623,0.0355156,-0.0052947
29331,-31.0,-46.0,0.0,  -499.818E-06,  -1.46695E-03,  -150.340E-03,0.0119761,0.0338291,-0.0055386
29336,-32.0,-46.0,0.0,  -508.528E-06,  -1.41451E-03,  -146.792E-03,0.0114794,0.0320859,-0.00579485
29337,-33.0,-46.0,0.0,  -515.681E-06,  -1.35977E-03,  -143.003E-03,0.0109778,0.0302892,-0.00606661
29342,-34.0,-46.0,0.0,  -521.038E-06,  -1.30265E-03,  -138.950E-03,0.0104796,0.0284431,-0.0063583
29345,-35.0,-46.0,0.0,  -524.324E-06,  -1.24297E-03,  -134.598E-03,0.00999684,0.0265539,-0.00667615
29346,-36.0,-46.0,0.0,  -525.216E-06,  -1.18040E-03,  -129.908E-03,0.00954566,0.0246294,-0.00702876
29351,-37.0,-46.0,0.0,  -523.322E-06,  -1.11445E-03,  -124.825E-03,0.00914715,0.0226798,-0.00742767
29352,-38.0,-46.0,0.0,  -518.143E-06,  -1.04431E-03,  -119.279E-03,0.00882622,0.0207167,-0.00788763
29357,-39.0,-46.0,0.0,  -509.022E-06,  -968.852E-06,  -113.175E-03,0.00860825,0.0187519,-0.0084262
29360,-40.0,-46.0,0.0,  -495.053E-06,  -886.568E-06,  -106.394E-03,0.00851077,0.0167949,-0.00906151
29361,-41.0,-46.0,0.0,  -474.964E-06,  -795.696E-06,  -98.7893E-03,0.00852783,0.0148479,-0.00980773
29366,-42.0,-46.0,0.0,  -446.986E-06,  -694.587E-06,  -90.1853E-03,0.00860368,0.0129013,-0.0106651
29367,-43.0,-46.0,0.0,  -408.797E-06,  -582.444E-06,  -80.3998E-03,0.00859399,0.010927,-0.0116057
29372,-44.0,-46.0,0.0,  -357.736E-06,  -460.525E-06,  -69.2803E-03,0.00821789,0.00887677,-0.0125489
29375,-45.0,-46.0,0.0,  -291.676E-06,  -333.611E-06,  -56.7791E-03,0.0070035,0.00668073,-0.0133353
29376,-46.0,-46.0,0.0,  -211.093E-06,  -211.093E-06,  -43.0773E-03,0.00424688,0.00424688,-0.0136884
29381,-47.0,-46.0,0.0,  -122.627E-06,  -106.435E-06,  -28.7706E-03,-0.000977981,0.00145094,-0.0131947
29382,-48.0,-46.0,0.0,  -42.8306E-06,  -33.5177E-06,  -15.1144E-03,-0.00984241,-0.00200003,-0.0112219
29387,-49.0,-46.0,0.0,   3.00263E-06,   258.002E-09,  -4.33217E-03,-0.0237875,-0.00667153,-0.00689407
29390,-50.0,-46.0,0.0,   27.8760E-42,  -4.63690E-42,           -0.,-0.0322296,-0.00964324,-0.00168171
29391,50.0,-47.0,0.0,  -2.79419E-42,  -1.48958E-42,           -0.,-0.0222295,-0.00664676,0.00188207
29396,49.0,-47.0,0.0,   2.16353E-06,  -1.20069E-06,  -2.92357E-03,-0.0165253,-0.00489382,0.00715949
29397,48.0,-47.0,0.0,   26.3088E-06,  -22.0991E-06,  -10.1692E-03,-0.00726364,-0.00268826,0.0112919
29402,47.0,-47.0,0.0,   64.7942E-06,  -64.7942E-06,  -19.2879E-03,-0.00162583,-0.00162583,0.0129908
29405,46.0,-47.0,0.0,   106.435E-06,  -122.627E-06,  -28.7706E-03,0.00145094,-0.000977981,0.0131947
29406,45.0,-47.0,0.0,   144.567E-06,  -185.923E-06,  -37.7884E-03,0.00281853,-0.000417215,0.01257
29411,44.0,-47.0,0.0,   176.976E-06,  -246.879E-06,  -45.9790E-03,0.00323609,0.000268156,0.011579
29412,43.0,-47.0,0.0,   203.796E-06,  -301.268E-06,  -53.2562E-03,0.00323637,0.00118852,0.0105173
29417,42.0,-47.0,0.0,   225.914E-06,  -347.968E-06,  -59.6754E-03,0.00313902,0.00237179,0.00953516
29420,41.0,-47.0,0.0,   244.210E-06,  -387.766E-06,  -65.3497E-03,0.00311283,0.00380214,0.0086932
29421,40.0,-47.0,0.0,   259.324E-06,  -422.230E-06,  -70.4033E-03,0.00322303,0.00543702,0.00799813
29426,39.0,-47.0,0.0,   271.676E-06,  -452.989E-06,  -74.9483E-03,0.00347642,0.00722557,0.00743231
29427,38.0,-47.0,0.0,   281.537E-06,  -481.381E-06,  -79.0771E-03,0.00385177,0.00911784,0.00696953
29432,37.0,-47.0,0.0,   289.103E-06,  -508.355E-06,  -82.8621E-03,0.00431849,0.0110707,0.00658429
29435,36.0,-47.0,0.0,   294.543E-06,  -534.504E-06,  -86.3584E-03,0.00484678,0.0130493,0.0062552
29436,35.0,-47.0,0.0,   298.019E-06,  -560.152E-06,  -89.6075E-03,0.00541163,0.0150275,0.00596593
29441,34.0,-47.0,0.0,   299.697E-06,  -585.435E-06,  -92.6406E-03,0.0059939,0.0169858,0.00570467
29442,33.0,-47.0,0.0,   299.745E-06,  -610.373E-06,  -95.4818E-03,0.00657975,0.0189107,0.00546321
29447,32.0,-47.0,0.0,   298.327E-06,  -634.923E-06,  -98.1496E-03,0.00715965,0.0207924,0.00523601
29450,31.0,-47.0,0.0,   295.606E-06,  -659.012E-06,  -100.659E-03,0.00772726,0.0226245,0.00501936
29451,30.0,-47.0,0.0,   291.734E-06,  -682.554E-06,  -103.022E-03,0.00827855,0.0244024,0.00481086
29456,29.0,-47.0,0.0,   286.853E-06,  -705.472E-06,  -105.248E-03,0.00881107,0.026123,0.00460888
29457,28.0,-47.0,0.0,   281.090E-06,  -727.694E-06,  -107.346E-03,0.00932342,0.0277842,0.00441239
29462,27.0,-47.0,0.0,   274.563E-06,  -749.160E-06,  -109.324E-03,0.0098149,0.0293849,0.00422065
29465,26.0,-47.0,0.0,   267.374E-06,  -769.824E-06,  -111.189E-03,0.0102853,0.030924,0.00403317
29466,25.0,-47.0,0.0,   259.615E-06,  -789.648E-06,  -112.945E-03,0.0107345,0.032401,0.00384958
29471,24.0,-47.0,0.0,   251.365E-06,  -808.609E-06,  -114.598E-03,0.0111629,0.0338158,0.00366961
29472,23.0,-47.0,0.0,   242.693E-06,  -826.688E-06,  -116.154E-03,0.0115706,0.0351684,0.00349301
29477,22.0,-47.0,0.0,   233.660E-06,  -843.876E-06,  -117.616E-03,0.011958,0.0364587,0.00331959
29480,21.0,-47.0,0.0,   224.318E-06,  -860.171E-06,  -118.989E-03,0.0123256,0.037687,0.00314918
29481,20.0,-47.0,0.0,   214.710E-06,  -875.573E-06,  -120.276E-03,0.0126735,0.0388537,0.0029816
29486,19.0,-47.0,0.0,   204.875E-06,  -890.091E-06,  -121.481E-03,0.0130022,0.0399592,0.00281669
29487,18.0,-47.0,0.0,   194.846E-06,  -903.732E-06,  -122.607E-03,0.013312,0.0410037,0.00265431
29492,17.0,-47.0,0.0,   184.651E-06,  -916.510E-06,  -123.656E-03,0.0136033,0.041988,0.00249429
29495,16.0,-47.0,0.0,   174.314E-06,  -928.438E-06,  -124.632E-03,0.0138764,0.0429123,0.00233649
29496,15.0,-47.0,0.0,   163.854E-06,  -939.532E-06,  -125.537E-03,0.0141315,0.0437773,0.00218077
29501,14.0,-47.0,0.0,   153.289E-06,  -949.808E-06,  -126.373E-03,0.0143689,0.0445835,0.00202697
29502,13.0,-47.0,0.0,   142.635E-06,  -959.283E-06,  -127.143E-03,0.0145888,0.0453314,0.00187495
29507,12.0,-47.0,0.0,   131.904E-06,  -967.974E-06,  -127.848E-03,0.0147916,0.0460215,0.00172458
29510,11.0,-47.0,0.0,   121.106E-06,  -975.898E-06,  -128.490E-03,0.0149774,0.0466543,0.00157571
29511,10.0,-47.0,0.0,   110.251E-06,  -983.072E-06,  -129.072E-03,0.0151464,0.0472303,0.00142821
29516,9.0,-47.0,0.0,   99.3483E-06,  -989.510E-06,  -129.593E-03,0.0152987,0.04775,0.00128194
29517,8.0,-47.0,0.0,   88.4037E-06,  -995.227E-06,  -130.056E-03,0.0154346,0.0482137,0.00113677
29522,7.0,-47.0,0.0,   77.4240E-06,  -1.00024E-03,  -130.462E-03,0.0155542,0.0486219,0.000992578
29525,6.0,-47.0,0.0,   66.4148E-06,  -1.00455E-03,  -130.812E-03,0.0156576,0.048975,0.000849229
29526,5.0,-47.0,0.0,   55.3812E-06,  -1.00819E-03,  -131.106E-03,0.0157449,0.0492732,0.0007066
29531,4.0,-47.0,0.0,   44.3278E-06,  -1.01115E-03,  -131.346E-03,0.0158162,0.0495167,0.000564568
29532,3.0,-47.0,0.0,   33.2590E-06,  -1.01344E-03,  -131.532E-03,0.0158716,0.049706,0.000423012
29537,2.0,-47.0,0.0,   22.1789E-06,  -1.01507E-03,  -131.664E-03,0.0159111,0.049841,0.000281811
29540,1.0,-47.0,0.0,   11.0913E-06,  -1.01605E-03,  -131.744E-03,0.0159348,0.049922,0.000140846
29541,0.0,-47.0,0.0,  -463.510E-18,  -1.01638E-03,  -131.770E-03,0.0159427,0.049949,0.0
29546,-1.0,-47.0,0.0,  -11.0913E-06,  -1.01605E-03,  -131.744E-03,0.0159348,0.049922,-0.000140846
29547,-2.0,-47.0,0.0,  -22.1789E-06,  -1.01507E-03,  -131.664E-03,0.0159111,0.049841,-0.000281811
29552,-3.0,-47.0,0.0,  -33.2590E-06,  -1.01344E-03,  -131.532E-03,0.0158716,0.049706,-0.000423012
29555,-4.0,-47.0,0.0,  -44.3278E-06,  -1.01115E-03,  -131.346E-03,0.0158162,0.0495167,-0.000564568
29556,-5.0,-47.0,0.0,  -55.3812E-06,  -1.00819E-03,  -131.106E-03,0.0157449,0.0492732,-0.0007066
29561,-6.0,-47.0,0.0,  -66.4148E-06,  -1.00455E-03,  -130.812E-03,0.0156576,0.048975,-0.000849229
29562,-7.0,-47.0,0.0,  -77.4240E-06,  -1.00024E-03,  -130.462E-03,0.0155542,0.0486219,-0.000992578
29567,-8.0,-47.0,0.0,  -88.4037E-06,  -995.227E-06,  -130.056E-03,0.0154346,0.0482137,-0.00113677
29570,-9.0,-47.0,0.0,  -99.3483E-06,  -989.510E-06,  -129.593E-03,0.0152987,0.04775,-0.00128194
29571,-10.0,-47.0,0.0,  -110.251E-06,  -983.072E-06,  -129.072E-03,0.0151464,0.0472303,-0.00142821
29576,-11.0,-47.0,0.0,  -121.106E-06,  -975.898E-06,  -128.490E-03,0.0149774,0.0466543,-0.00157571
29577,-12.0,-47.0,0.0,  -131.904E-06,  -967.974E-06,  -127.848E-03,0.0147916,0.0460215,-0.00172458
29582,-13.0,-47.0,0.0,  -142.635E-06,  -959.283E-06,  -127.143E-03,0.0145888,0.0453314,-0.00187495
29585,-14.0,-47.0,0.0,  -153.289E-06,  -949.808E-06,  -126.373E-03,0.0143689,0.0445835,-0.00202697
29586,-15.0,-47.0,0.0,  -163.854E-06,  -939.532E-06,  -125.537E-03,0.0141315,0.0437773,-0.00218077
29591,-16.0,-47.0,0.0,  -174.314E-06,  -928.438E-06,  -124.632E-03,0.0138764,0.0429123,-0.00233649
29592,-17.0,-47.0,0.0,  -184.651E-06,  -916.510E-06,  -123.656E-03,0.0136033,0.041988,-0.00249429
29597,-18.0,-47.0,0.0,  -194.846E-06,  -903.732E-06,  -122.607E-03,0.013312,0.0410037,-0.00265431
29600,-19.0,-47.0,0.0,  -204.875E-06,  -890.091E-06,  -121.481E-03,0.0130022,0.0399592,-0.00281669
29601,-20.0,-47.0,0.0,  -214.710E-06,  -875.573E-06,  -120.276E-03,0.0126735,0.0388537,-0.0029816
29606,-21.0,-47.0,0.0,  -224.318E-06,  -860.171E-06,  -118.989E-03,0.0123256,0.037687,-0.00314918
29607,-22.0,-47.0,0.0,  -233.660E-06,  -843.876E-06,  -117.616E-03,0.011958,0.0364587,-0.00331959
29612,-23.0,-47.0,0.0,  -242.693E-06,  -826.688E-06,  -116.154E-03,0.0115706,0.0351684,-0.00349301
29615,-24.0,-47.0,0.0,  -251.365E-06,  -808.609E-06,  -114.598E-03,0.0111629,0.0338158,-0.00366961
29616,-25.0,-47.0,0.0,  -259.615E-06,  -789.648E-06,  -112.945E-03,0.0107345,0.032401,-0.00384958
29621,-26.0,-47.0,0.0,  -267.374E-06,  -769.824E-06,  -111.189E-03,0.0102853,0.030924,-0.00403317
29622,-27.0,-47.0,0.0,  -274.563E-06,  -749.160E-06,  -109.324E-03,0.0098149,0.0293849,-0.00422065
29627,-28.0,-47.0,0.0,  -281.090E-06,  -727.694E-06,  -107.346E-03,0.00932342,0.0277842,-0.00441239
29630,-29.0,-47.0,0.0,  -286.853E-06,  -705.472E-06,  -105.248E-03,0.00881106,0.026123,-0.00460888
29631,-30.0,-47.0,0.0,  -291.734E-06,  -682.554E-06,  -103.022E-03,0.00827855,0.0244024,-0.00481086
29636,-31.0,-47.0,0.0,  -295.606E-06,  -659.012E-06,  -100.659E-03,0.00772726,0.0226245,-0.00501936
29637,-32.0,-47.0,0.0,  -298.327E-06,  -634.923E-06,  -98.1496E-03,0.00715965,0.0207924,-0.00523601
29642,-33.0,-47.0,0.0,  -299.745E-06,  -610.373E-06,  -95.4818E-03,0.00657975,0.0189107,-0.00546321
29643,-34.0,-47.0,0.0,  -299.697E-06,  -585.435E-06,  -92.6406E-03,0.0059939,0.0169858,-0.00570467
29648,-35.0,-47.0,0.0,  -298.019E-06,  -560.152E-06,  -89.6075E-03,0.00541163,0.0150275,-0.00596593
29649,-36.0,-47.0,0.0,  -294.543E-06,  -534.504E-06,  -86.3584E-03,0.00484678,0.0130493,-0.0062552
29654,-37.0,-47.0,0.0,  -289.103E-06,  -508.355E-06,  -82.8621E-03,0.00431849,0.0110707,-0.00658429
29657,-38.0,-47.0,0.0,  -281.537E-06,  -481.381E-06,  -79.0771E-03,0.00385177,0.00911784,-0.00696953
29658,-39.0,-47.0,0.0,  -271.676E-06,  -452.989E-06,  -74.9483E-03,0.00347642,0.00722557,-0.00743231
29663,-40.0,-47.0,0.0,  -259.324E-06,  -422.230E-06,  -70.4033E-03,0.00322303,0.00543702,-0.00799813
29664,-41.0,-47.0,0.0,  -244.210E-06,  -387.766E-06,  -65.3497E-03,0.00311283,0.00380214,-0.0086932
29669,-42.0,-47.0,0.0,  -225.914E-06,  -347.968E-06,  -59.6754E-03,0.00313902,0.00237179,-0.00953516
29672,-43.0,-47.0,0.0,  -203.796E-06,  -301.268E-06,  -53.2562E-03,0.00323637,0.00118852,-0.0105173
29673,-44.0,-47.0,0.0,  -176.976E-06,  -246.879E-06,  -45.9790E-03,0.00323609,0.000268156,-0.011579
29678,-45.0,-47.0,0.0,  -144.567E-06,  -185.923E-06,  -37.7884E-03,0.00281853,-0.000417215,-0.01257
29679,-46.0,-47.0,0.0,  -106.435E-06,  -122.627E-06,  -28.7706E-03,0.00145094,-0.000977981,-0.0131947
29684,-47.0,-47.0,0.0,  -64.7942E-06,  -64.7942E-06,  -19.2879E-03,-0.00162583,-0.00162583,-0.0129908
29687,-48.0,-47.0,0.0,  -26.3088E-06,  -22.0991E-06,  -10.1692E-03,-0.00726364,-0.00268826,-0.0112919
29688,-49.0,-47.0,0.0,  -2.16353E-06,  -1.20069E-06,  -2.92357E-03,-0.0165253,-0.00489382,-0.00715949
29693,-50.0,-47.0,0.0,   2.79419E-42,  -1.48958E-42,           -0.,-0.0222295,-0.00664676,-0.00188207
29694,50.0,-48.0,0.0,   3.88440E-42,  -451.218E-45,           -0.,-0.0118969,-0.00355843,0.00183612
29699,49.0,-48.0,0.0,   2.75038E-06,  -1.93259E-06,  -1.53632E-03,-0.00927052,-0.00373595,0.00649318
29702,48.0,-48.0,0.0,   10.9583E-06,  -10.9583E-06,  -5.36408E-03,-0.00499165,-0.00499165,0.00999819
29703,47.0,-48.0,0.0,   22.0991E-06,  -26.3088E-06,  -10.1692E-03,-0.00268826,-0.00726364,0.0112919
29708,46.0,-48.0,0.0,   33.5177E-06,  -42.8306E-06,  -15.1144E-03,-0.00200003,-0.00984241,0.0112219
29709,45.0,-48.0,0.0,   44.3398E-06,  -55.6359E-06,  -19.7804E-03,-0.00220223,-0.0121409,0.0104697
29714,44.0,-48.0,0.0,   54.7382E-06,  -62.2980E-06,  -24.0070E-03,-0.00273458,-0.0138174,0.00949046
29717,43.0,-48.0,0.0,   65.0630E-06,  -62.6991E-06,  -27.7714E-03,-0.00328345,-0.0147841,0.00853575
29718,42.0,-48.0,0.0,   75.4557E-06,  -58.1157E-06,  -31.1157E-03,-0.00368342,-0.015082,0.00771332
29723,41.0,-48.0,0.0,   85.8041E-06,  -50.2911E-06,  -34.1032E-03,-0.00387937,-0.0148207,0.00705052
29724,40.0,-48.0,0.0,   95.8421E-06,  -40.8518E-06,  -36.7971E-03,-0.00387567,-0.0141259,0.00653236
29729,39.0,-48.0,0.0,   105.264E-06,  -31.0477E-06,  -39.2515E-03,-0.0037047,-0.0131148,0.00612962
29732,38.0,-48.0,0.0,   113.803E-06,  -21.7085E-06,  -41.5092E-03,-0.00340707,-0.0118842,0.00581135
29733,37.0,-48.0,0.0,   121.269E-06,  -13.3090E-06,  -43.6026E-03,-0.0030205,-0.0105088,0.00555153
29738,36.0,-48.0,0.0,   127.554E-06,  -6.06375E-06,  -45.5560E-03,-0.00257611,-0.00904372,0.00533028
29739,35.0,-48.0,0.0,   132.625E-06,  -17.4068E-09,  -47.3873E-03,-0.00209742,-0.00752792,0.00513358
29744,34.0,-48.0,0.0,   136.502E-06,   4.88543E-06,  -49.1101E-03,-0.00160138,-0.00598883,0.004952
29747,33.0,-48.0,0.0,   139.247E-06,   8.75173E-06,  -50.7346E-03,-0.00109974,-0.00444554,0.00477948
29748,32.0,-48.0,0.0,   140.944E-06,   11.7091E-06,  -52.2690E-03,-0.000600399,-0.00291145,0.00461231
29753,31.0,-48.0,0.0,   141.689E-06,   13.8876E-06,  -53.7198E-03,-0.00010858,-0.00139612,0.00444831
29754,30.0,-48.0,0.0,   141.580E-06,   15.4100E-06,  -55.0922E-03,0.000372349,9.34759e-05,0.00428625
29759,29.0,-48.0,0.0,   140.713E-06,   16.3869E-06,  -56.3909E-03,0.00084024,0.00155208,0.00412555
29762,28.0,-48.0,0.0,   139.181E-06,   16.9159E-06,  -57.6197E-03,0.00129374,0.00297562,0.00396594
29763,27.0,-48.0,0.0,   137.065E-06,   17.0814E-06,  -58.7821E-03,0.00173203,0.00436087,0.00380737
29768,26.0,-48.0,0.0,   134.440E-06,   16.9553E-06,  -59.8813E-03,0.00215458,0.00570521,0.00364989
29769,25.0,-48.0,0.0,   131.373E-06,   16.5991E-06,  -60.9199E-03,0.0025611,0.00700646,0.0034936
29774,24.0,-48.0,0.0,   127.922E-06,   16.0646E-06,  -61.9006E-03,0.00295143,0.00826281,0.00333858
29777,23.0,-48.0,0.0,   124.137E-06,   15.3952E-06,  -62.8258E-03,0.00332547,0.00947277,0.00318494
29778,22.0,-48.0,0.0,   120.064E-06,   14.6277E-06,  -63.6974E-03,0.00368318,0.0106351,0.00303275
29783,21.0,-48.0,0.0,   115.739E-06,   13.7926E-06,  -64.5177E-03,0.00402455,0.0117486,0.00288207
29784,20.0,-48.0,0.0,   111.196E-06,   12.9154E-06,  -65.2884E-03,0.0043496,0.0128126,0.00273292
29789,19.0,-48.0,0.0,   106.463E-06,   12.0172E-06,  -66.0113E-03,0.00465835,0.0138264,0.00258532
29792,18.0,-48.0,0.0,   101.565E-06,   11.1153E-06,  -66.6879E-03,0.00495084,0.0147892,0.00243925
29793,17.0,-48.0,0.0,   96.5230E-06,   10.2241E-06,  -67.3199E-03,0.00522712,0.0157007,0.0022947
29798,16.0,-48.0,0.0,   91.3543E-06,   9.35500E-06,  -67.9086E-03,0.00548723,0.0165606,0.00215161
29799,15.0,-48.0,0.0,   86.0751E-06,   8.51725E-06,  -68.4553E-03,0.00573121,0.0173685,0.00200994
29804,14.0,-48.0,0.0,   80.6987E-06,   7.71819E-06,  -68.9612E-03,0.00595913,0.0181242,0.00186962
29807,13.0,-48.0,0.0,   75.2371E-06,   6.96351E-06,  -69.4274E-03,0.00617104,0.0188278,0.00173058
29808,12.0,-48.0,0.0,   69.7006E-06,   6.25756E-06,  -69.8551E-03,0.00636698,0.019479,0.00159275
29813,11.0,-48.0,0.0,   64.0982E-06,   5.60356E-06,  -70.2451E-03,0.00654702,0.0200779,0.00145604
29814,10.0,-48.0,0.0,   58.4380E-06,   5.00383E-06,  -70.5983E-03,0.0067112,0.0206244,0.00132036
29819,9.0,-48.0,0.0,   52.7274E-06,   4.45996E-06,  -70.9155E-03,0.00685957,0.0211186,0.00118562
29822,8.0,-48.0,0.0,   46.9728E-06,   3.97295E-06,  -71.1974E-03,0.00699219,0.0215605,0.00105174
29823,7.0,-48.0,0.0,   41.1803E-06,   3.54335E-06,  -71.4446E-03,0.00710909,0.0219502,0.000918611
29828,6.0,-48.0,0.0,   35.3554E-06,   3.17142E-06,  -71.6578E-03,0.00721032,0.0222878,0.000786149
29829,5.0,-48.0,0.0,   29.5033E-06,   2.85717E-06,  -71.8373E-03,0.00729591,0.0225733,0.000654255
29834,4.0,-48.0,0.0,   23.6289E-06,   2.60046E-06,  -71.9837E-03,0.00736589,0.0228068,0.000522836
29837,3.0,-48.0,0.0,   17.7368E-06,   2.40110E-06,  -72.0972E-03,0.0074203,0.0229884,0.000391795
29838,2.0,-48.0,0.0,   11.8318E-06,   2.25889E-06,  -72.1781E-03,0.00745914,0.023118,0.000261039
29843,1.0,-48.0,0.0,   5.91804E-06,   2.17365E-06,  -72.2265E-03,0.00748244,0.0231958,0.000130472
29844,0.0,-48.0,0.0,   215.805E-18,   2.14525E-06,  -72.2427E-03,0.00749021,0.0232217,9.09495e-13
29849,-1.0,-48.0,0.0,  -5.91804E-06,   2.17365E-06,  -72.2265E-03,0.00748244,0.0231958,-0.000130472
29852,-2.0,-48.0,0.0,  -11.8318E-06,   2.25889E-06,  -72.1781E-03,0.00745914,0.023118,-0.000261039
29853,-3.0,-48.0,0.0,  -17.7368E-06,   2.40110E-06,  -72.0972E-03,0.0074203,0.0229884,-0.000391795
29858,-4.0,-48.0,0.0,  -23.6289E-06,   2.60046E-06,  -71.9837E-03,0.00736589,0.0228068,-0.000522836
29859,-5.0,-48.0,0.0,  -29.5033E-06,   2.85717E-06,  -71.8373E-03,0.00729591,0.0225733,-0.000654255
29864,-6.0,-48.0,0.0,  -35.3554E-06,   3.17142E-06,  -71.6578E-03,0.00721032,0.0222878,-0.000786149
29867,-7.0,-48.0,0.0,  -41.1803E-06,   3.54335E-06,  -71.4446E-03,0.00710909,0.0219502,-0.000918611
29868,-8.0,-48.0,0.0,  -46.9728E-06,   3.97295E-06,  -71.1974E-03,0.00699219,0.0215605,-0.00105174
29873,-9.0,-48.0,0.0,  -52.7274E-06,   4.45996E-06,  -70.9155E-03,0.00685957,0.0211186,-0.00118562
29874,-10.0,-48.0,0.0,  -58.4380E-06,   5.00383E-06,  -70.5983E-03,0.0067112,0.0206244,-0.00132036
29879,-11.0,-48.0,0.0,  -64.0982E-06,   5.60356E-06,  -70.2451E-03,0.00654702,0.0200779,-0.00145604
29882,-12.0,-48.0,0.0,  -69.7006E-06,   6.25756E-06,  -69.8551E-03,0.00636698,0.019479,-0.00159275
29883,-13.0,-48.0,0.0,  -75.2371E-06,   6.96351E-06,  -69.4274E-03,0.00617104,0.0188278,-0.00173058
29888,-14.0,-48.0,0.0,  -80.6987E-06,   7.71819E-06,  -68.9612E-03,0.00595913,0.0181242,-0.00186962
29889,-15.0,-48.0,0.0,  -86.0751E-06,   8.51725E-06,  -68.4553E-03,0.00573121,0.0173685,-0.00200994
29894,-16.0,-48.0,0.0,  -91.3543E-06,   9.35500E-06,  -67.9086E-03,0.00548723,0.0165605,-0.00215161
29897,-17.0,-48.0,0.0,  -96.5230E-06,   10.2241E-06,  -67.3199E-03,0.00522712,0.0157007,-0.0022947
29898,-18.0,-48.0,0.0,  -101.565E-06,   11.1153E-06,  -66.6879E-03,0.00495084,0.0147892,-0.00243925
29903,-19.0,-48.0,0.0,  -106.463E-06,   12.0172E-06,  -66.0113E-03,0.00465835,0.0138264,-0.00258532
29904,-20.0,-48.0,0.0,  -111.196E-06,   12.9154E-06,  -65.2884E-03,0.0043496,0.0128126,-0.00273292
29909,-21.0,-48.0,0.0,  -115.739E-06,   13.7926E-06,  -64.5177E-03,0.00402455,0.0117486,-0.00288207
29912,-22.0,-48.0,0.0,  -120.064E-06,   14.6277E-06,  -63.6974E-03,0.00368318,0.0106351,-0.00303275
29913,-23.0,-48.0,0.0,  -124.137E-06,   15.3952E-06,  -62.8258E-03,0.00332547,0.00947277,-0.00318494
29918,-24.0,-48.0,0.0,  -127.922E-06,   16.0646E-06,  -61.9006E-03,0.00295143,0.00826281,-0.00333858
29919,-25.0,-48.0,0.0,  -131.373E-06,   16.5991E-06,  -60.9199E-03,0.0025611,0.00700646,-0.0034936
29924,-26.0,-48.0,0.0,  -134.440E-06,   16.9553E-06,  -59.8813E-03,0.00215458,0.00570521,-0.00364989
29927,-27.0,-48.0,0.0,  -137.065E-06,   17.0814E-06,  -58.7821E-03,0.00173203,0.00436087,-0.00380737
29928,-28.0,-48.0,0.0,  -139.181E-06,   16.9159E-06,  -57.6197E-03,0.00129374,0.00297562,-0.00396594
29933,-29.0,-48.0,0.0,  -140.713E-06,   16.3869E-06,  -56.3909E-03,0.00084024,0.00155208,-0.00412555
29934,-30.0,-48.0,0.0,  -141.580E-06,   15.4100E-06,  -55.0922E-03,0.000372349,9.34759e-05,-0.00428625
29939,-31.0,-48.0,0.0,  -141.689E-06,   13.8876E-06,  -53.7198E-03,-0.00010858,-0.00139612,-0.00444831
29942,-32.0,-48.0,0.0,  -140.944E-06,   11.7091E-06,  -52.2690E-03,-0.0006004,-0.00291145,-0.00461231
29943,-33.0,-48.0,0.0,  -139.247E-06,   8.75173E-06,  -50.7346E-03,-0.00109974,-0.00444554,-0.00477948
29948,-34.0,-48.0,0.0,  -136.502E-06,   4.88543E-06,  -49.1101E-03,-0.00160138,-0.00598883,-0.004952
29949,-35.0,-48.0,0.0,  -132.625E-06,  -17.4069E-09,  -47.3873E-03,-0.00209742,-0.00752792,-0.00513358
29954,-36.0,-48.0,0.0,  -127.554E-06,  -6.06375E-06,  -45.5560E-03,-0.00257611,-0.00904372,-0.00533028
29957,-37.0,-48.0,0.0,  -121.269E-06,  -13.3090E-06,  -43.6026E-03,-0.0030205,-0.0105088,-0.00555153
29958,-38.0,-48.0,0.0,  -113.803E-06,  -21.7085E-06,  -41.5092E-03,-0.00340707,-0.0118842,-0.00581135
29963,-39.0,-48.0,0.0,  -105.264E-06,  -31.0477E-06,  -39.2515E-03,-0.0037047,-0.0131148,-0.00612962
29964,-40.0,-48.0,0.0,  -95.8421E-06,  -40.8518E-06,  -36.7971E-03,-0.00387567,-0.0141259,-0.00653236
29969,-41.0,-48.0,0.0,  -85.8041E-06,  -50.2911E-06,  -34.1032E-03,-0.00387937,-0.0148207,-0.00705052
29972,-42.0,-48.0,0.0,  -75.4557E-06,  -58.1157E-06,  -31.1157E-03,-0.00368342,-0.015082,-0.00771332
29973,-43.0,-48.0,0.0,  -65.0630E-06,  -62.6991E-06,  -27.7714E-03,-0.00328345,-0.0147841,-0.00853575
29978,-44.0,-48.0,0.0,  -54.7382E-06,  -62.2980E-06,  -24.0070E-03,-0.00273458,-0.0138174,-0.00949046
29979,-45.0,-48.0,0.0,  -44.3398E-06,  -55.6359E-06,  -19.7804E-03,-0.00220223,-0.0121409,-0.0104697
29984,-46.0,-48.0,0.0,  -33.5177E-06,  -42.8306E-06,  -15.1144E-03,-0.00200003,-0.00984241,-0.0112219
29987,-47.0,-48.0,0.0,  -22.0991E-06,  -26.3088E-06,  -10.1692E-03,-0.00268826,-0.00726364,-0.0112919
29988,-48.0,-48.0,0.0,  -10.9583E-06,  -10.9583E-06,  -5.36408E-03,-0.00499165,-0.00499165,-0.00999819
29993,-49.0,-48.0,0.0,  -2.75038E-06,  -1.93259E-06,  -1.53632E-03,-0.00927052,-0.00373595,-0.00649318
29994,-50.0,-48.0,0.0,  -3.88440E-42,  -451.218E-45,           -0.,-0.0118969,-0.00355843,-0.00183612
29999,50.0,-49.0,0.0,   2.43265E-42,   732.879E-45,           -0.,-0.00347146,-0.00103982,0.00121791
30002,49.0,-49.0,0.0,   1.44147E-06,  -1.44147E-06,  -432.832E-06,-0.00345425,-0.00345425,0.00418513
30003,48.0,-49.0,0.0,   1.93259E-06,  -2.75038E-06,  -1.53632E-03,-0.00373595,-0.00927052,0.00649318
30008,47.0,-49.0,0.0,   1.20069E-06,  -2.16353E-06,  -2.92357E-03,-0.00489382,-0.0165253,0.00715949
30009,46.0,-49.0,0.0,  -258.002E-09,   3.00263E-06,  -4.33217E-03,-0.00667153,-0.0237875,0.00689407
30014,45.0,-49.0,0.0,  -1.42541E-06,   13.8789E-06,  -5.65269E-03,-0.00851659,-0.0301861,0.00627409
30017,44.0,-49.0,0.0,  -1.45860E-06,   30.1148E-06,  -6.84755E-03,-0.0101924,-0.0354175,0.00559816
30018,43.0,-49.0,0.0,   26.0788E-09,   50.4870E-06,  -7.91681E-03,-0.0115899,-0.0395106,0.00501151
30023,42.0,-49.0,0.0,   2.97966E-06,   73.5273E-06,  -8.87545E-03,-0.0126923,-0.042628,0.00455872
30024,41.0,-49.0,0.0,   7.08022E-06,   97.9091E-06,  -9.74210E-03,-0.0135306,-0.0449793,0.0042346
30029,40.0,-49.0,0.0,   11.8980E-06,   122.610E-06,  -10.5339E-03,-0.0141522,-0.0467544,0.00401325
30032,39.0,-49.0,0.0,   17.0130E-06,   146.934E-06,  -11.2646E-03,-0.0146077,-0.0481098,0.00386481
30033,38.0,-49.0,0.0,   22.0781E-06,   170.456E-06,  -11.9448E-03,-0.0149402,-0.0491619,0.00376322
30038,37.0,-49.0,0.0,   26.8404E-06,   192.952E-06,  -12.5821E-03,-0.0151841,-0.0499945,0.00368853
30039,36.0,-49.0,0.0,   31.1375E-06,   214.330E-06,  -13.1823E-03,-0.0153649,-0.0506652,0.00362681
30044,35.0,-49.0,0.0,   34.8813E-06,   234.580E-06,  -13.7494E-03,-0.0155007,-0.0512132,0.00356903
30047,34.0,-49.0,0.0,   38.0392E-06,   253.738E-06,  -14.2866E-03,-0.0156042,-0.0516654,0.00350973
30048,33.0,-49.0,0.0,   40.6169E-06,   271.860E-06,  -14.7962E-03,-0.0156838,-0.0520402,0.00344595
30053,32.0,-49.0,0.0,   42.6435E-06,   289.008E-06,  -15.2801E-03,-0.0157453,-0.0523506,0.00337632
30054,31.0,-49.0,0.0,   44.1616E-06,   305.245E-06,  -15.7398E-03,-0.0157927,-0.0526061,0.00330047
30059,30.0,-49.0,0.0,   45.2196E-06,   320.631E-06,  -16.1765E-03,-0.0158286,-0.0528142,0.00321861
30062,29.0,-49.0,0.0,   45.8669E-06,   335.219E-06,  -16.5915E-03,-0.015855,-0.0529809,0.00313127
30063,28.0,-49.0,0.0,   46.1510E-06,   349.054E-06,  -16.9855E-03,-0.0158734,-0.0531111,0.00303909
30068,27.0,-49.0,0.0,   46.1162E-06,   362.178E-06,  -17.3595E-03,-0.0158847,-0.0532091,0.00294278
30069,26.0,-49.0,0.0,   45.8024E-06,   374.628E-06,  -17.7143E-03,-0.01589,-0.0532788,0.00284299
30074,25.0,-49.0,0.0,   45.2450E-06,   386.434E-06,  -18.0506E-03,-0.0158899,-0.0533237,0.00274036
30077,24.0,-49.0,0.0,   44.4753E-06,   397.624E-06,  -18.3690E-03,-0.0158852,-0.0533469,0.00263543
30078,23.0,-49.0,0.0,   43.5204E-06,   408.223E-06,  -18.6701E-03,-0.0158766,-0.0533514,0.00252867
30083,22.0,-49.0,0.0,   42.4040E-06,   418.252E-06,  -18.9545E-03,-0.0158644,-0.0533397,0.0024205
30084,21.0,-49.0,0.0,   41.1463E-06,   427.730E-06,  -19.2227E-03,-0.0158494,-0.0533144,0.00231128
30089,20.0,-49.0,0.0,   39.7649E-06,   436.675E-06,  -19.4753E-03,-0.015832,-0.0532776,0.00220127
30092,19.0,-49.0,0.0,   38.2750E-06,   445.102E-06,  -19.7127E-03,-0.0158127,-0.0532315,0.00209073
30093,18.0,-49.0,0.0,   36.6895E-06,   453.025E-06,  -19.9354E-03,-0.0157918,-0.053178,0.00197985
30098,17.0,-49.0,0.0,   35.0197E-06,   460.457E-06,  -20.1437E-03,-0.0157699,-0.0531187,0.00186877
30099,16.0,-49.0,0.0,   33.2754E-06,   467.410E-06,  -20.3380E-03,-0.0157473,-0.0530553,0.00175763
30104,15.0,-49.0,0.0,   31.4650E-06,   473.893E-06,  -20.5188E-03,-0.0157244,-0.0529893,0.00164652
30107,14.0,-49.0,0.0,   29.5958E-06,   479.917E-06,  -20.6863E-03,-0.0157014,-0.0529219,0.0015355
30108,13.0,-49.0,0.0,   27.6745E-06,   485.491E-06,  -20.8409E-03,-0.0156788,-0.0528544,0.00142463
30113,12.0,-49.0,0.0,   25.7068E-06,   490.621E-06,  -20.9829E-03,-0.0156568,-0.0527879,0.00131395
30114,11.0,-49.0,0.0,   23.6978E-06,   495.316E-06,  -21.1125E-03,-0.0156356,-0.0527233,0.00120347
30119,10.0,-49.0,0.0,   21.6523E-06,   499.582E-06,  -21.2300E-03,-0.0156155,-0.0526615,0.00109321
30120,9.0,-49.0,0.0,   19.5743E-06,   503.425E-06,  -21.3356E-03,-0.0155966,-0.0526034,0.000983162
30125,8.0,-49.0,0.0,   17.4680E-06,   506.849E-06,  -21.4296E-03,-0.0155793,-0.0525496,0.000873326
30126,7.0,-49.0,0.0,   15.3369E-06,   509.860E-06,  -21.5120E-03,-0.0155636,-0.0525007,0.000763688
30131,6.0,-49.0,0.0,   13.1845E-06,   512.462E-06,  -21.5832E-03,-0.0155497,-0.0524573,0.000654232
30134,5.0,-49.0,0.0,   11.0141E-06,   514.658E-06,  -21.6431E-03,-0.0155378,-0.0524198,0.000544936
30135,4.0,-49.0,0.0,   8.82890E-06,   516.450E-06,  -21.6920E-03,-0.0155278,-0.0523886,0.000435778
30140,3.0,-49.0,0.0,   6.63189E-06,   517.842E-06,  -21.7299E-03,-0.01552,-0.0523641,0.000326734
30141,2.0,-49.0,0.0,   4.42611E-06,   518.834E-06,  -21.7570E-03,-0.0155144,-0.0523464,0.000217774
30146,1.0,-49.0,0.0,   2.21451E-06,   519.430E-06,  -21.7732E-03,-0.015511,-0.0523357,0.000108873
30149,0.0,-49.0,0.0,   1.18698E-15,   519.628E-06,  -21.7786E-03,-0.0155099,-0.0523321,0.0
30150,-1.0,-49.0,0.0,  -2.21451E-06,   519.430E-06,  -21.7732E-03,-0.015511,-0.0523357,-0.000108873
30155,-2.0,-49.0,0.0,  -4.42611E-06,   518.834E-06,  -21.7570E-03,-0.0155144,-0.0523464,-0.000217774
30156,-3.0,-49.0,0.0,  -6.63189E-06,   517.842E-06,  -21.7299E-03,-0.01552,-0.0523641,-0.000326734
30161,-4.0,-49.0,0.0,  -8.82890E-06,   516.450E-06,  -21.6920E-03,-0.0155278,-0.0523886,-0.000435779
30164,-5.0,-49.0,0.0,  -11.0141E-06,   514.658E-06,  -21.6431E-03,-0.0155378,-0.0524198,-0.000544936
30165,-6.0,-49.0,0.0,  -13.1845E-06,   512.462E-06,  -21.5832E-03,-0.0155497,-0.0524573,-0.000654232
30170,-7.0,-49.0,0.0,  -15.3369E-06,   509.860E-06,  -21.5120E-03,-0.0155636,-0.0525007,-0.000763688
30171,-8.0,-49.0,0.0,  -17.4680E-06,   506.849E-06,  -21.4296E-03,-0.0155793,-0.0525496,-0.000873326
30176,-9.0,-49.0,0.0,  -19.5743E-06,   503.425E-06,  -21.3356E-03,-0.0155966,-0.0526034,-0.000983162
30179,-10.0,-49.0,0.0,  -21.6523E-06,   499.582E-06,  -21.2300E-03,-0.0156155,-0.0526615,-0.00109321
30180,-11.0,-49.0,0.0,  -23.6978E-06,   495.316E-06,  -21.1125E-03,-0.0156356,-0.0527233,-0.00120347
30185,-12.0,-49.0,0.0,  -25.7068E-06,   490.621E-06,  -20.9829E-03,-0.0156568,-0.0527879,-0.00131395
30186,-13.0,-49.0,0.0,  -27.6745E-06,   485.491E-06,  -20.8409E-03,-0.0156788,-0.0528544,-0.00142463
30191,-14.0,-49.0,0.0,  -29.5958E-06,   479.917E-06,  -20.6863E-03,-0.0157014,-0.0529219,-0.0015355
30194,-15.0,-49.0,0.0,  -31.4650E-06,   473.893E-06,  -20.5188E-03,-0.0157244,-0.0529893,-0.00164652
30195,-16.0,-49.0,0.0,  -33.2754E-06,   467.410E-06,  -20.3380E-03,-0.0157473,-0.0530553,-0.00175763
30200,-17.0,-49.0,0.0,  -35.0197E-06,   460.457E-06,  -20.1437E-03,-0.0157699,-0.0531187,-0.00186877
30201,-18.0,-49.0,0.0,  -36.6895E-06,   453.025E-06,  -19.9354E-03,-0.0157918,-0.053178,-0.00197985
30206,-19.0,-49.0,0.0,  -38.2750E-06,   445.102E-06,  -19.7127E-03,-0.0158127,-0.0532315,-0.00209073
30209,-20.0,-49.0,0.0,  -39.7649E-06,   436.675E-06,  -19.4753E-03,-0.015832,-0.0532776,-0.00220127
30210,-21.0,-49.0,0.0,  -41.1463E-06,   427.730E-06,  -19.2227E-03,-0.0158494,-0.0533144,-0.00231128
30215,-22.0,-49.0,0.0,  -42.4040E-06,   418.252E-06,  -18.9545E-03,-0.0158644,-0.0533397,-0.0024205
30216,-23.0,-49.0,0.0,  -43.5204E-06,   408.223E-06,  -18.6701E-03,-0.0158766,-0.0533514,-0.00252867
30221,-24.0,-49.0,0.0,  -44.4753E-06,   397.624E-06,  -18.3690E-03,-0.0158852,-0.0533469,-0.00263543
30224,-25.0,-49.0,0.0,  -45.2450E-06,   386.434E-06,  -18.0506E-03,-0.0158899,-0.0533237,-0.00274036
30225,-26.0,-49.0,0.0,  -45.8024E-06,   374.628E-06,  -17.7143E-03,-0.01589,-0.0532788,-0.00284299
30230,-27.0,-49.0,0.0,  -46.1162E-06,   362.178E-06,  -17.3595E-03,-0.0158847,-0.0532091,-0.00294278
30231,-28.0,-49.0,0.0,  -46.1510E-06,   349.054E-06,  -16.9855E-03,-0.0158734,-0.0531111,-0.00303909
30236,-29.0,-49.0,0.0,  -45.8669E-06,   335.219E-06,  -16.5915E-03,-0.015855,-0.0529809,-0.00313127
30239,-30.0,-49.0,0.0,  -45.2196E-06,   320.631E-06,  -16.1765E-03,-0.0158286,-0.0528142,-0.00321861
30240,-31.0,-49.0,0.0,  -44.1616E-06,   305.245E-06,  -15.7398E-03,-0.0157927,-0.0526061,-0.00330047
30245,-32.0,-49.0,0.0,  -42.6435E-06,   289.008E-06,  -15.2801E-03,-0.0157453,-0.0523506,-0.00337632
30246,-33.0,-49.0,0.0,  -40.6169E-06,   271.860E-06,  -14.7962E-03,-0.0156838,-0.0520402,-0.00344595
30251,-34.0,-49.0,0.0,  -38.0392E-06,   253.738E-06,  -14.2866E-03,-0.0156042,-0.0516654,-0.00350973
30254,-35.0,-49.0,0.0,  -34.8813E-06,   234.580E-06,  -13.7494E-03,-0.0155007,-0.0512132,-0.00356903
30255,-36.0,-49.0,0.0,  -31.1375E-06,   214.330E-06,  -13.1823E-03,-0.0153649,-0.0506652,-0.00362681
30260,-37.0,-49.0,0.0,  -26.8404E-06,   192.952E-06,  -12.5821E-03,-0.0151841,-0.0499945,-0.00368853
30261,-38.0,-49.0,0.0,  -22.0781E-06,   170.456E-06,  -11.9448E-03,-0.0149402,-0.0491619,-0.00376322
30266,-39.0,-49.0,0.0,  -17.0130E-06,   146.934E-06,  -11.2646E-03,-0.0146077,-0.0481098,-0.00386481
30269,-40.0,-49.0,0.0,  -11.8980E-06,   122.610E-06,  -10.5339E-03,-0.0141522,-0.0467544,-0.00401324
30270,-41.0,-49.0,0.0,  -7.08022E-06,   97.9091E-06,  -9.74210E-03,-0.0135306,-0.0449793,-0.0042346
30275,-42.0,-49.0,0.0,  -2.97966E-06,   73.5273E-06,  -8.87545E-03,-0.0126923,-0.042628,-0.00455872
30276,-43.0,-49.0,0.0,  -26.0789E-09,   50.4870E-06,  -7.91681E-03,-0.0115899,-0.0395106,-0.00501151
30281,-44.0,-49.0,0.0,   1.45860E-06,   30.1148E-06,  -6.84755E-03,-0.0101924,-0.0354175,-0.00559816
30284,-45.0,-49.0,0.0,   1.42541E-06,   13.8789E-06,  -5.65269E-03,-0.00851659,-0.0301861,-0.00627409
30285,-46.0,-49.0,0.0,   258.002E-09,   3.00263E-06,  -4.33217E-03,-0.00667153,-0.0237875,-0.00689407
30290,-47.0,-49.0,0.0,  -1.20069E-06,  -2.16353E-06,  -2.92357E-03,-0.00489382,-0.0165253,-0.00715949
30291,-48.0,-49.0,0.0,  -1.93259E-06,  -2.75038E-06,  -1.53632E-03,-0.00373595,-0.00927052,-0.00649318
30296,-49.0,-49.0,0.0,  -1.44147E-06,  -1.44147E-06,  -432.832E-06,-0.00345425,-0.00345425,-0.00418513
30299,-50.0,-49.0,0.0,  -2.43265E-42,   732.879E-45,           -0.,-0.00347146,-0.00103982,-0.00121791
30300,50.0,-50.0,0.0,   32.2299E-45,  -32.2299E-45,           -0.,-2.11064e-05,-2.11063e-05,3.75496e-05
30305,49.0,-50.0,0.0,   4.45473E-42,  -8.35314E-42,            0.,-0.00103982,-0.00347146,0.00121791
30306,48.0,-50.0,0.0,  -2.14118E-42,  -612.367E-45,           -0.,-0.00355843,-0.0118969,0.00183612
30311,47.0,-50.0,0.0,  -17.1014E-42,   28.6467E-42,           -0.,-0.00664676,-0.0222295,0.00188207
30314,46.0,-50.0,0.0,  -39.2812E-42,   84.1956E-42,           -0.,-0.00964324,-0.0322296,0.00168171
30315,45.0,-50.0,0.0,  -66.4552E-42,   164.019E-42,           -0.,-0.0122837,-0.0410204,0.00140243
30320,44.0,-50.0,0.0,  -96.4388E-42,   262.409E-42,           -0.,-0.0144963,-0.0483731,0.00115313
30321,43.0,-50.0,0.0,  -127.584E-42,   372.808E-42,           -0.,-0.0163154,-0.0544124,0.000980242
30326,42.0,-50.0,0.0,  -158.847E-42,   489.489E-42,           -0.,-0.0178118,-0.0593794,0.000891638
30329,41.0,-50.0,0.0,  -189.667E-42,   608.168E-42,           -0.,-0.0190612,-0.0635286,0.000875866
30330,40.0,-50.0,0.0,  -219.806E-42,   725.989E-42,           -0.,-0.0201277,-0.0670736,0.000912625
30335,39.0,-50.0,0.0,  -249.207E-42,   841.250E-42,           -0.,-0.0210606,-0.0701774,0.000982154
30336,38.0,-50.0,0.0,  -277.894E-42,   953.054E-42,           -0.,-0.0218947,-0.0729553,0.00106755
30341,37.0,-50.0,0.0,  -305.926E-42,   1.06101E-39,           -0.,-0.0226541,-0.0754859,0.00115652
30344,36.0,-50.0,0.0,  -333.349E-42,   1.16504E-39,           -0.,-0.0233547,-0.0778216,0.00124072
30345,35.0,-50.0,0.0,  -360.200E-42,   1.26519E-39,           -0.,-0.0240069,-0.0799967,0.00131516
30350,34.0,-50.0,0.0,  -386.496E-42,   1.36160E-39,           -0.,-0.0246177,-0.082034,0.00137727
30351,33.0,-50.0,0.0,  -412.241E-42,   1.45441E-39,           -0.,-0.0251917,-0.0839488,0.00142611
30356,32.0,-50.0,0.0,  -437.422E-42,   1.54374E-39,           -0.,-0.0257323,-0.0857519,0.0014618
30359,31.0,-50.0,0.0,  -462.028E-42,   1.62973E-39,           -0.,-0.0262418,-0.0874516,0.00148506
30360,30.0,-50.0,0.0,  -486.035E-42,   1.71248E-39,           -0.,-0.0267223,-0.0890541,0.00149694
30365,29.0,-50.0,0.0,  -509.421E-42,   1.79206E-39,           -0.,-0.0271752,-0.0905647,0.00149861
30366,28.0,-50.0,0.0,  -532.168E-42,   1.86855E-39,           -0.,-0.0276019,-0.0919881,0.00149125
30371,27.0,-50.0,0.0,  -554.253E-42,   1.94200E-39,           -0.,-0.0280038,-0.0933284,0.00147599
30374,26.0,-50.0,0.0,  -575.660E-42,   2.01247E-39,           -0.,-0.0283819,-0.0945896,0.00145384
30375,25.0,-50.0,0.0,  -596.374E-42,   2.08000E-39,           -0.,-0.0287374,-0.0957751,0.00142573
30380,24.0,-50.0,0.0,  -616.382E-42,   2.14462E-39,           -0.,-0.0290713,-0.0968885,0.00139246
30381,23.0,-50.0,0.0,  -635.675E-42,   2.20639E-39,           -0.,-0.0293844,-0.0979329,0.00135474
30386,22.0,-50.0,0.0,  -654.244E-42,   2.26533E-39,           -0.,-0.0296779,-0.0989114,0.00131318
30389,21.0,-50.0,0.0,  -672.084E-42,   2.32147E-39,           -0.,-0.0299524,-0.0998269,0.0012683
30390,20.0,-50.0,0.0,  -689.189E-42,   2.37484E-39,           -0.,-0.0302089,-0.100682,0.00122054
30395,19.0,-50.0,0.0,  -705.561E-42,   2.42548E-39,           -0.,-0.030448,-0.10148,0.0011703
30396,18.0,-50.0,0.0,  -721.196E-42,   2.47342E-39,           -0.,-0.0306707,-0.102222,0.0011179
30401,17.0,-50.0,0.0,  -736.095E-42,   2.51869E-39,           -0.,-0.0308774,-0.102912,0.00106362
30404,16.0,-50.0,0.0,  -750.258E-42,   2.56130E-39,           -0.,-0.031069,-0.103551,0.00100769
30405,15.0,-50.0,0.0,  -763.687E-42,   2.60130E-39,           -0.,-0.031246,-0.104141,0.000950326
30410,14.0,-50.0,0.0,  -776.384E-42,   2.63870E-39,           -0.,-0.0314089,-0.104684,0.000891701
30411,13.0,-50.0,0.0,  -788.351E-42,   2.67354E-39,           -0.,-0.0315584,-0.105182,0.000831969
30416,12.0,-50.0,0.0,  -799.589E-42,   2.70583E-39,           -0.,-0.0316948,-0.105637,0.000771261
30419,11.0,-50.0,0.0,  -810.100E-42,   2.73559E-39,           -0.,-0.0318187,-0.106051,0.000709695
30420,10.0,-50.0,0.0,  -819.890E-42,   2.76285E-39,           -0.,-0.0319304,-0.106423,0.000647375
30425,9.0,-50.0,0.0,  -828.956E-42,   2.78763E-39,           -0.,-0.0320304,-0.106757,0.000584394
30426,8.0,-50.0,0.0,  -837.301E-42,   2.80994E-39,           -0.,-0.0321189,-0.107052,0.000520836
30431,7.0,-50.0,0.0,  -844.926E-42,   2.82979E-39,           -0.,-0.0321963,-0.10731,0.000456779
30434,6.0,-50.0,0.0,  -851.831E-42,   2.84721E-39,           -0.,-0.0322629,-0.107532,0.000392294
30435,5.0,-50.0,0.0,  -858.015E-42,   2.86219E-39,           -0.,-0.0323188,-0.107719,0.000327449
30440,4.0,-50.0,0.0,  -863.480E-42,   2.87475E-39,           -0.,-0.0323643,-0.10787,0.000262308
30441,3.0,-50.0,0.0,  -868.222E-42,   2.88489E-39,           -0.,-0.0323996,-0.107988,0.000196934
30446,2.0,-50.0,0.0,  -872.238E-42,   2.89262E-39,           -0.,-0.0324246,-0.108071,0.000131385
30449,1.0,-50.0,0.0,  -875.528E-42,   2.89794E-39,           -0.,-0.0324396,-0.108121,6.57213e-05
30450,0.0,-50.0,0.0,  -878.089E-42,   2.90084E-39,           -0.,-0.0324446,-0.108138,9.09495e-13
30455,-1.0,-50.0,0.0,  -879.912E-42,   2.90133E-39,           -0.,-0.0324396,-0.108121,-6.57213e-05
30456,-2.0,-50.0,0.0,  -880.996E-42,   2.89939E-39,           -0.,-0.0324246,-0.108071,-0.000131385
30461,-3.0,-50.0,0.0,  -881.334E-42,   2.89501E-39,           -0.,-0.0323996,-0.107988,-0.000196934
30464,-4.0,-50.0,0.0,  -880.918E-42,   2.88820E-39,           -0.,-0.0323643,-0.10787,-0.000262308
30465,-5.0,-50.0,0.0,  -879.742E-42,   2.87892E-39,           -0.,-0.0323188,-0.107719,-0.000327449
30470,-6.0,-50.0,0.0,  -877.797E-42,   2.86717E-39,           -0.,-0.0322629,-0.107532,-0.000392294
30471,-7.0,-50.0,0.0,  -875.074E-42,   2.85293E-39,           -0.,-0.0321963,-0.10731,-0.000456779
30476,-8.0,-50.0,0.0,  -871.563E-42,   2.83617E-39,           -0.,-0.0321189,-0.107052,-0.000520836
30479,-9.0,-50.0,0.0,  -867.251E-42,   2.81686E-39,           -0.,-0.0320304,-0.106757,-0.000584394
30480,-10.0,-50.0,0.0,  -862.128E-42,   2.79499E-39,           -0.,-0.0319304,-0.106423,-0.000647375
30485,-11.0,-50.0,0.0,  -856.178E-42,   2.77053E-39,           -0.,-0.0318187,-0.106051,-0.000709695
30486,-12.0,-50.0,0.0,  -849.390E-42,   2.74344E-39,           -0.,-0.0316948,-0.105637,-0.000771261
30491,-13.0,-50.0,0.0,  -841.745E-42,   2.71368E-39,           -0.,-0.0315584,-0.105182,-0.000831968
30494,-14.0,-50.0,0.0,  -833.225E-42,   2.68122E-39,           -0.,-0.0314089,-0.104684,-0.000891702
30495,-15.0,-50.0,0.0,  -823.812E-42,   2.64601E-39,           -0.,-0.031246,-0.104141,-0.000950326
30500,-16.0,-50.0,0.0,  -813.486E-42,   2.60802E-39,           -0.,-0.031069,-0.103551,-0.00100769
30501,-17.0,-50.0,0.0,  -802.221E-42,   2.56719E-39,           -0.,-0.0308774,-0.102912,-0.00106362
30506,-18.0,-50.0,0.0,  -789.992E-42,   2.52348E-39,           -0.,-0.0306707,-0.102222,-0.0011179
30509,-19.0,-50.0,0.0,  -776.768E-42,   2.47681E-39,           -0.,-0.030448,-0.10148,-0.0011703
30510,-20.0,-50.0,0.0,  -762.519E-42,   2.42714E-39,           -0.,-0.0302089,-0.100682,-0.00122054
30515,-21.0,-50.0,0.0,  -747.207E-42,   2.37439E-39,           -0.,-0.0299524,-0.0998269,-0.0012683
30516,-22.0,-50.0,0.0,  -730.790E-42,   2.31849E-39,           -0.,-0.0296779,-0.0989114,-0.00131318
30521,-23.0,-50.0,0.0,  -713.222E-42,   2.25935E-39,           -0.,-0.0293844,-0.0979329,-0.00135474
30524,-24.0,-50.0,0.0,  -694.448E-42,   2.19688E-39,           -0.,-0.0290713,-0.0968885,-0.00139246
30525,-25.0,-50.0,0.0,  -674.409E-42,   2.13098E-39,           -0.,-0.0287374,-0.0957751,-0.00142573
30530,-26.0,-50.0,0.0,  -653.035E-42,   2.06152E-39,           -0.,-0.0283819,-0.0945896,-0.00145384
30531,-27.0,-50.0,0.0,  -630.247E-42,   1.98837E-39,           -0.,-0.0280038,-0.0933284,-0.00147599
30536,-28.0,-50.0,0.0,  -605.956E-42,   1.91138E-39,           -0.,-0.0276019,-0.0919881,-0.00149125
30539,-29.0,-50.0,0.0,  -580.066E-42,   1.83037E-39,           -0.,-0.0271752,-0.0905647,-0.00149861
30540,-30.0,-50.0,0.0,  -552.466E-42,   1.74516E-39,           -0.,-0.0267223,-0.0890541,-0.00149694
30545,-31.0,-50.0,0.0,  -523.042E-42,   1.65552E-39,           -0.,-0.0262418,-0.0874516,-0.00148506
30546,-32.0,-50.0,0.0,  -491.675E-42,   1.56123E-39,           -0.,-0.0257323,-0.0857519,-0.0014618
30551,-33.0,-50.0,0.0,  -458.255E-42,   1.46203E-39,           -0.,-0.0251917,-0.0839488,-0.00142611
30554,-34.0,-50.0,0.0,  -422.693E-42,   1.35771E-39,           -0.,-0.0246177,-0.082034,-0.00137727
30555,-35.0,-50.0,0.0,  -384.949E-42,   1.24806E-39,           -0.,-0.0240069,-0.0799967,-0.00131516
30560,-36.0,-50.0,0.0,  -345.067E-42,   1.13301E-39,           -0.,-0.0233547,-0.0778216,-0.00124072
30561,-37.0,-50.0,0.0,  -303.231E-42,   1.01266E-39,           -0.,-0.0226541,-0.0754859,-0.00115652
30566,-38.0,-50.0,0.0,  -259.832E-42,   887.452E-42,           -0.,-0.0218947,-0.0729553,-0.00106755
30569,-39.0,-50.0,0.0,  -215.549E-42,   758.369E-42,           -0.,-0.0210606,-0.0701774,-0.000982154
30570,-40.0,-50.0,0.0,  -171.432E-42,   627.150E-42,           -0.,-0.0201277,-0.0670736,-0.000912625
30575,-41.0,-50.0,0.0,  -128.956E-42,   496.587E-42,           -0.,-0.0190612,-0.0635286,-0.000875866
30576,-42.0,-50.0,0.0,  -89.9928E-42,   370.739E-42,           -0.,-0.0178118,-0.0593794,-0.000891638
30581,-43.0,-50.0,0.0,  -56.6349E-42,   254.969E-42,           -0.,-0.0163154,-0.0544124,-0.000980242
30584,-44.0,-50.0,0.0,  -30.8033E-42,   155.541E-42,           -0.,-0.0144963,-0.0483731,-0.00115313
30585,-45.0,-50.0,0.0,  -13.6136E-42,   78.5372E-42,           -0.,-0.0122837,-0.0410204,-0.00140243
30590,-46.0,-50.0,0.0,  -4.63690E-42,   27.8760E-42,           -0.,-0.00964324,-0.0322296,-0.00168171
30591,-47.0,-50.0,0.0,  -1.48958E-42,   2.79419E-42,           -0.,-0.00664676,-0.0222295,-0.00188207
30596,-48.0,-50.0,0.0,  -451.218E-45,  -3.88440E-42,           -0.,-0.00355843,-0.0118969,-0.00183612
30597,-49.0,-50.0,0.0,   732.879E-45,  -2.43265E-42,           -0.,-0.00103982,-0.00347146,-0.00121791
30602,-50.0,-50.0,0.0,  -32.2299E-45,  -32.2299E-45,           -0.,-2.11064e-05,-2.11063e-05,-3.75496e-05
